
     Program PWSCF v.7.5 starts on  7Jul2026 at 12:32:14 

     This program is part of the open-source Quantum ESPRESSO suite
     for quantum simulation of materials; please cite
         "P. Giannozzi et al., J. Phys.:Condens. Matter 21 395502 (2009);
         "P. Giannozzi et al., J. Phys.:Condens. Matter 29 465901 (2017);
         "P. Giannozzi et al., J. Chem. Phys. 152 154105 (2020);
          URL http://www.quantum-espresso.org", 
     in publications or presentations arising from this work. More details at
     http://www.quantum-espresso.org/quote

     Parallel version (MPI), running on    24 processors

     MPI processes distributed on     1 nodes
     207372 MiB available memory on the printing compute node when the environment starts

     Reading input from al2o3_scf.in

     Current dimensions of program PWSCF are:
     Max number of different atomic species (ntypx) = 10
     Max number of k-points (npk) =  40000
     Max angular momentum in pseudopotentials (lmaxx) =  4
     file Al.pbe-n-kjpaw_psl.1.0.0.UPF: wavefunction(s)  3S 3P renormalized
     file O.pbe-n-kjpaw_psl.0.1.UPF: wavefunction(s)  2P renormalized
     Found identity + (  0.0000 -0.5000  0.0000) symmetry
     This is a supercell, fractional translations are disabled

     R & G space division:  proc/nbgrp/npool/nimage =      24
     Subspace diagonalization in iterative solution of the eigenvalue problem:
     one sub-group per band group will be used
     custom distributed-memory algorithm (size of sub-group:  3*  3 procs)


     Parallelization info
     --------------------
     sticks:   dense  smooth     PW     G-vecs:    dense   smooth      PW
     Min         455     227     62               157159    55563    7920
     Max         456     228     63               157166    55578    7931
     Sum       10939    5461   1495              3771945  1333651  190169

     Using Slab Decomposition



     bravais-lattice index     =            0
     lattice parameter (alat)  =      18.1604  a.u.
     unit-cell volume          =   21237.8132 (a.u.)^3
     number of atoms/cell      =          120
     number of atomic types    =            2
     number of electrons       =       576.00
     number of Kohn-Sham states=          288
     kinetic-energy cutoff     =      60.0000  Ry
     charge density cutoff     =     480.0000  Ry
     scf convergence threshold =      1.0E-08
     mixing beta               =       0.3000
     number of iterations used =            8  plain     mixing
     Exchange-correlation= SLA  PW   PBX  PBC
                           (   1   4   3   4   0   0   0)

     celldm(1)=  18.160371  celldm(2)=   0.000000  celldm(3)=   0.000000
     celldm(4)=   0.000000  celldm(5)=   0.000000  celldm(6)=   0.000000

     crystal axes: (cart. coord. in units of alat)
               a(1) = (   1.000000   0.000000   0.000000 )  
               a(2) = (  -0.500000   0.866025   0.000000 )  
               a(3) = (   0.000000   0.000000   4.094541 )  

     reciprocal axes: (cart. coord. in units 2 pi/alat)
               b(1) = (  1.000000  0.577351 -0.000000 )  
               b(2) = (  0.000000  1.154701  0.000000 )  
               b(3) = (  0.000000 -0.000000  0.244228 )  


     PseudoPot. # 1 for Al read from file:
     ./Al.pbe-n-kjpaw_psl.1.0.0.UPF
     MD5 check sum: cfc449ca30b5f3223ec38ddd88ac046d
     Pseudo is Projector augmented-wave + core cor, Zval =  3.0
     Generated using "atomic" code by A. Dal Corso  v.5.1
     Shape of augmentation charge: PSQ
     Using radial grid of 1135 points,  6 beta functions with: 
                l(1) =   0
                l(2) =   0
                l(3) =   1
                l(4) =   1
                l(5) =   2
                l(6) =   2
     Q(r) pseudized with 0 coefficients 


     PseudoPot. # 2 for O  read from file:
     ./O.pbe-n-kjpaw_psl.0.1.UPF
     MD5 check sum: 0234752ac141de4415c5fc33072bef88
     Pseudo is Projector augmented-wave + core cor, Zval =  6.0
     Generated using "atomic" code by A. Dal Corso  v.5.0.99 svn rev. 10869
     Shape of augmentation charge: BESSEL
     Using radial grid of 1095 points,  4 beta functions with: 
                l(1) =   0
                l(2) =   0
                l(3) =   1
                l(4) =   1
     Q(r) pseudized with 0 coefficients 


     atomic species   valence    mass     pseudopotential
     Al                3.00    26.98154     Al( 1.00)
     O                 6.00    15.99900     O ( 1.00)

     No symmetry found



   Cartesian axes

     site n.     atom                  positions (alat units)
         1        Al     tau(   1) = (   0.0000000   0.2886751   2.4969893  )
         2        Al     tau(   2) = (   0.2500000   0.1443376   2.2977772  )
         3        Al     tau(   3) = (   0.0000000   0.0000000   2.2508135  )
         4        Al     tau(   4) = (  -0.0000000   0.2886751   2.0745549  )
         5        Al     tau(   5) = (   0.0000000   0.0000000   1.5695993  )
         6        Al     tau(   6) = (   0.0000000   0.2886751   1.4658601  )
         7        Al     tau(   7) = (   0.2500000   0.1443376   2.6286807  )
         8        Al     tau(   8) = (   0.0000000   0.0000000   2.5249415  )
         9        Al     tau(   9) = (   0.2500000   0.1443376   2.0199859  )
        10        Al     tau(  10) = (   0.0000000   0.0000000   1.8437273  )
        11        Al     tau(  11) = (   0.0000000   0.2886751   1.7967636  )
        12        Al     tau(  12) = (   0.2500000   0.1443376   1.5975515  )
        13        O      tau(  13) = (   0.0968681   0.1437070   2.1610469  )
        14        O      tau(  14) = (   0.1725498   0.2980776   2.3907832  )
        15        O      tau(  15) = (   0.3260199   0.2772690   2.1610469  )
        16        O      tau(  16) = (   0.3271120   0.0120367   2.1610469  )
        17        O      tau(  17) = (   0.4218679   0.1345414   2.3907832  )
        18        O      tau(  18) = (   0.1555823   0.0003937   2.3907832  )
        19        O      tau(  19) = (  -0.1576935   0.2955292   2.6169175  )
        20        O      tau(  20) = (   0.1652175   0.0111980   1.4776233  )
        21        O      tau(  21) = (   0.0847825   0.4218147   2.6169175  )
        22        O      tau(  22) = (   0.0729110   0.1486816   2.6169175  )
        23        O      tau(  23) = (   0.1770890   0.2843311   1.4776233  )
        24        O      tau(  24) = (   0.4076935   0.1374835   1.4776233  )
        25        O      tau(  25) = (   0.3444177  -0.0003937   1.7037575  )
        26        O      tau(  26) = (  -0.0760199   0.1557437   1.9334939  )
        27        O      tau(  27) = (   0.0774502   0.1349351   1.7037575  )
        28        O      tau(  28) = (   0.3281321   0.2984713   1.7037575  )
        29        O      tau(  29) = (  -0.0771120   0.4209760   1.9334939  )
        30        O      tau(  30) = (   0.1531319   0.2893057   1.9334939  )
        31        Al     tau(  31) = (  -0.2500000   0.7216878   2.4969893  )
        32        Al     tau(  32) = (   0.0000000   0.5773503   2.2977772  )
        33        Al     tau(  33) = (  -0.2500000   0.4330127   2.2508135  )
        34        Al     tau(  34) = (  -0.2500000   0.7216878   2.0745549  )
        35        Al     tau(  35) = (  -0.2500000   0.4330127   1.5695993  )
        36        Al     tau(  36) = (  -0.2500000   0.7216878   1.4658601  )
        37        Al     tau(  37) = (   0.0000000   0.5773503   2.6286807  )
        38        Al     tau(  38) = (  -0.2500000   0.4330127   2.5249415  )
        39        Al     tau(  39) = (   0.0000000   0.5773503   2.0199859  )
        40        Al     tau(  40) = (  -0.2500000   0.4330127   1.8437273  )
        41        Al     tau(  41) = (  -0.2500000   0.7216878   1.7967636  )
        42        Al     tau(  42) = (   0.0000000   0.5773503   1.5975515  )
        43        O      tau(  43) = (  -0.1531319   0.5767197   2.1610469  )
        44        O      tau(  44) = (  -0.0774502   0.7310903   2.3907832  )
        45        O      tau(  45) = (   0.0760199   0.7102817   2.1610469  )
        46        O      tau(  46) = (   0.0771120   0.4450494   2.1610469  )
        47        O      tau(  47) = (   0.1718679   0.5675541   2.3907832  )
        48        O      tau(  48) = (  -0.0944177   0.4334064   2.3907832  )
        49        O      tau(  49) = (  -0.4076935   0.7285419   2.6169175  )
        50        O      tau(  50) = (  -0.0847825   0.4442107   1.4776233  )
        51        O      tau(  51) = (  -0.1652175   0.8548274   2.6169175  )
        52        O      tau(  52) = (  -0.1770890   0.5816943   2.6169175  )
        53        O      tau(  53) = (  -0.0729110   0.7173438   1.4776233  )
        54        O      tau(  54) = (   0.1576935   0.5704962   1.4776233  )
        55        O      tau(  55) = (   0.0944177   0.4326190   1.7037575  )
        56        O      tau(  56) = (  -0.3260199   0.5887564   1.9334939  )
        57        O      tau(  57) = (  -0.1725498   0.5679478   1.7037575  )
        58        O      tau(  58) = (   0.0781321   0.7314840   1.7037575  )
        59        O      tau(  59) = (  -0.3271120   0.8539887   1.9334939  )
        60        O      tau(  60) = (  -0.0968681   0.7223184   1.9334939  )
        61        Al     tau(  61) = (   0.5000000   0.2886751   2.4969893  )
        62        Al     tau(  62) = (   0.7500000   0.1443376   2.2977772  )
        63        Al     tau(  63) = (   0.5000000   0.0000000   2.2508135  )
        64        Al     tau(  64) = (   0.5000000   0.2886751   2.0745549  )
        65        Al     tau(  65) = (   0.5000000   0.0000000   1.5695993  )
        66        Al     tau(  66) = (   0.5000000   0.2886751   1.4658601  )
        67        Al     tau(  67) = (   0.7500000   0.1443376   2.6286807  )
        68        Al     tau(  68) = (   0.5000000  -0.0000000   2.5249415  )
        69        Al     tau(  69) = (   0.7500000   0.1443376   2.0199859  )
        70        Al     tau(  70) = (   0.5000000   0.0000000   1.8437273  )
        71        Al     tau(  71) = (   0.5000000   0.2886751   1.7967636  )
        72        Al     tau(  72) = (   0.7500000   0.1443376   1.5975515  )
        73        O      tau(  73) = (   0.5968681   0.1437070   2.1610469  )
        74        O      tau(  74) = (   0.6725498   0.2980776   2.3907832  )
        75        O      tau(  75) = (   0.8260199   0.2772690   2.1610469  )
        76        O      tau(  76) = (   0.8271120   0.0120367   2.1610469  )
        77        O      tau(  77) = (   0.9218679   0.1345414   2.3907832  )
        78        O      tau(  78) = (   0.6555823   0.0003937   2.3907832  )
        79        O      tau(  79) = (   0.3423065   0.2955292   2.6169175  )
        80        O      tau(  80) = (   0.6652175   0.0111980   1.4776233  )
        81        O      tau(  81) = (   0.5847825   0.4218147   2.6169175  )
        82        O      tau(  82) = (   0.5729110   0.1486816   2.6169175  )
        83        O      tau(  83) = (   0.6770890   0.2843311   1.4776233  )
        84        O      tau(  84) = (   0.9076935   0.1374835   1.4776233  )
        85        O      tau(  85) = (   0.8444177  -0.0003937   1.7037575  )
        86        O      tau(  86) = (   0.4239801   0.1557437   1.9334939  )
        87        O      tau(  87) = (   0.5774502   0.1349351   1.7037575  )
        88        O      tau(  88) = (   0.8281321   0.2984713   1.7037575  )
        89        O      tau(  89) = (   0.4228880   0.4209760   1.9334939  )
        90        O      tau(  90) = (   0.6531319   0.2893057   1.9334939  )
        91        Al     tau(  91) = (   0.2500000   0.7216878   2.4969893  )
        92        Al     tau(  92) = (   0.5000000   0.5773503   2.2977772  )
        93        Al     tau(  93) = (   0.2500000   0.4330127   2.2508135  )
        94        Al     tau(  94) = (   0.2500000   0.7216878   2.0745549  )
        95        Al     tau(  95) = (   0.2500000   0.4330127   1.5695993  )
        96        Al     tau(  96) = (   0.2500000   0.7216878   1.4658601  )
        97        Al     tau(  97) = (   0.5000000   0.5773503   2.6286807  )
        98        Al     tau(  98) = (   0.2500000   0.4330127   2.5249415  )
        99        Al     tau(  99) = (   0.5000000   0.5773503   2.0199859  )
       100        Al     tau( 100) = (   0.2500000   0.4330127   1.8437273  )
       101        Al     tau( 101) = (   0.2500000   0.7216878   1.7967636  )
       102        Al     tau( 102) = (   0.5000000   0.5773503   1.5975515  )
       103        O      tau( 103) = (   0.3468681   0.5767197   2.1610469  )
       104        O      tau( 104) = (   0.4225498   0.7310903   2.3907832  )
       105        O      tau( 105) = (   0.5760199   0.7102817   2.1610469  )
       106        O      tau( 106) = (   0.5771120   0.4450494   2.1610469  )
       107        O      tau( 107) = (   0.6718679   0.5675541   2.3907832  )
       108        O      tau( 108) = (   0.4055823   0.4334064   2.3907832  )
       109        O      tau( 109) = (   0.0923065   0.7285419   2.6169175  )
       110        O      tau( 110) = (   0.4152175   0.4442107   1.4776233  )
       111        O      tau( 111) = (   0.3347825   0.8548274   2.6169175  )
       112        O      tau( 112) = (   0.3229110   0.5816943   2.6169175  )
       113        O      tau( 113) = (   0.4270890   0.7173438   1.4776233  )
       114        O      tau( 114) = (   0.6576935   0.5704962   1.4776233  )
       115        O      tau( 115) = (   0.5944177   0.4326190   1.7037575  )
       116        O      tau( 116) = (   0.1739801   0.5887564   1.9334939  )
       117        O      tau( 117) = (   0.3274502   0.5679478   1.7037575  )
       118        O      tau( 118) = (   0.5781321   0.7314840   1.7037575  )
       119        O      tau( 119) = (   0.1728880   0.8539887   1.9334939  )
       120        O      tau( 120) = (   0.4031319   0.7223184   1.9334939  )

     number of k points=    16
                       cart. coord. in units 2pi/alat
        k(    1) = (   0.0000000   0.0000000   0.0000000), wk =   0.1250000
        k(    2) = (   0.0000000   0.2886753   0.0000000), wk =   0.1250000
        k(    3) = (   0.0000000  -0.5773505   0.0000000), wk =   0.1250000
        k(    4) = (   0.0000000  -0.2886753   0.0000000), wk =   0.1250000
        k(    5) = (   0.2500000   0.1443376   0.0000000), wk =   0.1250000
        k(    6) = (   0.2500000   0.4330129   0.0000000), wk =   0.1250000
        k(    7) = (   0.2500000  -0.4330129   0.0000000), wk =   0.1250000
        k(    8) = (   0.2500000  -0.1443376   0.0000000), wk =   0.1250000
        k(    9) = (  -0.5000000  -0.2886753   0.0000000), wk =   0.1250000
        k(   10) = (  -0.5000000   0.0000000   0.0000000), wk =   0.1250000
        k(   11) = (  -0.5000000  -0.8660258   0.0000000), wk =   0.1250000
        k(   12) = (  -0.5000000  -0.5773505   0.0000000), wk =   0.1250000
        k(   13) = (  -0.2500000  -0.1443376   0.0000000), wk =   0.1250000
        k(   14) = (  -0.2500000   0.1443376   0.0000000), wk =   0.1250000
        k(   15) = (  -0.2500000  -0.7216882   0.0000000), wk =   0.1250000
        k(   16) = (  -0.2500000  -0.4330129   0.0000000), wk =   0.1250000

     Dense  grid:  3771945 G-vectors     FFT dimensions: ( 128, 128, 540)

     Smooth grid:  1333651 G-vectors     FFT dimensions: (  90,  90, 375)

     Estimated max dynamical RAM per process >       1.69 GB

     Estimated total dynamical RAM >      40.57 GB

     Initial potential from superposition of free atoms

     starting charge     575.8900, renormalised to     576.0000

     negative rho (up, down):  2.493E-03 0.000E+00
     Starting wfcs are  480 randomized atomic wfcs
     Checking if some PAW data can be deallocated... 

     total cpu time spent up to now is      163.6 secs

     Self-consistent Calculation

     iteration #  1     ecut=    60.00 Ry     beta= 0.30
     Davidson diagonalization with overlap
     ethr =  1.00E-02,  avg # of iterations =  2.0

     negative rho (up, down):  2.611E-03 0.000E+00

     total cpu time spent up to now is      494.3 secs

     total energy              =   -4907.07464479 Ry
     estimated scf accuracy    <      27.51071714 Ry

     iteration #  2     ecut=    60.00 Ry     beta= 0.30
     Davidson diagonalization with overlap
     ethr =  4.78E-03,  avg # of iterations =  2.0

     negative rho (up, down):  3.077E-03 0.000E+00

     total cpu time spent up to now is      852.8 secs

     total energy              =   -4910.02735429 Ry
     estimated scf accuracy    <       2.84595902 Ry

     iteration #  3     ecut=    60.00 Ry     beta= 0.30
     Davidson diagonalization with overlap
     ethr =  4.94E-04,  avg # of iterations =  3.0

     negative rho (up, down):  3.794E-03 0.000E+00

     total cpu time spent up to now is     1267.2 secs

     total energy              =   -4910.87897543 Ry
     estimated scf accuracy    <       0.53160381 Ry

     iteration #  4     ecut=    60.00 Ry     beta= 0.30
     Davidson diagonalization with overlap
     ethr =  9.23E-05,  avg # of iterations =  2.0

     negative rho (up, down):  4.558E-03 0.000E+00

     total cpu time spent up to now is     1629.6 secs

     total energy              =   -4910.94286055 Ry
     estimated scf accuracy    <       0.08156699 Ry

     iteration #  5     ecut=    60.00 Ry     beta= 0.30
     Davidson diagonalization with overlap
     ethr =  1.42E-05,  avg # of iterations =  2.0

     negative rho (up, down):  4.707E-03 0.000E+00

     total cpu time spent up to now is     1919.3 secs

     total energy              =   -4910.93251025 Ry
     estimated scf accuracy    <       0.02322247 Ry

     iteration #  6     ecut=    60.00 Ry     beta= 0.30
     Davidson diagonalization with overlap
     ethr =  4.03E-06,  avg # of iterations =  3.4

     negative rho (up, down):  4.731E-03 0.000E+00

     total cpu time spent up to now is     2388.6 secs

     total energy              =   -4910.94260543 Ry
     estimated scf accuracy    <       0.00754973 Ry

     iteration #  7     ecut=    60.00 Ry     beta= 0.30
     Davidson diagonalization with overlap
     ethr =  1.31E-06,  avg # of iterations =  2.0

     negative rho (up, down):  4.722E-03 0.000E+00

     total cpu time spent up to now is     2671.4 secs

     total energy              =   -4910.94226692 Ry
     estimated scf accuracy    <       0.00226353 Ry

     iteration #  8     ecut=    60.00 Ry     beta= 0.30
     Davidson diagonalization with overlap
     ethr =  3.93E-07,  avg # of iterations =  2.2

     negative rho (up, down):  4.780E-03 0.000E+00

     total cpu time spent up to now is     3032.9 secs

     total energy              =   -4910.94279734 Ry
     estimated scf accuracy    <       0.00024644 Ry

     iteration #  9     ecut=    60.00 Ry     beta= 0.30
     Davidson diagonalization with overlap
     ethr =  4.28E-08,  avg # of iterations =  2.0

     negative rho (up, down):  4.801E-03 0.000E+00

     total cpu time spent up to now is     3371.3 secs

     total energy              =   -4910.94274924 Ry
     estimated scf accuracy    <       0.00013686 Ry

     iteration # 10     ecut=    60.00 Ry     beta= 0.30
     Davidson diagonalization with overlap
     ethr =  2.38E-08,  avg # of iterations =  3.0

     negative rho (up, down):  4.812E-03 0.000E+00

     total cpu time spent up to now is     3813.6 secs

     total energy              =   -4910.94278646 Ry
     estimated scf accuracy    <       0.00002609 Ry

     iteration # 11     ecut=    60.00 Ry     beta= 0.30
     Davidson diagonalization with overlap
     ethr =  4.53E-09,  avg # of iterations =  3.4

     negative rho (up, down):  4.821E-03 0.000E+00

     total cpu time spent up to now is     4170.4 secs

     total energy              =   -4910.94279283 Ry
     estimated scf accuracy    <       0.00000743 Ry

     iteration # 12     ecut=    60.00 Ry     beta= 0.30
     Davidson diagonalization with overlap
     ethr =  1.29E-09,  avg # of iterations =  2.0

     negative rho (up, down):  4.827E-03 0.000E+00

     total cpu time spent up to now is     4500.5 secs

     total energy              =   -4910.94279123 Ry
     estimated scf accuracy    <       0.00000488 Ry

     iteration # 13     ecut=    60.00 Ry     beta= 0.30
     Davidson diagonalization with overlap
     ethr =  8.47E-10,  avg # of iterations =  2.1

     negative rho (up, down):  4.832E-03 0.000E+00

     total cpu time spent up to now is     4833.4 secs

     total energy              =   -4910.94279234 Ry
     estimated scf accuracy    <       0.00000007 Ry

     iteration # 14     ecut=    60.00 Ry     beta= 0.30
     Davidson diagonalization with overlap
     ethr =  1.20E-11,  avg # of iterations =  5.0

     negative rho (up, down):  4.835E-03 0.000E+00

     total cpu time spent up to now is     5356.0 secs

     total energy              =   -4910.94279237 Ry
     estimated scf accuracy    <       0.00000007 Ry

     iteration # 15     ecut=    60.00 Ry     beta= 0.30
     Davidson diagonalization with overlap
     ethr =  1.20E-11,  avg # of iterations =  2.1

     negative rho (up, down):  4.837E-03 0.000E+00

     total cpu time spent up to now is     5687.9 secs

     total energy              =   -4910.94279238 Ry
     estimated scf accuracy    <       0.00000002 Ry

     iteration # 16     ecut=    60.00 Ry     beta= 0.30
     Davidson diagonalization with overlap
     ethr =  2.62E-12,  avg # of iterations =  3.0

     negative rho (up, down):  4.842E-03 0.000E+00

     total cpu time spent up to now is     6080.8 secs

     End of self-consistent calculation

          k = 0.0000 0.0000 0.0000 (166875 PWs)   bands (ev):

   -20.8588 -20.5245 -20.1493 -19.9415 -19.9415 -19.9415 -19.8682 -19.8682
   -19.8682 -19.6673 -19.6673 -19.6673 -19.5923 -19.4769 -19.4769 -19.4769
   -19.2206 -19.2206 -19.2206 -19.2196 -19.2196 -19.2196 -18.9592 -18.8968
   -18.8968 -18.8968 -18.8163 -18.8163 -18.8163 -18.7806 -18.7806 -18.7806
   -18.7460 -18.6169 -18.6169 -18.6169 -18.5108 -18.5108 -18.5108 -18.4892
   -18.4892 -18.4765 -18.4765 -18.4765 -18.3745 -18.3745 -18.3745 -18.3687
   -18.3687 -18.3248 -18.3248 -18.3248 -18.3085 -18.3085 -18.3085 -18.2660
   -18.2660 -18.2514 -18.2514 -18.2174 -18.2174 -18.2174 -18.1363 -18.1363
   -18.1363 -18.1185 -18.1185 -18.1076 -18.1076 -18.1019 -18.1019 -18.1019
    -8.3838  -8.2148  -8.2148  -8.2148  -8.1201  -8.1201  -8.1201  -7.8410
    -7.8410  -7.8410  -7.7645  -7.6677  -7.6677  -7.6677  -7.5351  -7.4895
    -7.3986  -7.3986  -7.3986  -7.2260  -7.2260  -7.2137  -7.2137  -7.2137
    -7.1043  -7.0197  -7.0197  -7.0197  -6.9023  -6.9023  -6.9023  -6.8559
    -6.8559  -6.7185  -6.6403  -6.6403  -6.6403  -6.6337  -6.6337  -6.6337
    -6.5150  -6.5150  -6.5150  -6.4983  -6.3501  -6.3501  -6.0217  -5.9680
    -5.9680  -5.9349  -5.9349  -5.9349  -5.8182  -5.8182  -5.8182  -5.7962
    -5.7962  -5.7503  -5.7503  -5.7503  -5.6755  -5.6755  -5.6321  -5.6321
    -5.6321  -5.6287  -5.5378  -5.5378  -5.5378  -5.5180  -5.5180  -5.5180
    -5.3884  -5.3884  -5.3884  -5.3836  -5.2920  -5.2920  -5.2920  -5.2699
    -5.1668  -5.1668  -5.1668  -5.0161  -5.0161  -5.0161  -5.0055  -4.8356
    -4.8356  -4.8356  -4.7721  -4.6604  -4.6604  -4.6604  -4.5504  -4.4343
    -4.3864  -4.3864  -4.3864  -4.2542  -4.2542  -4.2542  -4.1851  -4.1851
    -4.1851  -4.0655  -4.0655  -4.0655  -4.0637  -4.0637  -4.0637  -4.0364
    -4.0364  -4.0364  -4.0292  -4.0292  -3.9492  -3.9492  -3.7837  -3.7695
    -3.7695  -3.7695  -3.7267  -3.7267  -3.7267  -3.5573  -3.5573  -3.5573
    -3.4990  -3.4990  -3.4990  -3.4544  -3.4544  -3.4544  -3.3663  -3.3663
    -3.3357  -3.3357  -3.3167  -3.3167  -3.3167  -3.2979  -3.2979  -3.2979
    -3.2802  -3.2802  -3.2802  -3.2210  -3.2210  -3.2210  -3.1898  -3.1898
    -3.1898  -3.0736  -3.0736  -3.0736  -3.0023  -3.0023  -3.0023  -2.9804
    -2.9804  -2.9804  -2.9684  -2.9684  -2.9651  -2.9651  -2.9651  -2.9442
    -2.9442  -2.9442  -2.9407  -2.9407  -2.8664  -2.8664  -2.8664  -2.8094
    -2.7637  -2.7637  -2.7637  -2.5739  -2.5739  -2.5739  -2.5554  -2.5554
    -2.5554  -2.4593  -2.4593  -2.4425  -2.4425  -2.4425  -2.3801  -2.3801
    -2.3535  -2.3535  -2.3535  -2.2356  -2.2356  -2.1847  -2.1276  -2.1276
    -2.1276  -2.1041  -2.1041  -2.0880  -2.0880  -2.0880  -2.0158  -2.0158
    -2.0158  -1.9566  -1.9566  -1.9566  -1.8921  -1.8921  -1.8760  -1.8760

          k = 0.0000 0.2887 0.0000 (166721 PWs)   bands (ev):

   -20.7894 -20.4578 -20.2758 -20.0888 -20.0515 -20.0514 -19.9757 -19.7971
   -19.7951 -19.6832 -19.6418 -19.6357 -19.5447 -19.4462 -19.4401 -19.4224
   -19.2249 -19.2150 -19.1073 -19.1063 -19.0878 -19.0743 -18.9666 -18.9578
   -18.9245 -18.8946 -18.8672 -18.8448 -18.7605 -18.7385 -18.7281 -18.7143
   -18.6911 -18.6673 -18.6372 -18.5980 -18.5944 -18.5909 -18.5837 -18.5582
   -18.5577 -18.4925 -18.4801 -18.4790 -18.4413 -18.4145 -18.4130 -18.4128
   -18.4067 -18.3618 -18.3528 -18.3287 -18.3202 -18.3187 -18.2992 -18.2778
   -18.2720 -18.2657 -18.2228 -18.1863 -18.1701 -18.1527 -18.1420 -18.1330
   -18.1122 -18.1109 -18.0967 -18.0962 -18.0937 -18.0930 -18.0927 -18.0821
    -8.3295  -8.2155  -8.1126  -8.0938  -8.0204  -7.9957  -7.9724  -7.8700
    -7.7964  -7.7152  -7.7078  -7.6627  -7.5976  -7.5886  -7.5885  -7.5677
    -7.5425  -7.5283  -7.4592  -7.4042  -7.2221  -7.2158  -7.1905  -7.1826
    -7.1494  -7.1376  -7.1361  -7.0387  -7.0105  -6.9259  -6.8989  -6.8296
    -6.8185  -6.7887  -6.7614  -6.7434  -6.7164  -6.6799  -6.6455  -6.5579
    -6.5353  -6.5272  -6.5172  -6.5152  -6.3245  -6.2340  -6.1418  -6.1342
    -6.1322  -6.0647  -6.0380  -6.0203  -6.0054  -5.9232  -5.9013  -5.9003
    -5.8965  -5.8405  -5.8252  -5.8207  -5.7989  -5.7026  -5.6809  -5.6809
    -5.6450  -5.6108  -5.6106  -5.5449  -5.5419  -5.4974  -5.4649  -5.4477
    -5.2946  -5.2275  -5.1541  -5.1405  -5.0812  -5.0809  -5.0634  -5.0537
    -5.0472  -5.0140  -4.9905  -4.9690  -4.9548  -4.8828  -4.8661  -4.7608
    -4.7255  -4.6535  -4.6378  -4.6341  -4.5905  -4.5150  -4.4963  -4.4668
    -4.4374  -4.4115  -4.3962  -4.3786  -4.2932  -4.2930  -4.2716  -4.2511
    -4.2446  -4.2077  -4.1757  -4.1705  -4.1177  -4.0676  -4.0644  -4.0419
    -3.9570  -3.9186  -3.8888  -3.8832  -3.8652  -3.8470  -3.8373  -3.8359
    -3.7624  -3.7589  -3.7224  -3.6914  -3.6818  -3.6303  -3.6199  -3.6030
    -3.5766  -3.5499  -3.5067  -3.5051  -3.4793  -3.4676  -3.4588  -3.4517
    -3.4299  -3.4113  -3.4106  -3.3615  -3.3592  -3.3343  -3.3093  -3.2981
    -3.2845  -3.2473  -3.2458  -3.2431  -3.2355  -3.2017  -3.1976  -3.1798
    -3.1768  -3.1377  -3.1163  -3.1024  -3.0858  -3.0793  -3.0600  -3.0491
    -3.0329  -3.0089  -2.9846  -2.9804  -2.9510  -2.9456  -2.9277  -2.9179
    -2.8471  -2.8248  -2.8241  -2.7785  -2.7663  -2.7533  -2.7367  -2.7339
    -2.7327  -2.7305  -2.6733  -2.6070  -2.5998  -2.5952  -2.5636  -2.5559
    -2.5249  -2.5147  -2.5097  -2.4849  -2.4618  -2.3879  -2.3869  -2.3760
    -2.3597  -2.3517  -2.3489  -2.3336  -2.3074  -2.2348  -2.1676  -2.1564
    -2.1385  -2.1219  -2.1198  -2.0881  -2.0867  -2.0817  -2.0718  -2.0198
    -2.0189  -2.0086  -1.9856  -1.9658  -1.9596  -1.9439  -1.9137  -1.8825

          k = 0.0000-0.5774 0.0000 (166636 PWs)   bands (ev):

   -20.5877 -20.5877 -20.2653 -20.2653 -20.1028 -20.1028 -19.9165 -19.9165
   -19.8185 -19.8185 -19.5620 -19.5620 -19.4217 -19.4217 -19.4018 -19.4018
   -19.1717 -19.1717 -19.0695 -19.0695 -18.9483 -18.9483 -18.9258 -18.9258
   -18.8877 -18.8877 -18.8086 -18.8086 -18.7854 -18.7854 -18.7602 -18.7602
   -18.7377 -18.7377 -18.6718 -18.6718 -18.5728 -18.5727 -18.5412 -18.5412
   -18.5249 -18.5249 -18.5230 -18.5230 -18.5035 -18.5035 -18.4871 -18.4871
   -18.4089 -18.4089 -18.4029 -18.4029 -18.3326 -18.3326 -18.3199 -18.3199
   -18.2057 -18.2057 -18.1739 -18.1739 -18.1377 -18.1377 -18.1210 -18.1210
   -18.1088 -18.1088 -18.1000 -18.1000 -18.0801 -18.0801 -18.0726 -18.0725
    -8.2210  -8.2210  -7.9299  -7.9299  -7.8669  -7.8669  -7.8119  -7.8119
    -7.7811  -7.7811  -7.7189  -7.7189  -7.6557  -7.6557  -7.5035  -7.5035
    -7.4274  -7.4274  -7.4098  -7.4098  -7.3802  -7.3802  -7.2983  -7.2983
    -7.1950  -7.1950  -7.1746  -7.1746  -7.0638  -7.0638  -7.0574  -7.0574
    -6.8659  -6.8659  -6.8316  -6.8316  -6.6744  -6.6744  -6.6684  -6.6684
    -6.3795  -6.3795  -6.3588  -6.3588  -6.3275  -6.3275  -6.2970  -6.2970
    -6.2306  -6.2306  -6.2162  -6.2162  -6.0160  -6.0160  -5.9713  -5.9713
    -5.8750  -5.8750  -5.7996  -5.7996  -5.7863  -5.7863  -5.7744  -5.7744
    -5.6907  -5.6907  -5.4857  -5.4857  -5.3204  -5.3204  -5.2963  -5.2963
    -5.1877  -5.1877  -5.1524  -5.1524  -5.0919  -5.0919  -4.9824  -4.9824
    -4.9326  -4.9326  -4.8589  -4.8589  -4.7756  -4.7756  -4.7698  -4.7698
    -4.6639  -4.6639  -4.5879  -4.5879  -4.5638  -4.5638  -4.4235  -4.4235
    -4.3640  -4.3640  -4.3323  -4.3323  -4.3073  -4.3073  -4.1557  -4.1556
    -4.1446  -4.1446  -4.0937  -4.0937  -4.0799  -4.0799  -4.0159  -4.0159
    -3.9340  -3.9340  -3.9170  -3.9170  -3.9128  -3.9128  -3.8769  -3.8769
    -3.7807  -3.7807  -3.7323  -3.7323  -3.6743  -3.6743  -3.6659  -3.6659
    -3.6227  -3.6227  -3.6180  -3.6180  -3.5199  -3.5199  -3.4814  -3.4814
    -3.4422  -3.4422  -3.3821  -3.3821  -3.3549  -3.3549  -3.3013  -3.3013
    -3.3007  -3.3007  -3.2557  -3.2557  -3.2473  -3.2473  -3.2133  -3.2133
    -3.1518  -3.1518  -3.1369  -3.1369  -3.0860  -3.0860  -3.0638  -3.0638
    -3.0206  -3.0206  -2.9617  -2.9617  -2.8972  -2.8972  -2.8764  -2.8764
    -2.8746  -2.8746  -2.8144  -2.8144  -2.7485  -2.7485  -2.7320  -2.7320
    -2.7197  -2.7197  -2.6724  -2.6724  -2.6206  -2.6206  -2.5690  -2.5690
    -2.5430  -2.5430  -2.4684  -2.4684  -2.4562  -2.4562  -2.3647  -2.3647
    -2.3287  -2.3287  -2.3058  -2.3058  -2.2966  -2.2966  -2.2608  -2.2608
    -2.1774  -2.1774  -2.1114  -2.1114  -2.1061  -2.1061  -2.0077  -2.0077
    -1.9948  -1.9948  -1.9894  -1.9894  -1.9552  -1.9552  -1.9368  -1.9368

          k = 0.0000-0.2887 0.0000 (166721 PWs)   bands (ev):

   -20.7894 -20.4578 -20.2758 -20.0888 -20.0515 -20.0514 -19.9757 -19.7971
   -19.7951 -19.6832 -19.6418 -19.6357 -19.5447 -19.4462 -19.4401 -19.4224
   -19.2249 -19.2150 -19.1073 -19.1063 -19.0878 -19.0743 -18.9666 -18.9578
   -18.9245 -18.8946 -18.8672 -18.8448 -18.7605 -18.7385 -18.7281 -18.7143
   -18.6911 -18.6673 -18.6372 -18.5980 -18.5944 -18.5909 -18.5837 -18.5582
   -18.5577 -18.4925 -18.4801 -18.4790 -18.4413 -18.4145 -18.4130 -18.4128
   -18.4067 -18.3618 -18.3528 -18.3287 -18.3202 -18.3187 -18.2992 -18.2778
   -18.2720 -18.2657 -18.2228 -18.1863 -18.1701 -18.1527 -18.1420 -18.1330
   -18.1122 -18.1109 -18.0967 -18.0962 -18.0937 -18.0930 -18.0927 -18.0821
    -8.3295  -8.2155  -8.1126  -8.0938  -8.0204  -7.9957  -7.9724  -7.8700
    -7.7964  -7.7152  -7.7078  -7.6627  -7.5976  -7.5886  -7.5885  -7.5677
    -7.5425  -7.5283  -7.4592  -7.4042  -7.2221  -7.2158  -7.1905  -7.1826
    -7.1494  -7.1376  -7.1361  -7.0387  -7.0105  -6.9259  -6.8989  -6.8296
    -6.8185  -6.7887  -6.7614  -6.7434  -6.7164  -6.6799  -6.6455  -6.5579
    -6.5353  -6.5272  -6.5172  -6.5152  -6.3245  -6.2340  -6.1418  -6.1342
    -6.1322  -6.0647  -6.0380  -6.0203  -6.0054  -5.9232  -5.9013  -5.9003
    -5.8965  -5.8405  -5.8252  -5.8207  -5.7989  -5.7026  -5.6809  -5.6809
    -5.6450  -5.6108  -5.6106  -5.5449  -5.5419  -5.4974  -5.4649  -5.4477
    -5.2946  -5.2275  -5.1541  -5.1405  -5.0812  -5.0809  -5.0634  -5.0537
    -5.0472  -5.0140  -4.9905  -4.9690  -4.9548  -4.8828  -4.8661  -4.7608
    -4.7255  -4.6535  -4.6378  -4.6341  -4.5905  -4.5150  -4.4963  -4.4668
    -4.4374  -4.4115  -4.3962  -4.3786  -4.2932  -4.2930  -4.2716  -4.2511
    -4.2446  -4.2077  -4.1757  -4.1705  -4.1177  -4.0676  -4.0644  -4.0419
    -3.9570  -3.9186  -3.8888  -3.8832  -3.8652  -3.8470  -3.8373  -3.8359
    -3.7624  -3.7589  -3.7224  -3.6914  -3.6818  -3.6303  -3.6199  -3.6030
    -3.5766  -3.5499  -3.5067  -3.5051  -3.4793  -3.4676  -3.4588  -3.4517
    -3.4299  -3.4113  -3.4106  -3.3615  -3.3592  -3.3343  -3.3093  -3.2981
    -3.2845  -3.2473  -3.2458  -3.2431  -3.2355  -3.2017  -3.1976  -3.1798
    -3.1768  -3.1377  -3.1163  -3.1024  -3.0858  -3.0793  -3.0600  -3.0491
    -3.0329  -3.0089  -2.9846  -2.9804  -2.9510  -2.9456  -2.9277  -2.9179
    -2.8471  -2.8248  -2.8241  -2.7785  -2.7663  -2.7533  -2.7367  -2.7339
    -2.7327  -2.7305  -2.6733  -2.6070  -2.5998  -2.5952  -2.5636  -2.5559
    -2.5249  -2.5147  -2.5097  -2.4849  -2.4618  -2.3879  -2.3869  -2.3760
    -2.3597  -2.3517  -2.3489  -2.3336  -2.3074  -2.2348  -2.1676  -2.1564
    -2.1385  -2.1219  -2.1198  -2.0881  -2.0867  -2.0817  -2.0718  -2.0198
    -2.0189  -2.0086  -1.9856  -1.9658  -1.9596  -1.9439  -1.9137  -1.8825

          k = 0.2500 0.1443 0.0000 (166721 PWs)   bands (ev):

   -20.7894 -20.4578 -20.2758 -20.0888 -20.0515 -20.0514 -19.9757 -19.7971
   -19.7951 -19.6832 -19.6418 -19.6357 -19.5447 -19.4462 -19.4401 -19.4224
   -19.2249 -19.2150 -19.1073 -19.1063 -19.0878 -19.0743 -18.9666 -18.9578
   -18.9245 -18.8946 -18.8672 -18.8448 -18.7605 -18.7385 -18.7281 -18.7143
   -18.6911 -18.6673 -18.6372 -18.5980 -18.5944 -18.5909 -18.5837 -18.5582
   -18.5577 -18.4925 -18.4801 -18.4790 -18.4413 -18.4145 -18.4130 -18.4128
   -18.4067 -18.3618 -18.3528 -18.3287 -18.3202 -18.3187 -18.2992 -18.2778
   -18.2720 -18.2657 -18.2228 -18.1863 -18.1701 -18.1527 -18.1420 -18.1330
   -18.1122 -18.1109 -18.0967 -18.0962 -18.0937 -18.0930 -18.0927 -18.0821
    -8.3295  -8.2155  -8.1126  -8.0938  -8.0204  -7.9957  -7.9724  -7.8700
    -7.7964  -7.7152  -7.7078  -7.6627  -7.5976  -7.5886  -7.5885  -7.5677
    -7.5425  -7.5283  -7.4592  -7.4042  -7.2221  -7.2158  -7.1905  -7.1826
    -7.1494  -7.1376  -7.1361  -7.0387  -7.0105  -6.9259  -6.8989  -6.8296
    -6.8185  -6.7887  -6.7614  -6.7434  -6.7164  -6.6799  -6.6455  -6.5579
    -6.5353  -6.5272  -6.5172  -6.5152  -6.3245  -6.2340  -6.1418  -6.1342
    -6.1321  -6.0647  -6.0380  -6.0203  -6.0054  -5.9232  -5.9013  -5.9003
    -5.8965  -5.8405  -5.8252  -5.8207  -5.7989  -5.7026  -5.6809  -5.6809
    -5.6450  -5.6108  -5.6106  -5.5449  -5.5419  -5.4974  -5.4649  -5.4477
    -5.2946  -5.2275  -5.1541  -5.1405  -5.0812  -5.0809  -5.0634  -5.0537
    -5.0472  -5.0140  -4.9905  -4.9690  -4.9548  -4.8828  -4.8661  -4.7608
    -4.7255  -4.6535  -4.6378  -4.6341  -4.5905  -4.5150  -4.4963  -4.4668
    -4.4374  -4.4115  -4.3962  -4.3786  -4.2932  -4.2930  -4.2716  -4.2511
    -4.2446  -4.2077  -4.1757  -4.1705  -4.1177  -4.0677  -4.0644  -4.0419
    -3.9570  -3.9186  -3.8888  -3.8832  -3.8652  -3.8470  -3.8373  -3.8359
    -3.7624  -3.7589  -3.7224  -3.6914  -3.6818  -3.6303  -3.6199  -3.6030
    -3.5766  -3.5499  -3.5067  -3.5051  -3.4793  -3.4676  -3.4588  -3.4517
    -3.4299  -3.4113  -3.4106  -3.3615  -3.3592  -3.3343  -3.3093  -3.2981
    -3.2845  -3.2473  -3.2458  -3.2431  -3.2355  -3.2017  -3.1976  -3.1798
    -3.1768  -3.1377  -3.1163  -3.1024  -3.0858  -3.0793  -3.0600  -3.0491
    -3.0329  -3.0089  -2.9846  -2.9804  -2.9510  -2.9456  -2.9277  -2.9179
    -2.8471  -2.8248  -2.8241  -2.7785  -2.7663  -2.7533  -2.7367  -2.7339
    -2.7327  -2.7305  -2.6733  -2.6070  -2.5998  -2.5952  -2.5636  -2.5559
    -2.5249  -2.5147  -2.5097  -2.4849  -2.4618  -2.3879  -2.3869  -2.3760
    -2.3597  -2.3517  -2.3489  -2.3336  -2.3074  -2.2348  -2.1676  -2.1564
    -2.1385  -2.1219  -2.1198  -2.0881  -2.0867  -2.0817  -2.0718  -2.0198
    -2.0189  -2.0086  -1.9856  -1.9658  -1.9596  -1.9439  -1.9137  -1.8825

          k = 0.2500 0.4330 0.0000 (166642 PWs)   bands (ev):

   -20.6538 -20.3964 -20.3964 -20.3281 -20.0850 -20.0849 -19.9722 -19.7891
   -19.7609 -19.7605 -19.7264 -19.5485 -19.4815 -19.4577 -19.3531 -19.3515
   -19.2190 -19.1413 -19.0523 -19.0457 -19.0329 -18.9537 -18.9400 -18.9354
   -18.8808 -18.8509 -18.8237 -18.8129 -18.8076 -18.7323 -18.7307 -18.7151
   -18.7146 -18.6869 -18.6586 -18.6501 -18.6412 -18.6306 -18.6195 -18.5488
   -18.5335 -18.5328 -18.5275 -18.5157 -18.4935 -18.4801 -18.4573 -18.4432
   -18.4324 -18.4263 -18.3859 -18.3817 -18.3787 -18.3376 -18.3333 -18.2787
   -18.2383 -18.2084 -18.1640 -18.1601 -18.1583 -18.1324 -18.1218 -18.1153
   -18.1091 -18.1010 -18.0970 -18.0905 -18.0834 -18.0788 -18.0780 -18.0742
    -8.2247  -8.1213  -8.1057  -7.9510  -7.8865  -7.8739  -7.8462  -7.8164
    -7.7548  -7.7518  -7.6666  -7.6542  -7.6047  -7.5694  -7.5420  -7.5261
    -7.4684  -7.4527  -7.4459  -7.4279  -7.3662  -7.3571  -7.3384  -7.2605
    -7.2594  -7.2256  -7.1623  -7.0960  -7.0799  -7.0749  -7.0174  -6.8980
    -6.8843  -6.8674  -6.8488  -6.8198  -6.7547  -6.6889  -6.6687  -6.6234
    -6.5022  -6.4164  -6.4056  -6.3889  -6.3580  -6.3413  -6.2963  -6.2734
    -6.2472  -6.1772  -6.1679  -6.1223  -6.0475  -6.0473  -6.0054  -5.9670
    -5.8872  -5.8757  -5.8292  -5.8015  -5.7952  -5.7897  -5.6884  -5.6387
    -5.5869  -5.5687  -5.5274  -5.5001  -5.4869  -5.4812  -5.3849  -5.3346
    -5.2955  -5.2580  -5.1953  -5.1416  -5.0895  -5.0193  -4.9876  -4.9279
    -4.8991  -4.8728  -4.8646  -4.8286  -4.7600  -4.7458  -4.6950  -4.6499
    -4.6424  -4.6277  -4.6089  -4.5589  -4.5037  -4.4700  -4.4630  -4.4091
    -4.3992  -4.3692  -4.3509  -4.2978  -4.2804  -4.2578  -4.2382  -4.2102
    -4.1283  -4.1036  -4.1019  -4.0910  -4.0543  -4.0331  -4.0153  -4.0134
    -3.9814  -3.9787  -3.9433  -3.9309  -3.9132  -3.9083  -3.8672  -3.8543
    -3.8367  -3.7664  -3.7432  -3.7328  -3.7314  -3.7066  -3.6954  -3.6841
    -3.6484  -3.6419  -3.6232  -3.5870  -3.5536  -3.5406  -3.5156  -3.4860
    -3.4666  -3.4458  -3.4165  -3.4162  -3.3904  -3.3800  -3.3283  -3.3278
    -3.3222  -3.2889  -3.2864  -3.2756  -3.2568  -3.2176  -3.1554  -3.1514
    -3.1411  -3.1108  -3.1022  -3.0911  -3.0774  -3.0619  -3.0583  -3.0194
    -3.0071  -3.0069  -2.9750  -2.9639  -2.9368  -2.9296  -2.9135  -2.8468
    -2.8443  -2.8332  -2.8316  -2.7641  -2.7586  -2.7513  -2.7364  -2.7233
    -2.7027  -2.6910  -2.6811  -2.6662  -2.6527  -2.6238  -2.5990  -2.5573
    -2.5352  -2.5173  -2.5057  -2.4892  -2.4497  -2.4118  -2.4087  -2.3640
    -2.3605  -2.3462  -2.3271  -2.3236  -2.2936  -2.2869  -2.2632  -2.2081
    -2.1876  -2.1621  -2.1497  -2.1494  -2.1173  -2.0606  -2.0297  -2.0062
    -2.0041  -1.9983  -1.9950  -1.9495  -1.9465  -1.9355  -1.9349  -1.8947

          k = 0.2500-0.4330 0.0000 (166642 PWs)   bands (ev):

   -20.6538 -20.3964 -20.3964 -20.3281 -20.0850 -20.0849 -19.9722 -19.7891
   -19.7609 -19.7605 -19.7264 -19.5485 -19.4815 -19.4577 -19.3531 -19.3515
   -19.2190 -19.1413 -19.0523 -19.0457 -19.0329 -18.9537 -18.9400 -18.9354
   -18.8808 -18.8509 -18.8237 -18.8129 -18.8076 -18.7323 -18.7307 -18.7151
   -18.7146 -18.6869 -18.6586 -18.6501 -18.6412 -18.6306 -18.6195 -18.5488
   -18.5335 -18.5328 -18.5275 -18.5157 -18.4935 -18.4801 -18.4573 -18.4432
   -18.4324 -18.4263 -18.3859 -18.3817 -18.3787 -18.3376 -18.3333 -18.2787
   -18.2383 -18.2084 -18.1640 -18.1601 -18.1583 -18.1324 -18.1218 -18.1153
   -18.1091 -18.1010 -18.0970 -18.0905 -18.0834 -18.0788 -18.0780 -18.0742
    -8.2247  -8.1213  -8.1057  -7.9510  -7.8865  -7.8739  -7.8462  -7.8164
    -7.7548  -7.7518  -7.6666  -7.6542  -7.6047  -7.5694  -7.5420  -7.5261
    -7.4684  -7.4527  -7.4459  -7.4279  -7.3662  -7.3571  -7.3384  -7.2605
    -7.2594  -7.2256  -7.1623  -7.0960  -7.0799  -7.0749  -7.0174  -6.8980
    -6.8843  -6.8674  -6.8488  -6.8198  -6.7547  -6.6889  -6.6687  -6.6234
    -6.5022  -6.4164  -6.4056  -6.3889  -6.3579  -6.3413  -6.2963  -6.2734
    -6.2472  -6.1772  -6.1679  -6.1223  -6.0475  -6.0473  -6.0054  -5.9670
    -5.8872  -5.8757  -5.8292  -5.8015  -5.7952  -5.7897  -5.6884  -5.6387
    -5.5869  -5.5687  -5.5274  -5.5001  -5.4869  -5.4812  -5.3849  -5.3346
    -5.2955  -5.2580  -5.1953  -5.1416  -5.0895  -5.0193  -4.9876  -4.9279
    -4.8991  -4.8728  -4.8646  -4.8286  -4.7600  -4.7458  -4.6950  -4.6499
    -4.6424  -4.6277  -4.6089  -4.5589  -4.5037  -4.4700  -4.4630  -4.4091
    -4.3992  -4.3692  -4.3509  -4.2978  -4.2804  -4.2578  -4.2382  -4.2102
    -4.1283  -4.1036  -4.1019  -4.0910  -4.0543  -4.0331  -4.0153  -4.0134
    -3.9814  -3.9787  -3.9433  -3.9309  -3.9132  -3.9083  -3.8672  -3.8543
    -3.8367  -3.7664  -3.7432  -3.7328  -3.7314  -3.7066  -3.6954  -3.6841
    -3.6484  -3.6419  -3.6232  -3.5870  -3.5536  -3.5406  -3.5156  -3.4860
    -3.4666  -3.4458  -3.4165  -3.4162  -3.3904  -3.3800  -3.3283  -3.3278
    -3.3222  -3.2889  -3.2864  -3.2756  -3.2568  -3.2176  -3.1554  -3.1514
    -3.1411  -3.1108  -3.1022  -3.0911  -3.0774  -3.0619  -3.0583  -3.0194
    -3.0071  -3.0069  -2.9750  -2.9639  -2.9368  -2.9296  -2.9135  -2.8468
    -2.8443  -2.8332  -2.8316  -2.7641  -2.7586  -2.7513  -2.7364  -2.7233
    -2.7027  -2.6910  -2.6811  -2.6662  -2.6527  -2.6238  -2.5990  -2.5573
    -2.5352  -2.5173  -2.5057  -2.4892  -2.4497  -2.4118  -2.4087  -2.3640
    -2.3605  -2.3462  -2.3271  -2.3236  -2.2936  -2.2869  -2.2632  -2.2081
    -2.1876  -2.1621  -2.1497  -2.1494  -2.1173  -2.0606  -2.0297  -2.0062
    -2.0041  -1.9983  -1.9950  -1.9495  -1.9465  -1.9355  -1.9349  -1.8947

          k = 0.2500-0.1443 0.0000 (166721 PWs)   bands (ev):

   -20.7894 -20.4578 -20.2758 -20.0888 -20.0515 -20.0514 -19.9757 -19.7971
   -19.7951 -19.6832 -19.6418 -19.6357 -19.5447 -19.4462 -19.4401 -19.4224
   -19.2249 -19.2150 -19.1073 -19.1063 -19.0878 -19.0743 -18.9666 -18.9578
   -18.9245 -18.8946 -18.8672 -18.8448 -18.7605 -18.7385 -18.7282 -18.7143
   -18.6911 -18.6673 -18.6372 -18.5980 -18.5944 -18.5909 -18.5837 -18.5582
   -18.5577 -18.4925 -18.4801 -18.4790 -18.4413 -18.4145 -18.4130 -18.4128
   -18.4067 -18.3618 -18.3528 -18.3287 -18.3202 -18.3187 -18.2992 -18.2778
   -18.2720 -18.2657 -18.2228 -18.1863 -18.1701 -18.1527 -18.1420 -18.1330
   -18.1122 -18.1109 -18.0967 -18.0962 -18.0937 -18.0930 -18.0927 -18.0821
    -8.3295  -8.2155  -8.1126  -8.0938  -8.0204  -7.9957  -7.9724  -7.8700
    -7.7964  -7.7152  -7.7078  -7.6627  -7.5976  -7.5886  -7.5885  -7.5677
    -7.5425  -7.5283  -7.4592  -7.4042  -7.2221  -7.2158  -7.1905  -7.1826
    -7.1494  -7.1376  -7.1361  -7.0387  -7.0105  -6.9259  -6.8989  -6.8296
    -6.8185  -6.7887  -6.7614  -6.7434  -6.7164  -6.6799  -6.6455  -6.5579
    -6.5353  -6.5272  -6.5172  -6.5152  -6.3245  -6.2340  -6.1418  -6.1342
    -6.1322  -6.0647  -6.0380  -6.0203  -6.0054  -5.9232  -5.9013  -5.9003
    -5.8965  -5.8405  -5.8252  -5.8207  -5.7989  -5.7026  -5.6809  -5.6809
    -5.6450  -5.6108  -5.6106  -5.5449  -5.5419  -5.4974  -5.4649  -5.4477
    -5.2946  -5.2275  -5.1541  -5.1405  -5.0812  -5.0809  -5.0634  -5.0537
    -5.0472  -5.0140  -4.9905  -4.9690  -4.9548  -4.8828  -4.8661  -4.7608
    -4.7255  -4.6535  -4.6378  -4.6341  -4.5905  -4.5150  -4.4963  -4.4668
    -4.4374  -4.4115  -4.3962  -4.3786  -4.2932  -4.2930  -4.2716  -4.2511
    -4.2446  -4.2077  -4.1757  -4.1705  -4.1177  -4.0677  -4.0644  -4.0419
    -3.9570  -3.9186  -3.8888  -3.8832  -3.8652  -3.8470  -3.8373  -3.8359
    -3.7624  -3.7589  -3.7224  -3.6914  -3.6818  -3.6303  -3.6199  -3.6030
    -3.5766  -3.5499  -3.5067  -3.5051  -3.4793  -3.4676  -3.4588  -3.4517
    -3.4299  -3.4113  -3.4106  -3.3615  -3.3592  -3.3343  -3.3093  -3.2981
    -3.2845  -3.2473  -3.2458  -3.2431  -3.2355  -3.2017  -3.1976  -3.1798
    -3.1768  -3.1377  -3.1163  -3.1024  -3.0858  -3.0793  -3.0600  -3.0491
    -3.0329  -3.0089  -2.9846  -2.9804  -2.9510  -2.9456  -2.9277  -2.9179
    -2.8471  -2.8248  -2.8241  -2.7785  -2.7663  -2.7533  -2.7367  -2.7339
    -2.7327  -2.7305  -2.6733  -2.6070  -2.5998  -2.5952  -2.5636  -2.5559
    -2.5249  -2.5147  -2.5097  -2.4849  -2.4618  -2.3879  -2.3869  -2.3760
    -2.3597  -2.3517  -2.3489  -2.3336  -2.3074  -2.2348  -2.1676  -2.1564
    -2.1385  -2.1219  -2.1198  -2.0881  -2.0867  -2.0817  -2.0718  -2.0198
    -2.0189  -2.0086  -1.9856  -1.9658  -1.9596  -1.9439  -1.9137  -1.8825

          k =-0.5000-0.2887 0.0000 (166636 PWs)   bands (ev):

   -20.5877 -20.5877 -20.2653 -20.2653 -20.1028 -20.1028 -19.9165 -19.9165
   -19.8185 -19.8185 -19.5620 -19.5620 -19.4217 -19.4217 -19.4018 -19.4018
   -19.1717 -19.1717 -19.0695 -19.0695 -18.9483 -18.9483 -18.9258 -18.9258
   -18.8877 -18.8877 -18.8086 -18.8086 -18.7854 -18.7854 -18.7602 -18.7602
   -18.7377 -18.7377 -18.6718 -18.6718 -18.5728 -18.5727 -18.5412 -18.5412
   -18.5249 -18.5249 -18.5230 -18.5230 -18.5035 -18.5035 -18.4871 -18.4871
   -18.4089 -18.4089 -18.4029 -18.4029 -18.3326 -18.3326 -18.3199 -18.3199
   -18.2057 -18.2057 -18.1739 -18.1739 -18.1377 -18.1377 -18.1210 -18.1210
   -18.1088 -18.1088 -18.1000 -18.1000 -18.0801 -18.0801 -18.0726 -18.0726
    -8.2210  -8.2210  -7.9299  -7.9299  -7.8669  -7.8669  -7.8119  -7.8119
    -7.7811  -7.7811  -7.7189  -7.7189  -7.6557  -7.6557  -7.5035  -7.5035
    -7.4274  -7.4274  -7.4098  -7.4098  -7.3802  -7.3802  -7.2983  -7.2983
    -7.1950  -7.1950  -7.1746  -7.1746  -7.0638  -7.0638  -7.0574  -7.0574
    -6.8659  -6.8659  -6.8316  -6.8316  -6.6744  -6.6744  -6.6684  -6.6684
    -6.3795  -6.3795  -6.3588  -6.3588  -6.3275  -6.3275  -6.2970  -6.2970
    -6.2306  -6.2306  -6.2162  -6.2162  -6.0160  -6.0160  -5.9713  -5.9713
    -5.8750  -5.8750  -5.7996  -5.7996  -5.7863  -5.7863  -5.7744  -5.7744
    -5.6907  -5.6907  -5.4857  -5.4857  -5.3204  -5.3204  -5.2963  -5.2963
    -5.1877  -5.1877  -5.1524  -5.1524  -5.0919  -5.0919  -4.9824  -4.9824
    -4.9326  -4.9326  -4.8589  -4.8589  -4.7756  -4.7756  -4.7698  -4.7698
    -4.6639  -4.6639  -4.5879  -4.5879  -4.5638  -4.5638  -4.4235  -4.4235
    -4.3640  -4.3640  -4.3323  -4.3323  -4.3073  -4.3073  -4.1557  -4.1557
    -4.1445  -4.1445  -4.0937  -4.0937  -4.0799  -4.0799  -4.0158  -4.0158
    -3.9340  -3.9340  -3.9170  -3.9170  -3.9128  -3.9128  -3.8769  -3.8769
    -3.7807  -3.7807  -3.7323  -3.7323  -3.6743  -3.6743  -3.6659  -3.6659
    -3.6227  -3.6227  -3.6180  -3.6180  -3.5199  -3.5199  -3.4814  -3.4814
    -3.4422  -3.4422  -3.3821  -3.3821  -3.3549  -3.3549  -3.3013  -3.3013
    -3.3007  -3.3007  -3.2557  -3.2557  -3.2473  -3.2473  -3.2133  -3.2133
    -3.1518  -3.1518  -3.1369  -3.1369  -3.0860  -3.0860  -3.0638  -3.0638
    -3.0206  -3.0206  -2.9617  -2.9617  -2.8972  -2.8972  -2.8764  -2.8764
    -2.8746  -2.8746  -2.8144  -2.8144  -2.7485  -2.7485  -2.7320  -2.7320
    -2.7197  -2.7197  -2.6724  -2.6724  -2.6206  -2.6206  -2.5690  -2.5690
    -2.5430  -2.5430  -2.4684  -2.4684  -2.4562  -2.4562  -2.3647  -2.3647
    -2.3287  -2.3287  -2.3058  -2.3058  -2.2966  -2.2966  -2.2608  -2.2608
    -2.1774  -2.1774  -2.1114  -2.1114  -2.1061  -2.1061  -2.0077  -2.0077
    -1.9948  -1.9948  -1.9894  -1.9894  -1.9552  -1.9552  -1.9368  -1.9368

          k =-0.5000 0.0000 0.0000 (166642 PWs)   bands (ev):

   -20.6538 -20.3964 -20.3964 -20.3281 -20.0850 -20.0849 -19.9722 -19.7891
   -19.7609 -19.7605 -19.7264 -19.5485 -19.4815 -19.4577 -19.3531 -19.3515
   -19.2190 -19.1413 -19.0523 -19.0457 -19.0329 -18.9537 -18.9400 -18.9354
   -18.8808 -18.8509 -18.8237 -18.8129 -18.8076 -18.7323 -18.7307 -18.7151
   -18.7146 -18.6869 -18.6586 -18.6501 -18.6412 -18.6306 -18.6195 -18.5488
   -18.5335 -18.5328 -18.5275 -18.5157 -18.4935 -18.4801 -18.4573 -18.4432
   -18.4324 -18.4263 -18.3859 -18.3817 -18.3787 -18.3376 -18.3333 -18.2787
   -18.2383 -18.2084 -18.1640 -18.1601 -18.1583 -18.1324 -18.1218 -18.1153
   -18.1091 -18.1010 -18.0970 -18.0905 -18.0834 -18.0788 -18.0780 -18.0742
    -8.2247  -8.1213  -8.1057  -7.9510  -7.8865  -7.8739  -7.8462  -7.8164
    -7.7548  -7.7518  -7.6666  -7.6542  -7.6047  -7.5694  -7.5420  -7.5261
    -7.4684  -7.4527  -7.4459  -7.4279  -7.3662  -7.3571  -7.3384  -7.2605
    -7.2594  -7.2256  -7.1623  -7.0960  -7.0799  -7.0749  -7.0174  -6.8980
    -6.8843  -6.8674  -6.8488  -6.8198  -6.7547  -6.6889  -6.6687  -6.6234
    -6.5022  -6.4164  -6.4056  -6.3889  -6.3580  -6.3413  -6.2963  -6.2734
    -6.2472  -6.1772  -6.1679  -6.1223  -6.0475  -6.0473  -6.0054  -5.9670
    -5.8872  -5.8757  -5.8292  -5.8015  -5.7952  -5.7897  -5.6884  -5.6387
    -5.5869  -5.5687  -5.5274  -5.5001  -5.4869  -5.4812  -5.3849  -5.3346
    -5.2955  -5.2580  -5.1953  -5.1416  -5.0895  -5.0193  -4.9876  -4.9279
    -4.8991  -4.8728  -4.8646  -4.8286  -4.7600  -4.7458  -4.6950  -4.6499
    -4.6424  -4.6277  -4.6089  -4.5589  -4.5037  -4.4700  -4.4630  -4.4091
    -4.3992  -4.3692  -4.3509  -4.2978  -4.2804  -4.2578  -4.2382  -4.2102
    -4.1283  -4.1036  -4.1019  -4.0910  -4.0543  -4.0331  -4.0153  -4.0134
    -3.9814  -3.9787  -3.9433  -3.9309  -3.9132  -3.9083  -3.8672  -3.8543
    -3.8367  -3.7664  -3.7432  -3.7328  -3.7314  -3.7066  -3.6954  -3.6841
    -3.6484  -3.6419  -3.6232  -3.5870  -3.5536  -3.5406  -3.5156  -3.4860
    -3.4666  -3.4458  -3.4165  -3.4162  -3.3904  -3.3800  -3.3283  -3.3278
    -3.3222  -3.2889  -3.2864  -3.2756  -3.2568  -3.2176  -3.1554  -3.1514
    -3.1411  -3.1108  -3.1022  -3.0911  -3.0774  -3.0619  -3.0583  -3.0194
    -3.0071  -3.0069  -2.9750  -2.9639  -2.9368  -2.9296  -2.9135  -2.8468
    -2.8443  -2.8332  -2.8316  -2.7641  -2.7586  -2.7513  -2.7364  -2.7233
    -2.7027  -2.6910  -2.6811  -2.6662  -2.6527  -2.6238  -2.5990  -2.5573
    -2.5352  -2.5173  -2.5057  -2.4892  -2.4497  -2.4118  -2.4087  -2.3640
    -2.3605  -2.3462  -2.3271  -2.3236  -2.2936  -2.2869  -2.2632  -2.2081
    -2.1876  -2.1621  -2.1497  -2.1494  -2.1173  -2.0606  -2.0297  -2.0062
    -2.0041  -1.9983  -1.9950  -1.9495  -1.9465  -1.9355  -1.9349  -1.8947

          k =-0.5000-0.8660 0.0000 (166636 PWs)   bands (ev):

   -20.5877 -20.5877 -20.2653 -20.2653 -20.1028 -20.1028 -19.9165 -19.9165
   -19.8185 -19.8185 -19.5620 -19.5620 -19.4217 -19.4217 -19.4018 -19.4018
   -19.1717 -19.1717 -19.0695 -19.0695 -18.9483 -18.9483 -18.9258 -18.9258
   -18.8877 -18.8877 -18.8086 -18.8086 -18.7854 -18.7854 -18.7602 -18.7602
   -18.7377 -18.7377 -18.6718 -18.6718 -18.5727 -18.5727 -18.5412 -18.5412
   -18.5249 -18.5249 -18.5230 -18.5230 -18.5035 -18.5035 -18.4871 -18.4871
   -18.4089 -18.4089 -18.4029 -18.4029 -18.3326 -18.3326 -18.3199 -18.3199
   -18.2057 -18.2057 -18.1739 -18.1739 -18.1377 -18.1377 -18.1210 -18.1210
   -18.1088 -18.1088 -18.1000 -18.1000 -18.0801 -18.0801 -18.0726 -18.0726
    -8.2210  -8.2210  -7.9299  -7.9299  -7.8669  -7.8669  -7.8119  -7.8119
    -7.7811  -7.7811  -7.7189  -7.7189  -7.6557  -7.6557  -7.5035  -7.5035
    -7.4274  -7.4274  -7.4098  -7.4098  -7.3802  -7.3802  -7.2983  -7.2983
    -7.1950  -7.1950  -7.1746  -7.1746  -7.0638  -7.0638  -7.0574  -7.0574
    -6.8659  -6.8659  -6.8316  -6.8316  -6.6744  -6.6744  -6.6684  -6.6684
    -6.3795  -6.3795  -6.3588  -6.3588  -6.3275  -6.3275  -6.2970  -6.2970
    -6.2306  -6.2306  -6.2162  -6.2162  -6.0160  -6.0160  -5.9713  -5.9713
    -5.8750  -5.8750  -5.7996  -5.7996  -5.7863  -5.7863  -5.7744  -5.7744
    -5.6907  -5.6907  -5.4857  -5.4857  -5.3204  -5.3204  -5.2963  -5.2963
    -5.1877  -5.1877  -5.1524  -5.1524  -5.0919  -5.0919  -4.9824  -4.9824
    -4.9326  -4.9326  -4.8589  -4.8589  -4.7756  -4.7756  -4.7698  -4.7698
    -4.6639  -4.6639  -4.5879  -4.5879  -4.5638  -4.5638  -4.4235  -4.4235
    -4.3640  -4.3640  -4.3323  -4.3323  -4.3073  -4.3073  -4.1557  -4.1557
    -4.1446  -4.1445  -4.0937  -4.0937  -4.0799  -4.0799  -4.0159  -4.0159
    -3.9340  -3.9340  -3.9170  -3.9170  -3.9128  -3.9128  -3.8769  -3.8769
    -3.7807  -3.7807  -3.7323  -3.7323  -3.6743  -3.6743  -3.6659  -3.6659
    -3.6227  -3.6227  -3.6180  -3.6180  -3.5199  -3.5199  -3.4814  -3.4814
    -3.4422  -3.4422  -3.3821  -3.3821  -3.3549  -3.3549  -3.3013  -3.3013
    -3.3007  -3.3007  -3.2557  -3.2557  -3.2473  -3.2473  -3.2133  -3.2133
    -3.1518  -3.1518  -3.1369  -3.1369  -3.0860  -3.0860  -3.0638  -3.0638
    -3.0206  -3.0206  -2.9617  -2.9617  -2.8972  -2.8972  -2.8764  -2.8764
    -2.8746  -2.8746  -2.8144  -2.8144  -2.7485  -2.7485  -2.7320  -2.7320
    -2.7197  -2.7197  -2.6724  -2.6724  -2.6206  -2.6206  -2.5690  -2.5690
    -2.5430  -2.5430  -2.4684  -2.4684  -2.4562  -2.4562  -2.3647  -2.3647
    -2.3287  -2.3287  -2.3058  -2.3058  -2.2966  -2.2966  -2.2608  -2.2608
    -2.1774  -2.1774  -2.1114  -2.1114  -2.1061  -2.1061  -2.0077  -2.0077
    -1.9948  -1.9948  -1.9894  -1.9894  -1.9552  -1.9552  -1.9368  -1.9368

          k =-0.5000-0.5774 0.0000 (166642 PWs)   bands (ev):

   -20.6538 -20.3964 -20.3964 -20.3281 -20.0850 -20.0849 -19.9722 -19.7891
   -19.7609 -19.7605 -19.7264 -19.5485 -19.4815 -19.4577 -19.3531 -19.3515
   -19.2190 -19.1413 -19.0523 -19.0457 -19.0329 -18.9537 -18.9400 -18.9354
   -18.8808 -18.8509 -18.8237 -18.8129 -18.8076 -18.7323 -18.7307 -18.7151
   -18.7146 -18.6869 -18.6586 -18.6501 -18.6412 -18.6306 -18.6195 -18.5488
   -18.5335 -18.5328 -18.5275 -18.5157 -18.4935 -18.4801 -18.4573 -18.4432
   -18.4324 -18.4263 -18.3859 -18.3817 -18.3787 -18.3376 -18.3333 -18.2787
   -18.2383 -18.2084 -18.1640 -18.1601 -18.1583 -18.1324 -18.1218 -18.1153
   -18.1091 -18.1010 -18.0970 -18.0905 -18.0834 -18.0788 -18.0780 -18.0742
    -8.2247  -8.1213  -8.1057  -7.9510  -7.8865  -7.8739  -7.8462  -7.8164
    -7.7548  -7.7518  -7.6666  -7.6542  -7.6047  -7.5694  -7.5420  -7.5261
    -7.4684  -7.4527  -7.4459  -7.4279  -7.3662  -7.3571  -7.3384  -7.2605
    -7.2594  -7.2256  -7.1623  -7.0960  -7.0799  -7.0749  -7.0174  -6.8980
    -6.8843  -6.8674  -6.8488  -6.8198  -6.7547  -6.6889  -6.6687  -6.6234
    -6.5022  -6.4164  -6.4056  -6.3889  -6.3580  -6.3413  -6.2963  -6.2734
    -6.2472  -6.1772  -6.1679  -6.1223  -6.0475  -6.0473  -6.0054  -5.9670
    -5.8872  -5.8757  -5.8292  -5.8015  -5.7952  -5.7897  -5.6884  -5.6387
    -5.5869  -5.5687  -5.5274  -5.5001  -5.4869  -5.4812  -5.3849  -5.3346
    -5.2955  -5.2580  -5.1953  -5.1416  -5.0895  -5.0193  -4.9876  -4.9279
    -4.8991  -4.8728  -4.8646  -4.8286  -4.7600  -4.7458  -4.6950  -4.6499
    -4.6424  -4.6277  -4.6089  -4.5589  -4.5037  -4.4700  -4.4630  -4.4091
    -4.3992  -4.3692  -4.3509  -4.2978  -4.2804  -4.2578  -4.2382  -4.2102
    -4.1283  -4.1036  -4.1019  -4.0910  -4.0543  -4.0331  -4.0153  -4.0134
    -3.9814  -3.9787  -3.9433  -3.9309  -3.9132  -3.9083  -3.8672  -3.8543
    -3.8367  -3.7664  -3.7432  -3.7328  -3.7314  -3.7066  -3.6954  -3.6841
    -3.6484  -3.6419  -3.6232  -3.5870  -3.5536  -3.5406  -3.5156  -3.4860
    -3.4666  -3.4458  -3.4165  -3.4162  -3.3904  -3.3800  -3.3283  -3.3278
    -3.3222  -3.2889  -3.2864  -3.2756  -3.2568  -3.2176  -3.1554  -3.1514
    -3.1411  -3.1108  -3.1022  -3.0911  -3.0774  -3.0619  -3.0583  -3.0194
    -3.0071  -3.0069  -2.9750  -2.9639  -2.9368  -2.9296  -2.9135  -2.8468
    -2.8443  -2.8332  -2.8316  -2.7641  -2.7586  -2.7513  -2.7364  -2.7233
    -2.7027  -2.6910  -2.6811  -2.6662  -2.6527  -2.6238  -2.5990  -2.5573
    -2.5352  -2.5173  -2.5057  -2.4892  -2.4497  -2.4118  -2.4087  -2.3640
    -2.3605  -2.3462  -2.3271  -2.3236  -2.2936  -2.2869  -2.2632  -2.2081
    -2.1876  -2.1621  -2.1497  -2.1494  -2.1173  -2.0606  -2.0297  -2.0062
    -2.0041  -1.9983  -1.9950  -1.9495  -1.9465  -1.9355  -1.9349  -1.8947

          k =-0.2500-0.1443 0.0000 (166721 PWs)   bands (ev):

   -20.7894 -20.4578 -20.2758 -20.0888 -20.0515 -20.0514 -19.9757 -19.7971
   -19.7951 -19.6832 -19.6418 -19.6357 -19.5447 -19.4462 -19.4401 -19.4224
   -19.2249 -19.2150 -19.1073 -19.1063 -19.0878 -19.0743 -18.9666 -18.9578
   -18.9245 -18.8946 -18.8672 -18.8448 -18.7605 -18.7385 -18.7281 -18.7143
   -18.6911 -18.6673 -18.6372 -18.5980 -18.5944 -18.5909 -18.5837 -18.5582
   -18.5577 -18.4925 -18.4801 -18.4790 -18.4413 -18.4145 -18.4130 -18.4128
   -18.4067 -18.3618 -18.3528 -18.3287 -18.3202 -18.3187 -18.2992 -18.2778
   -18.2720 -18.2657 -18.2228 -18.1863 -18.1701 -18.1527 -18.1420 -18.1330
   -18.1122 -18.1109 -18.0967 -18.0962 -18.0937 -18.0930 -18.0927 -18.0821
    -8.3295  -8.2155  -8.1126  -8.0938  -8.0204  -7.9957  -7.9724  -7.8700
    -7.7964  -7.7152  -7.7078  -7.6627  -7.5976  -7.5886  -7.5885  -7.5677
    -7.5425  -7.5283  -7.4592  -7.4042  -7.2221  -7.2158  -7.1905  -7.1826
    -7.1494  -7.1376  -7.1361  -7.0387  -7.0105  -6.9259  -6.8989  -6.8296
    -6.8185  -6.7887  -6.7614  -6.7434  -6.7164  -6.6799  -6.6455  -6.5579
    -6.5353  -6.5272  -6.5172  -6.5152  -6.3245  -6.2340  -6.1418  -6.1342
    -6.1321  -6.0647  -6.0380  -6.0203  -6.0054  -5.9232  -5.9013  -5.9003
    -5.8965  -5.8405  -5.8252  -5.8207  -5.7989  -5.7026  -5.6809  -5.6809
    -5.6450  -5.6108  -5.6106  -5.5449  -5.5419  -5.4974  -5.4649  -5.4477
    -5.2946  -5.2275  -5.1541  -5.1405  -5.0812  -5.0809  -5.0634  -5.0537
    -5.0472  -5.0140  -4.9905  -4.9690  -4.9548  -4.8828  -4.8661  -4.7608
    -4.7255  -4.6535  -4.6378  -4.6341  -4.5905  -4.5150  -4.4963  -4.4668
    -4.4374  -4.4115  -4.3962  -4.3786  -4.2932  -4.2930  -4.2716  -4.2511
    -4.2446  -4.2077  -4.1757  -4.1705  -4.1177  -4.0677  -4.0644  -4.0419
    -3.9570  -3.9186  -3.8888  -3.8832  -3.8652  -3.8470  -3.8373  -3.8359
    -3.7624  -3.7589  -3.7224  -3.6914  -3.6818  -3.6303  -3.6199  -3.6030
    -3.5766  -3.5499  -3.5067  -3.5051  -3.4793  -3.4676  -3.4588  -3.4517
    -3.4299  -3.4113  -3.4106  -3.3615  -3.3592  -3.3343  -3.3093  -3.2981
    -3.2845  -3.2473  -3.2458  -3.2431  -3.2355  -3.2017  -3.1976  -3.1798
    -3.1768  -3.1377  -3.1163  -3.1024  -3.0858  -3.0793  -3.0600  -3.0491
    -3.0329  -3.0089  -2.9846  -2.9804  -2.9510  -2.9456  -2.9277  -2.9179
    -2.8471  -2.8248  -2.8241  -2.7785  -2.7663  -2.7533  -2.7367  -2.7339
    -2.7327  -2.7305  -2.6733  -2.6070  -2.5998  -2.5952  -2.5636  -2.5559
    -2.5249  -2.5147  -2.5097  -2.4849  -2.4618  -2.3879  -2.3869  -2.3760
    -2.3597  -2.3517  -2.3489  -2.3336  -2.3074  -2.2348  -2.1676  -2.1564
    -2.1385  -2.1219  -2.1198  -2.0881  -2.0867  -2.0817  -2.0718  -2.0198
    -2.0189  -2.0086  -1.9856  -1.9658  -1.9596  -1.9439  -1.9137  -1.8825

          k =-0.2500 0.1443 0.0000 (166721 PWs)   bands (ev):

   -20.7894 -20.4578 -20.2758 -20.0888 -20.0515 -20.0514 -19.9757 -19.7971
   -19.7951 -19.6832 -19.6418 -19.6357 -19.5447 -19.4462 -19.4401 -19.4224
   -19.2249 -19.2150 -19.1073 -19.1063 -19.0878 -19.0743 -18.9666 -18.9578
   -18.9245 -18.8946 -18.8672 -18.8448 -18.7605 -18.7385 -18.7282 -18.7143
   -18.6911 -18.6673 -18.6372 -18.5980 -18.5944 -18.5909 -18.5837 -18.5582
   -18.5577 -18.4925 -18.4801 -18.4790 -18.4413 -18.4145 -18.4130 -18.4128
   -18.4067 -18.3618 -18.3528 -18.3287 -18.3202 -18.3187 -18.2992 -18.2778
   -18.2720 -18.2657 -18.2228 -18.1863 -18.1701 -18.1527 -18.1420 -18.1330
   -18.1122 -18.1109 -18.0967 -18.0962 -18.0937 -18.0930 -18.0927 -18.0821
    -8.3295  -8.2155  -8.1126  -8.0938  -8.0204  -7.9957  -7.9724  -7.8700
    -7.7964  -7.7152  -7.7078  -7.6627  -7.5976  -7.5886  -7.5885  -7.5677
    -7.5425  -7.5283  -7.4592  -7.4042  -7.2221  -7.2158  -7.1905  -7.1826
    -7.1494  -7.1376  -7.1361  -7.0387  -7.0105  -6.9259  -6.8989  -6.8296
    -6.8185  -6.7887  -6.7614  -6.7434  -6.7164  -6.6799  -6.6455  -6.5579
    -6.5353  -6.5272  -6.5172  -6.5152  -6.3245  -6.2340  -6.1418  -6.1342
    -6.1322  -6.0647  -6.0380  -6.0203  -6.0054  -5.9232  -5.9013  -5.9003
    -5.8965  -5.8405  -5.8252  -5.8207  -5.7989  -5.7026  -5.6809  -5.6809
    -5.6450  -5.6108  -5.6106  -5.5449  -5.5419  -5.4974  -5.4649  -5.4477
    -5.2946  -5.2275  -5.1541  -5.1405  -5.0812  -5.0809  -5.0634  -5.0537
    -5.0472  -5.0140  -4.9905  -4.9690  -4.9548  -4.8828  -4.8661  -4.7608
    -4.7255  -4.6535  -4.6378  -4.6341  -4.5905  -4.5150  -4.4963  -4.4668
    -4.4374  -4.4115  -4.3962  -4.3786  -4.2932  -4.2930  -4.2716  -4.2511
    -4.2446  -4.2077  -4.1757  -4.1705  -4.1177  -4.0677  -4.0644  -4.0419
    -3.9570  -3.9186  -3.8888  -3.8832  -3.8652  -3.8470  -3.8373  -3.8359
    -3.7624  -3.7589  -3.7224  -3.6914  -3.6818  -3.6303  -3.6199  -3.6030
    -3.5766  -3.5499  -3.5067  -3.5051  -3.4793  -3.4676  -3.4588  -3.4517
    -3.4299  -3.4113  -3.4106  -3.3615  -3.3592  -3.3343  -3.3093  -3.2981
    -3.2845  -3.2473  -3.2458  -3.2431  -3.2355  -3.2017  -3.1976  -3.1798
    -3.1768  -3.1377  -3.1163  -3.1024  -3.0858  -3.0793  -3.0600  -3.0491
    -3.0329  -3.0089  -2.9846  -2.9804  -2.9510  -2.9456  -2.9277  -2.9179
    -2.8471  -2.8248  -2.8241  -2.7785  -2.7663  -2.7533  -2.7367  -2.7339
    -2.7327  -2.7305  -2.6733  -2.6070  -2.5998  -2.5952  -2.5636  -2.5559
    -2.5249  -2.5147  -2.5097  -2.4849  -2.4618  -2.3879  -2.3869  -2.3760
    -2.3597  -2.3517  -2.3489  -2.3336  -2.3074  -2.2348  -2.1676  -2.1564
    -2.1385  -2.1219  -2.1198  -2.0881  -2.0867  -2.0817  -2.0718  -2.0198
    -2.0189  -2.0086  -1.9856  -1.9658  -1.9596  -1.9439  -1.9137  -1.8825

          k =-0.2500-0.7217 0.0000 (166642 PWs)   bands (ev):

   -20.6538 -20.3964 -20.3964 -20.3281 -20.0850 -20.0849 -19.9722 -19.7891
   -19.7609 -19.7605 -19.7264 -19.5485 -19.4815 -19.4577 -19.3531 -19.3515
   -19.2190 -19.1413 -19.0523 -19.0457 -19.0329 -18.9537 -18.9400 -18.9354
   -18.8808 -18.8509 -18.8237 -18.8129 -18.8076 -18.7323 -18.7307 -18.7151
   -18.7146 -18.6869 -18.6586 -18.6501 -18.6412 -18.6306 -18.6195 -18.5488
   -18.5335 -18.5328 -18.5275 -18.5157 -18.4935 -18.4801 -18.4573 -18.4432
   -18.4324 -18.4263 -18.3859 -18.3817 -18.3787 -18.3376 -18.3333 -18.2787
   -18.2383 -18.2084 -18.1640 -18.1601 -18.1583 -18.1324 -18.1218 -18.1153
   -18.1091 -18.1010 -18.0970 -18.0905 -18.0834 -18.0788 -18.0780 -18.0742
    -8.2247  -8.1213  -8.1057  -7.9510  -7.8865  -7.8739  -7.8462  -7.8164
    -7.7548  -7.7518  -7.6666  -7.6542  -7.6047  -7.5694  -7.5420  -7.5261
    -7.4684  -7.4527  -7.4459  -7.4279  -7.3662  -7.3571  -7.3384  -7.2605
    -7.2594  -7.2256  -7.1623  -7.0960  -7.0799  -7.0749  -7.0174  -6.8980
    -6.8843  -6.8674  -6.8488  -6.8198  -6.7547  -6.6889  -6.6687  -6.6234
    -6.5022  -6.4164  -6.4056  -6.3889  -6.3579  -6.3413  -6.2963  -6.2734
    -6.2472  -6.1772  -6.1679  -6.1223  -6.0475  -6.0473  -6.0054  -5.9670
    -5.8872  -5.8757  -5.8292  -5.8015  -5.7952  -5.7897  -5.6884  -5.6387
    -5.5869  -5.5687  -5.5274  -5.5001  -5.4869  -5.4812  -5.3849  -5.3346
    -5.2955  -5.2580  -5.1953  -5.1416  -5.0895  -5.0193  -4.9876  -4.9279
    -4.8991  -4.8728  -4.8646  -4.8286  -4.7600  -4.7458  -4.6950  -4.6499
    -4.6424  -4.6277  -4.6089  -4.5589  -4.5037  -4.4700  -4.4630  -4.4091
    -4.3992  -4.3692  -4.3509  -4.2978  -4.2804  -4.2578  -4.2382  -4.2102
    -4.1283  -4.1036  -4.1019  -4.0910  -4.0543  -4.0331  -4.0153  -4.0134
    -3.9814  -3.9787  -3.9433  -3.9309  -3.9132  -3.9083  -3.8672  -3.8543
    -3.8367  -3.7664  -3.7432  -3.7328  -3.7314  -3.7066  -3.6954  -3.6841
    -3.6484  -3.6419  -3.6232  -3.5870  -3.5536  -3.5406  -3.5156  -3.4860
    -3.4666  -3.4458  -3.4165  -3.4162  -3.3904  -3.3800  -3.3283  -3.3278
    -3.3222  -3.2889  -3.2864  -3.2756  -3.2568  -3.2176  -3.1554  -3.1514
    -3.1411  -3.1108  -3.1022  -3.0911  -3.0774  -3.0619  -3.0583  -3.0194
    -3.0071  -3.0069  -2.9750  -2.9639  -2.9368  -2.9296  -2.9135  -2.8468
    -2.8443  -2.8332  -2.8316  -2.7641  -2.7586  -2.7513  -2.7364  -2.7233
    -2.7027  -2.6910  -2.6811  -2.6662  -2.6527  -2.6238  -2.5990  -2.5573
    -2.5352  -2.5173  -2.5057  -2.4892  -2.4497  -2.4118  -2.4087  -2.3640
    -2.3605  -2.3462  -2.3271  -2.3236  -2.2936  -2.2869  -2.2632  -2.2081
    -2.1876  -2.1621  -2.1497  -2.1494  -2.1173  -2.0606  -2.0297  -2.0062
    -2.0041  -1.9983  -1.9950  -1.9495  -1.9465  -1.9355  -1.9349  -1.8947

          k =-0.2500-0.4330 0.0000 (166642 PWs)   bands (ev):

   -20.6538 -20.3964 -20.3964 -20.3281 -20.0850 -20.0849 -19.9722 -19.7891
   -19.7609 -19.7605 -19.7264 -19.5485 -19.4815 -19.4577 -19.3531 -19.3515
   -19.2190 -19.1413 -19.0523 -19.0457 -19.0329 -18.9537 -18.9400 -18.9354
   -18.8808 -18.8509 -18.8237 -18.8129 -18.8076 -18.7323 -18.7307 -18.7151
   -18.7146 -18.6869 -18.6586 -18.6501 -18.6412 -18.6306 -18.6195 -18.5488
   -18.5335 -18.5328 -18.5275 -18.5157 -18.4935 -18.4801 -18.4573 -18.4432
   -18.4324 -18.4263 -18.3859 -18.3817 -18.3787 -18.3376 -18.3333 -18.2787
   -18.2383 -18.2084 -18.1640 -18.1601 -18.1583 -18.1324 -18.1218 -18.1153
   -18.1091 -18.1010 -18.0970 -18.0905 -18.0834 -18.0788 -18.0780 -18.0742
    -8.2247  -8.1213  -8.1057  -7.9510  -7.8865  -7.8739  -7.8462  -7.8164
    -7.7548  -7.7518  -7.6666  -7.6542  -7.6047  -7.5694  -7.5420  -7.5261
    -7.4684  -7.4527  -7.4459  -7.4279  -7.3662  -7.3571  -7.3384  -7.2605
    -7.2594  -7.2256  -7.1623  -7.0960  -7.0799  -7.0749  -7.0174  -6.8980
    -6.8843  -6.8674  -6.8488  -6.8198  -6.7547  -6.6889  -6.6687  -6.6234
    -6.5022  -6.4164  -6.4056  -6.3889  -6.3580  -6.3413  -6.2963  -6.2734
    -6.2472  -6.1772  -6.1679  -6.1223  -6.0475  -6.0473  -6.0054  -5.9670
    -5.8872  -5.8757  -5.8292  -5.8015  -5.7952  -5.7897  -5.6884  -5.6387
    -5.5869  -5.5687  -5.5274  -5.5001  -5.4869  -5.4812  -5.3849  -5.3346
    -5.2955  -5.2580  -5.1953  -5.1416  -5.0895  -5.0193  -4.9876  -4.9279
    -4.8991  -4.8728  -4.8646  -4.8286  -4.7600  -4.7458  -4.6950  -4.6499
    -4.6424  -4.6277  -4.6089  -4.5589  -4.5037  -4.4700  -4.4630  -4.4091
    -4.3992  -4.3692  -4.3509  -4.2978  -4.2804  -4.2578  -4.2382  -4.2102
    -4.1283  -4.1036  -4.1019  -4.0910  -4.0543  -4.0331  -4.0153  -4.0134
    -3.9814  -3.9787  -3.9433  -3.9309  -3.9132  -3.9083  -3.8672  -3.8543
    -3.8367  -3.7664  -3.7432  -3.7328  -3.7314  -3.7066  -3.6954  -3.6841
    -3.6484  -3.6419  -3.6232  -3.5870  -3.5536  -3.5406  -3.5156  -3.4860
    -3.4666  -3.4458  -3.4165  -3.4162  -3.3904  -3.3800  -3.3283  -3.3278
    -3.3222  -3.2889  -3.2864  -3.2756  -3.2568  -3.2176  -3.1554  -3.1514
    -3.1411  -3.1108  -3.1022  -3.0911  -3.0774  -3.0619  -3.0583  -3.0194
    -3.0071  -3.0069  -2.9750  -2.9639  -2.9368  -2.9296  -2.9135  -2.8468
    -2.8443  -2.8332  -2.8316  -2.7641  -2.7586  -2.7513  -2.7364  -2.7233
    -2.7027  -2.6910  -2.6811  -2.6662  -2.6527  -2.6238  -2.5990  -2.5573
    -2.5352  -2.5173  -2.5057  -2.4892  -2.4497  -2.4118  -2.4087  -2.3640
    -2.3605  -2.3462  -2.3271  -2.3236  -2.2936  -2.2869  -2.2632  -2.2081
    -2.1876  -2.1621  -2.1497  -2.1494  -2.1173  -2.0606  -2.0297  -2.0062
    -2.0041  -1.9983  -1.9950  -1.9495  -1.9465  -1.9355  -1.9349  -1.8947

     highest occupied level (ev):    -1.8760

!    total energy              =   -4910.94279239 Ry
     total all-electron energy =    -34162.772562 Ry
     estimated scf accuracy    <          6.9E-09 Ry

     The total energy is the sum of the following terms:
     one-electron contribution =  -81750.03297730 Ry
     hartree contribution      =   41109.70893628 Ry
     xc contribution           =    -676.60183666 Ry
     ewald contribution        =   38753.96952391 Ry
     one-center paw contrib.   =   -2347.98643862 Ry

     convergence has been achieved in  16 iterations

     negative rho (up, down):  4.842E-03 0.000E+00

     Forces acting on atoms (cartesian axes, Ry/au):

     atom    1 type  1   force =    -0.00000007   -0.00000022   -0.00014280
     atom    2 type  1   force =     0.00000003    0.00000026    0.00016287
     atom    3 type  1   force =    -0.00000020    0.00000165    0.00019868
     atom    4 type  1   force =     0.00000006   -0.00000016   -0.00003399
     atom    5 type  1   force =     0.00000029    0.00000188    0.00019441
     atom    6 type  1   force =     0.00000004    0.00000002    0.00003599
     atom    7 type  1   force =    -0.00000143    0.00000298   -0.00003529
     atom    8 type  1   force =    -0.00000033    0.00000213   -0.00019468
     atom    9 type  1   force =     0.00000022    0.00000135    0.00003412
     atom   10 type  1   force =     0.00000013    0.00000150   -0.00019856
     atom   11 type  1   force =     0.00000005   -0.00000013   -0.00016264
     atom   12 type  1   force =    -0.00000003    0.00000044    0.00014288
     atom   13 type  2   force =    -0.00001092    0.00019998    0.00035717
     atom   14 type  2   force =    -0.00003959    0.00005523   -0.00012141
     atom   15 type  2   force =     0.00017846   -0.00009044    0.00035711
     atom   16 type  2   force =    -0.00016746   -0.00010845    0.00035737
     atom   17 type  2   force =     0.00006765    0.00000719   -0.00012162
     atom   18 type  2   force =    -0.00002771   -0.00006128   -0.00012158
     atom   19 type  2   force =    -0.00008317    0.00023246    0.00000213
     atom   20 type  2   force =    -0.00024368    0.00004564   -0.00000204
     atom   21 type  2   force =     0.00024263   -0.00004389    0.00000212
     atom   22 type  2   force =    -0.00015942   -0.00018774    0.00000211
     atom   23 type  2   force =     0.00015828    0.00018860   -0.00000237
     atom   24 type  2   force =     0.00008418   -0.00023110   -0.00000217
     atom   25 type  2   force =     0.00002784    0.00006291    0.00012093
     atom   26 type  2   force =    -0.00017854    0.00009060   -0.00035710
     atom   27 type  2   force =     0.00003960   -0.00005473    0.00012111
     atom   28 type  2   force =    -0.00006761   -0.00000674    0.00012132
     atom   29 type  2   force =     0.00016748    0.00010962   -0.00035707
     atom   30 type  2   force =     0.00001104   -0.00019952   -0.00035709
     atom   31 type  1   force =    -0.00000001   -0.00000059   -0.00014293
     atom   32 type  1   force =     0.00000004   -0.00000077    0.00016284
     atom   33 type  1   force =     0.00000006   -0.00000018    0.00019843
     atom   34 type  1   force =    -0.00000017   -0.00000111   -0.00003411
     atom   35 type  1   force =     0.00000004   -0.00000007    0.00019398
     atom   36 type  1   force =     0.00000147   -0.00000287    0.00003546
     atom   37 type  1   force =    -0.00000003   -0.00000050   -0.00003549
     atom   38 type  1   force =     0.00000006   -0.00000026   -0.00019422
     atom   39 type  1   force =    -0.00000007   -0.00000042    0.00003405
     atom   40 type  1   force =     0.00000001   -0.00000022   -0.00019835
     atom   41 type  1   force =    -0.00000011   -0.00000076   -0.00016259
     atom   42 type  1   force =     0.00000002   -0.00000066    0.00014270
     atom   43 type  2   force =    -0.00001089    0.00019974    0.00035704
     atom   44 type  2   force =    -0.00003967    0.00005402   -0.00012132
     atom   45 type  2   force =     0.00017861   -0.00009141    0.00035666
     atom   46 type  2   force =    -0.00016760   -0.00010921    0.00035710
     atom   47 type  2   force =     0.00006758    0.00000665   -0.00012134
     atom   48 type  2   force =    -0.00002796   -0.00006175   -0.00012138
     atom   49 type  2   force =    -0.00008274    0.00023095    0.00000307
     atom   50 type  2   force =    -0.00024248    0.00004277   -0.00000227
     atom   51 type  2   force =     0.00024380   -0.00004751    0.00000205
     atom   52 type  2   force =    -0.00015964   -0.00018787    0.00000232
     atom   53 type  2   force =     0.00015793    0.00018723   -0.00000265
     atom   54 type  2   force =     0.00008423   -0.00023142   -0.00000207
     atom   55 type  2   force =     0.00002798    0.00006200    0.00012133
     atom   56 type  2   force =    -0.00017853    0.00009053   -0.00035709
     atom   57 type  2   force =     0.00003967   -0.00005532    0.00012140
     atom   58 type  2   force =    -0.00006762   -0.00000782    0.00012163
     atom   59 type  2   force =     0.00016745    0.00010792   -0.00035742
     atom   60 type  2   force =     0.00001093   -0.00020079   -0.00035677
     atom   61 type  1   force =    -0.00000008   -0.00000027   -0.00014279
     atom   62 type  1   force =     0.00000003    0.00000025    0.00016287
     atom   63 type  1   force =    -0.00000018    0.00000163    0.00019872
     atom   64 type  1   force =     0.00000005   -0.00000016   -0.00003401
     atom   65 type  1   force =     0.00000040    0.00000186    0.00019442
     atom   66 type  1   force =     0.00000003   -0.00000001    0.00003598
     atom   67 type  1   force =    -0.00000142    0.00000283   -0.00003528
     atom   68 type  1   force =    -0.00000029    0.00000211   -0.00019471
     atom   69 type  1   force =     0.00000025    0.00000132    0.00003410
     atom   70 type  1   force =     0.00000023    0.00000145   -0.00019859
     atom   71 type  1   force =     0.00000006   -0.00000015   -0.00016267
     atom   72 type  1   force =    -0.00000005    0.00000039    0.00014289
     atom   73 type  2   force =    -0.00001095    0.00019998    0.00035719
     atom   74 type  2   force =    -0.00003964    0.00005522   -0.00012139
     atom   75 type  2   force =     0.00017851   -0.00009039    0.00035707
     atom   76 type  2   force =    -0.00016744   -0.00010843    0.00035733
     atom   77 type  2   force =     0.00006761    0.00000718   -0.00012157
     atom   78 type  2   force =    -0.00002773   -0.00006131   -0.00012156
     atom   79 type  2   force =    -0.00008310    0.00023255    0.00000218
     atom   80 type  2   force =    -0.00024367    0.00004559   -0.00000207
     atom   81 type  2   force =     0.00024267   -0.00004397    0.00000229
     atom   82 type  2   force =    -0.00015948   -0.00018773    0.00000214
     atom   83 type  2   force =     0.00015823    0.00018858   -0.00000228
     atom   84 type  2   force =     0.00008413   -0.00023107   -0.00000232
     atom   85 type  2   force =     0.00002787    0.00006292    0.00012095
     atom   86 type  2   force =    -0.00017857    0.00009062   -0.00035709
     atom   87 type  2   force =     0.00003957   -0.00005473    0.00012116
     atom   88 type  2   force =    -0.00006756   -0.00000672    0.00012130
     atom   89 type  2   force =     0.00016751    0.00010959   -0.00035704
     atom   90 type  2   force =     0.00001102   -0.00019948   -0.00035708
     atom   91 type  1   force =    -0.00000007   -0.00000061   -0.00014293
     atom   92 type  1   force =    -0.00000000   -0.00000075    0.00016283
     atom   93 type  1   force =    -0.00000002   -0.00000013    0.00019844
     atom   94 type  1   force =    -0.00000021   -0.00000110   -0.00003412
     atom   95 type  1   force =    -0.00000003   -0.00000006    0.00019395
     atom   96 type  1   force =     0.00000144   -0.00000283    0.00003548
     atom   97 type  1   force =    -0.00000000   -0.00000055   -0.00003547
     atom   98 type  1   force =    -0.00000001   -0.00000028   -0.00019422
     atom   99 type  1   force =    -0.00000010   -0.00000040    0.00003402
     atom  100 type  1   force =    -0.00000005   -0.00000019   -0.00019833
     atom  101 type  1   force =    -0.00000016   -0.00000076   -0.00016259
     atom  102 type  1   force =    -0.00000004   -0.00000068    0.00014270
     atom  103 type  2   force =    -0.00001088    0.00019973    0.00035702
     atom  104 type  2   force =    -0.00003972    0.00005404   -0.00012129
     atom  105 type  2   force =     0.00017859   -0.00009147    0.00035670
     atom  106 type  2   force =    -0.00016759   -0.00010922    0.00035707
     atom  107 type  2   force =     0.00006757    0.00000667   -0.00012132
     atom  108 type  2   force =    -0.00002797   -0.00006174   -0.00012141
     atom  109 type  2   force =    -0.00008278    0.00023091    0.00000299
     atom  110 type  2   force =    -0.00024253    0.00004278   -0.00000218
     atom  111 type  2   force =     0.00024386   -0.00004759    0.00000221
     atom  112 type  2   force =    -0.00015947   -0.00018789    0.00000217
     atom  113 type  2   force =     0.00015798    0.00018717   -0.00000282
     atom  114 type  2   force =     0.00008410   -0.00023152   -0.00000218
     atom  115 type  2   force =     0.00002800    0.00006204    0.00012134
     atom  116 type  2   force =    -0.00017858    0.00009051   -0.00035704
     atom  117 type  2   force =     0.00003961   -0.00005534    0.00012142
     atom  118 type  2   force =    -0.00006757   -0.00000785    0.00012160
     atom  119 type  2   force =     0.00016748    0.00010792   -0.00035742
     atom  120 type  2   force =     0.00001098   -0.00020081   -0.00035669

     Total force =     0.002637     Total SCF correction =     0.000344
     SCF correction compared to forces is large: reduce conv_thr to get better values


     Computing stress (Cartesian axis) and pressure


     negative rho (up, down):  4.842E-03 0.000E+00
          total   stress  (Ry/bohr**3)                   (kbar)     P=       14.61
   0.00015437  -0.00000002  -0.00000000           22.71       -0.00       -0.00
  -0.00000002   0.00015438   0.00000000           -0.00       22.71        0.00
  -0.00000000   0.00000000  -0.00001080           -0.00        0.00       -1.59


     Writing all to output data dir ./tmp/al2o3.save/ :
     XML data file, charge density, pseudopotentials, collected wavefunctions

     init_run     :    155.99s CPU    163.35s WALL (       1 calls)
     electrons    :   5680.23s CPU   5917.60s WALL (       1 calls)
     forces       :     76.70s CPU     78.49s WALL (       1 calls)
     stress       :    274.03s CPU    278.36s WALL (       1 calls)

     Called by init_run:
     wfcinit      :    150.44s CPU    156.97s WALL (       1 calls)
     potinit      :      1.94s CPU      2.01s WALL (       1 calls)
     hinit0       :      0.82s CPU      0.85s WALL (       1 calls)

     Called by electrons:
     c_bands      :   5077.08s CPU   5269.90s WALL (      16 calls)
     sum_band     :    550.98s CPU    584.33s WALL (      16 calls)
     v_of_rho     :      5.48s CPU      5.87s WALL (      17 calls)
     newd         :     20.93s CPU     31.97s WALL (      17 calls)
     PAW_pot      :     26.74s CPU     26.87s WALL (      17 calls)
     mix_rho      :      1.04s CPU      1.19s WALL (      16 calls)

     Called by c_bands:
     init_us_2    :     56.76s CPU     57.69s WALL (     560 calls)
     cegterg      :   4962.26s CPU   5153.76s WALL (     256 calls)

     Called by *egterg:
     cdiaghg      :    234.57s CPU    242.06s WALL (     913 calls)
     h_psi        :   2801.22s CPU   2937.25s WALL (     929 calls)
     s_psi        :    773.64s CPU    779.41s WALL (     929 calls)
     g_psi        :      5.67s CPU      5.71s WALL (     657 calls)

     Called by h_psi:
     h_psi:calbec :    796.41s CPU    806.22s WALL (     929 calls)
     vloc_psi     :   1223.69s CPU   1334.35s WALL (     929 calls)
                                        0.00s GPU  (     929 calls)
     add_vuspsi   :    774.68s CPU    780.59s WALL (     929 calls)

     General routines
     calbec       :   1357.59s CPU   1372.12s WALL (    1457 calls)
     fft          :      5.81s CPU      6.30s WALL (     244 calls)
     ffts         :      0.37s CPU      0.39s WALL (      33 calls)
     fftw         :   1239.82s CPU   1363.93s WALL (  506624 calls)
     interpolate  :      0.60s CPU      0.64s WALL (      17 calls)

     Parallel routines

     PWSCF        :      1h43m CPU      1h47m WALL


   This run was terminated on:  14:19:49   7Jul2026            

=------------------------------------------------------------------------------=
   JOB DONE.
=------------------------------------------------------------------------------=
