
     Program PWSCF v.7.4 starts on 22Jul2026 at  0:15:19 

     This program is part of the open-source Quantum ESPRESSO suite
     for quantum simulation of materials; please cite
         "P. Giannozzi et al., J. Phys.:Condens. Matter 21 395502 (2009);
         "P. Giannozzi et al., J. Phys.:Condens. Matter 29 465901 (2017);
         "P. Giannozzi et al., J. Chem. Phys. 152 154105 (2020);
          URL http://www.quantum-espresso.org", 
     in publications or presentations arising from this work. More details at
     http://www.quantum-espresso.org/quote

     Parallel version (MPI & OpenMP), running on      96 processor cores
     Number of MPI processes:                96
     Threads/MPI process:                     1

     MPI processes distributed on     2 nodes
     180177 MiB available memory on the printing compute node when the environment starts
 
     Reading input from LiF_PVDF_relax.in

     Current dimensions of program PWSCF are:
     Max number of different atomic species (ntypx) = 10
     Max number of k-points (npk) =  40000
     Max angular momentum in pseudopotentials (lmaxx) =  4

     File ./tmp/LiF_PVDF/LiF_PVDF.update deleted, as requested

     File ./tmp/LiF_PVDF/LiF_PVDF.bfgs deleted, as requested
 
     R & G space division:  proc/nbgrp/npool/nimage =      96
     Subspace diagonalization in iterative solution of the eigenvalue problem:
     one sub-group per band group will be used
     scalapack distributed-memory algorithm (size of sub-group:  3*  3 procs)

 
     Parallelization info
     --------------------
     sticks:   dense  smooth     PW     G-vecs:    dense   smooth      PW
     Min         134      66     17                47214    16664    2277
     Max         135      67     18                47230    16709    2310
     Sum       12867    6427   1709              4533471  1602351  220309
 
     Using Slab Decomposition
 


     bravais-lattice index     =            0
     lattice parameter (alat)  =      21.8257  a.u.
     unit-cell volume          =   25528.7938 (a.u.)^3
     number of atoms/cell      =          142
     number of atomic types    =            4
     number of electrons       =       690.00
     number of Kohn-Sham states=          345
     kinetic-energy cutoff     =      60.0000  Ry
     charge density cutoff     =     480.0000  Ry
     scf convergence threshold =      1.0E-08
     mixing beta               =       0.3000
     number of iterations used =            8  plain     mixing
     energy convergence thresh.=      1.0E-04
     force convergence thresh. =      1.0E-03
     Exchange-correlation= PBE
                           (   1   4   3   4   0   0   0)
     nstep                     =           50


     celldm(1)=  21.825725  celldm(2)=   0.000000  celldm(3)=   0.000000
     celldm(4)=   0.000000  celldm(5)=   0.000000  celldm(6)=   0.000000

     crystal axes: (cart. coord. in units of alat)
               a(1) = (   1.000000   0.000000   0.000000 )  
               a(2) = (   0.000000   0.707107   0.000000 )  
               a(3) = (   0.000000   0.000000   3.472475 )  

     reciprocal axes: (cart. coord. in units 2 pi/alat)
               b(1) = (  1.000000  0.000000  0.000000 )  
               b(2) = (  0.000000  1.414213  0.000000 )  
               b(3) = (  0.000000  0.000000  0.287979 )  


     PseudoPot. # 1 for Li read from file:
     ./pseudo/Li.upf
     MD5 check sum: dbcf0ea72988e720c8c712b432d51b0d
     Pseudo is Norm-conserving, Zval =  3.0
     Generated using ONCVPSP code by D. R. Hamann
     Using radial grid of 1944 points,  4 beta functions with: 
                l(1) =   0
                l(2) =   0
                l(3) =   1
                l(4) =   1

     PseudoPot. # 2 for F  read from file:
     ./pseudo/F.upf
     MD5 check sum: e79d493a50113cefedcefee2f1adb6e7
     Pseudo is Norm-conserving + core correction, Zval =  7.0
     Generated using ONCVPSP code by D. R. Hamann
     Using radial grid of  832 points,  5 beta functions with: 
                l(1) =   0
                l(2) =   0
                l(3) =   1
                l(4) =   1
                l(5) =   2

     PseudoPot. # 3 for C  read from file:
     ./pseudo/C.upf
     MD5 check sum: 34a24e64c0a39f27c6c36b90a16ac686
     Pseudo is Norm-conserving + core correction, Zval =  4.0
     Generated using ONCVPSP code by D. R. Hamann
     Using radial grid of 1248 points,  4 beta functions with: 
                l(1) =   0
                l(2) =   0
                l(3) =   1
                l(4) =   1

     PseudoPot. # 4 for H  read from file:
     ./pseudo/H.upf
     MD5 check sum: e96aa7e3e4a958db16958554ea960e2a
     Pseudo is Norm-conserving, Zval =  1.0
     Generated using ONCVPSP code by D. R. Hamann
     Using radial grid of 1166 points,  3 beta functions with: 
                l(1) =   0
                l(2) =   0
                l(3) =   1

     atomic species   valence    mass     pseudopotential
     Li                3.00     6.94000     Li( 1.00)
     F                 7.00    18.99840     F ( 1.00)
     C                 4.00    12.01100     C ( 1.00)
     H                 1.00     1.00800     H ( 1.00)

     No symmetry found



   Cartesian axes

     site n.     atom                  positions (alat units)
         1        Li     tau(   1) = (   0.0000000   0.0000000   1.3180357  )
         2        Li     tau(   2) = (   0.3750000   0.1767767   1.4159279  )
         3        Li     tau(   3) = (   0.1250000   0.1767767   1.4159279  )
         4        Li     tau(   4) = (   0.2500000   0.0000000   1.3180357  )
         5        F      tau(   5) = (   0.3750000   0.0000000   1.4230467  )
         6        F      tau(   6) = (   0.0000000   0.1767767   1.3060823  )
         7        F      tau(   7) = (   0.2500000   0.1767767   1.3060823  )
         8        F      tau(   8) = (   0.1250000   0.0000000   1.4230467  )
         9        Li     tau(   9) = (   0.2500000   0.7071070   1.5548495  )
        10        Li     tau(  10) = (   0.1250000   0.1767767   1.6714958  )
        11        Li     tau(  11) = (   0.3750000   0.1767767   1.6714958  )
        12        Li     tau(  12) = (   1.0000000   0.7071070   1.5548495  )
        13        F      tau(  13) = (   0.1250000   0.0000000   1.6737057  )
        14        F      tau(  14) = (   0.2500000   0.1767767   1.5514665  )
        15        F      tau(  15) = (   0.0000000   0.1767767   1.5514665  )
        16        F      tau(  16) = (   0.3750000   0.0000000   1.6737057  )
        17        Li     tau(  17) = (   1.0000000   0.7071070   1.8009796  )
        18        Li     tau(  18) = (   0.3750000   0.1767767   1.9176259  )
        19        Li     tau(  19) = (   0.1250000   0.1767767   1.9176259  )
        20        Li     tau(  20) = (   0.2500000   0.7071070   1.8009796  )
        21        F      tau(  21) = (   0.3750000   0.0000000   1.9210089  )
        22        F      tau(  22) = (   1.0000000   0.1767767   1.7987697  )
        23        F      tau(  23) = (   0.2500000   0.1767767   1.7987697  )
        24        F      tau(  24) = (   0.1250000   0.0000000   1.9210089  )
        25        Li     tau(  25) = (   0.2500000   0.0000000   2.0565475  )
        26        Li     tau(  26) = (   0.1250000   0.1767767   2.1544397  )
        27        Li     tau(  27) = (   0.3750000   0.1767767   2.1544397  )
        28        Li     tau(  28) = (   1.0000000   0.0000000   2.0565475  )
        29        F      tau(  29) = (   0.1250000   0.0000000   2.1663931  )
        30        F      tau(  30) = (   0.2500000   0.1767767   2.0494287  )
        31        F      tau(  31) = (   0.0000000   0.1767767   2.0494287  )
        32        F      tau(  32) = (   0.3750000   0.0000000   2.1663931  )
        33        Li     tau(  33) = (   0.0000000   0.3535534   1.3180357  )
        34        Li     tau(  34) = (   0.3750000   0.5303301   1.4159279  )
        35        Li     tau(  35) = (   0.1250000   0.5303301   1.4159279  )
        36        Li     tau(  36) = (   0.2500000   0.3535534   1.3180357  )
        37        F      tau(  37) = (   0.3750000   0.3535534   1.4230467  )
        38        F      tau(  38) = (   0.0000000   0.5303301   1.3060823  )
        39        F      tau(  39) = (   0.2500000   0.5303301   1.3060823  )
        40        F      tau(  40) = (   0.1250000   0.3535534   1.4230467  )
        41        Li     tau(  41) = (   0.2500000   0.3535534   1.5548495  )
        42        Li     tau(  42) = (   0.1250000   0.5303301   1.6714958  )
        43        Li     tau(  43) = (   0.3750000   0.5303301   1.6714958  )
        44        Li     tau(  44) = (   1.0000000   0.3535534   1.5548495  )
        45        F      tau(  45) = (   0.1250000   0.3535534   1.6737057  )
        46        F      tau(  46) = (   0.2500000   0.5303301   1.5514665  )
        47        F      tau(  47) = (   0.0000000   0.5303301   1.5514665  )
        48        F      tau(  48) = (   0.3750000   0.3535534   1.6737057  )
        49        Li     tau(  49) = (   0.0000000   0.3535534   1.8009796  )
        50        Li     tau(  50) = (   0.3750000   0.5303301   1.9176259  )
        51        Li     tau(  51) = (   0.1250000   0.5303301   1.9176259  )
        52        Li     tau(  52) = (   0.2500000   0.3535534   1.8009796  )
        53        F      tau(  53) = (   0.3750000   0.3535534   1.9210089  )
        54        F      tau(  54) = (   1.0000000   0.5303301   1.7987697  )
        55        F      tau(  55) = (   0.2500000   0.5303301   1.7987697  )
        56        F      tau(  56) = (   0.1250000   0.3535534   1.9210089  )
        57        Li     tau(  57) = (   0.2500000   0.3535534   2.0565475  )
        58        Li     tau(  58) = (   0.1250000   0.5303301   2.1544397  )
        59        Li     tau(  59) = (   0.3750000   0.5303301   2.1544397  )
        60        Li     tau(  60) = (   0.0000000   0.3535534   2.0565475  )
        61        F      tau(  61) = (   0.1250000   0.3535534   2.1663931  )
        62        F      tau(  62) = (   0.2500000   0.5303301   2.0494287  )
        63        F      tau(  63) = (   1.0000000   0.5303301   2.0494287  )
        64        F      tau(  64) = (   0.3750000   0.3535534   2.1663931  )
        65        Li     tau(  65) = (   0.5000000   0.0000000   1.3180357  )
        66        Li     tau(  66) = (   0.8750000   0.1767767   1.4159279  )
        67        Li     tau(  67) = (   0.6250000   0.1767767   1.4159279  )
        68        Li     tau(  68) = (   0.7500000   0.0000000   1.3180357  )
        69        F      tau(  69) = (   0.8750000   0.0000000   1.4230467  )
        70        F      tau(  70) = (   0.5000000   0.1767767   1.3060823  )
        71        F      tau(  71) = (   0.7500000   0.1767767   1.3060823  )
        72        F      tau(  72) = (   0.6250000   0.7071070   1.4230467  )
        73        Li     tau(  73) = (   0.7500000   0.7071070   1.5548495  )
        74        Li     tau(  74) = (   0.6250000   0.1767767   1.6714958  )
        75        Li     tau(  75) = (   0.8750000   0.1767767   1.6714958  )
        76        Li     tau(  76) = (   0.5000000   0.7071070   1.5548495  )
        77        F      tau(  77) = (   0.6250000   0.0000000   1.6737057  )
        78        F      tau(  78) = (   0.7500000   0.1767767   1.5514665  )
        79        F      tau(  79) = (   0.5000000   0.1767767   1.5514665  )
        80        F      tau(  80) = (   0.8750000   0.7071070   1.6737057  )
        81        Li     tau(  81) = (   0.5000000   0.7071070   1.8009796  )
        82        Li     tau(  82) = (   0.8750000   0.1767767   1.9176259  )
        83        Li     tau(  83) = (   0.6250000   0.1767767   1.9176259  )
        84        Li     tau(  84) = (   0.7500000   0.7071070   1.8009796  )
        85        F      tau(  85) = (   0.8750000   0.0000000   1.9210089  )
        86        F      tau(  86) = (   0.5000000   0.1767767   1.7987697  )
        87        F      tau(  87) = (   0.7500000   0.1767767   1.7987697  )
        88        F      tau(  88) = (   0.6250000   0.0000000   1.9210089  )
        89        Li     tau(  89) = (   0.7500000   0.7071070   2.0565475  )
        90        Li     tau(  90) = (   0.6250000   0.1767767   2.1544397  )
        91        Li     tau(  91) = (   0.8750000   0.1767767   2.1544397  )
        92        Li     tau(  92) = (   0.5000000   0.0000000   2.0565475  )
        93        F      tau(  93) = (   0.6250000   0.0000000   2.1663931  )
        94        F      tau(  94) = (   0.7500000   0.1767767   2.0494287  )
        95        F      tau(  95) = (   0.5000000   0.1767767   2.0494287  )
        96        F      tau(  96) = (   0.8750000   0.0000000   2.1663931  )
        97        Li     tau(  97) = (   0.5000000   0.3535534   1.3180357  )
        98        Li     tau(  98) = (   0.8750000   0.5303301   1.4159279  )
        99        Li     tau(  99) = (   0.6250000   0.5303301   1.4159279  )
       100        Li     tau( 100) = (   0.7500000   0.3535534   1.3180357  )
       101        F      tau( 101) = (   0.8750000   0.3535534   1.4230467  )
       102        F      tau( 102) = (   0.5000000   0.5303301   1.3060823  )
       103        F      tau( 103) = (   0.7500000   0.5303301   1.3060823  )
       104        F      tau( 104) = (   0.6250000   0.3535534   1.4230467  )
       105        Li     tau( 105) = (   0.7500000   0.3535534   1.5548495  )
       106        Li     tau( 106) = (   0.6250000   0.5303301   1.6714958  )
       107        Li     tau( 107) = (   0.8750000   0.5303301   1.6714958  )
       108        Li     tau( 108) = (   0.5000000   0.3535534   1.5548495  )
       109        F      tau( 109) = (   0.6250000   0.3535534   1.6737057  )
       110        F      tau( 110) = (   0.7500000   0.5303301   1.5514665  )
       111        F      tau( 111) = (   0.5000000   0.5303301   1.5514665  )
       112        F      tau( 112) = (   0.8750000   0.3535534   1.6737057  )
       113        Li     tau( 113) = (   0.5000000   0.3535534   1.8009796  )
       114        Li     tau( 114) = (   0.8750000   0.5303301   1.9176259  )
       115        Li     tau( 115) = (   0.6250000   0.5303301   1.9176259  )
       116        Li     tau( 116) = (   0.7500000   0.3535534   1.8009796  )
       117        F      tau( 117) = (   0.8750000   0.3535534   1.9210089  )
       118        F      tau( 118) = (   0.5000000   0.5303301   1.7987697  )
       119        F      tau( 119) = (   0.7500000   0.5303301   1.7987697  )
       120        F      tau( 120) = (   0.6250000   0.3535534   1.9210089  )
       121        Li     tau( 121) = (   0.7500000   0.3535534   2.0565475  )
       122        Li     tau( 122) = (   0.6250000   0.5303301   2.1544397  )
       123        Li     tau( 123) = (   0.8750000   0.5303301   2.1544397  )
       124        Li     tau( 124) = (   0.5000000   0.3535534   2.0565475  )
       125        F      tau( 125) = (   0.6250000   0.3535534   2.1663931  )
       126        F      tau( 126) = (   0.7500000   0.5303301   2.0494287  )
       127        F      tau( 127) = (   0.5000000   0.5303301   2.0494287  )
       128        F      tau( 128) = (   0.8750000   0.3535534   2.1663931  )
       129        C      tau( 129) = (   0.3287198   0.3471141   2.5497584  )
       130        C      tau( 130) = (   0.4464292   0.3637774   2.4945691  )
       131        H      tau( 131) = (   0.2618925   0.3639360   2.4844530  )
       132        H      tau( 132) = (   0.3194702   0.2580443   2.5813696  )
       133        H      tau( 133) = (   0.3173286   0.4076451   2.6220522  )
       134        C      tau( 134) = (   0.5483226   0.3439798   2.5769390  )
       135        F      tau( 135) = (   0.4552256   0.2893352   2.4001659  )
       136        H      tau( 136) = (   0.5406529   0.2562959   2.6132428  )
       137        C      tau( 137) = (   0.6708158   0.3559716   2.5299271  )
       138        F      tau( 138) = (   0.4519046   0.4754870   2.4494884  )
       139        H      tau( 139) = (   0.5397996   0.4050305   2.6495116  )
       140        F      tau( 140) = (   0.6910064   0.4649691   2.4850941  )
       141        F      tau( 141) = (   0.6930320   0.2769591   2.4429223  )
       142        H      tau( 142) = (   0.7354003   0.3412039   2.5987011  )

     number of k points=    10
                       cart. coord. in units 2pi/alat
        k(    1) = (   0.0000000   0.0000000   0.0000000), wk =   0.1250000
        k(    2) = (   0.0000000   0.3535533   0.0000000), wk =   0.2500000
        k(    3) = (   0.0000000  -0.7071066   0.0000000), wk =   0.1250000
        k(    4) = (   0.2500000   0.0000000   0.0000000), wk =   0.2500000
        k(    5) = (   0.2500000   0.3535533   0.0000000), wk =   0.2500000
        k(    6) = (   0.2500000  -0.7071066   0.0000000), wk =   0.2500000
        k(    7) = (  -0.5000000   0.0000000   0.0000000), wk =   0.1250000
        k(    8) = (  -0.5000000   0.3535533   0.0000000), wk =   0.2500000
        k(    9) = (  -0.5000000  -0.7071066   0.0000000), wk =   0.1250000
        k(   10) = (  -0.2500000   0.3535533   0.0000000), wk =   0.2500000

     Dense  grid:  4533471 G-vectors     FFT dimensions: ( 160, 108, 540)

     Smooth grid:  1602351 G-vectors     FFT dimensions: ( 108,  80, 375)

     Estimated max dynamical RAM per process >     257.19 MB

     Estimated total dynamical RAM >      24.11 GB

     Initial potential from superposition of free atoms

     starting charge     689.7075, renormalised to     690.0000

     negative rho (up, down):  3.108E-04 0.000E+00
     Starting wfcs are  422 randomized atomic wfcs

     total cpu time spent up to now is       29.4 secs

     per-process dynamical memory:   146.2 Mb

     Self-consistent Calculation

     iteration #  1     ecut=    60.00 Ry     beta= 0.30
     Davidson diagonalization with overlap
     ethr =  1.00E-02,  avg # of iterations =  2.0

     negative rho (up, down):  4.319E-06 0.000E+00

     total cpu time spent up to now is       65.7 secs

     total energy              =   -4344.26151518 Ry
     estimated scf accuracy    <      12.18838163 Ry

     iteration #  2     ecut=    60.00 Ry     beta= 0.30
     Davidson diagonalization with overlap
     ethr =  1.77E-03,  avg # of iterations =  2.0

     negative rho (up, down):  5.876E-06 0.000E+00

     total cpu time spent up to now is      102.3 secs

     total energy              =   -4345.58812745 Ry
     estimated scf accuracy    <       1.44362258 Ry

     iteration #  3     ecut=    60.00 Ry     beta= 0.30
     Davidson diagonalization with overlap
     ethr =  2.09E-04,  avg # of iterations =  3.9

     negative rho (up, down):  2.464E-04 0.000E+00

     total cpu time spent up to now is      139.4 secs

     total energy              =   -4345.68609361 Ry
     estimated scf accuracy    <       0.34721193 Ry

     iteration #  4     ecut=    60.00 Ry     beta= 0.30
     Davidson diagonalization with overlap
     ethr =  5.03E-05,  avg # of iterations =  2.0

     negative rho (up, down):  3.859E-04 0.000E+00

     total cpu time spent up to now is      170.1 secs

     total energy              =   -4345.70735502 Ry
     estimated scf accuracy    <       0.03729439 Ry

     iteration #  5     ecut=    60.00 Ry     beta= 0.30
     Davidson diagonalization with overlap
     ethr =  5.40E-06,  avg # of iterations =  3.0

     negative rho (up, down):  2.926E-04 0.000E+00

     total cpu time spent up to now is      203.8 secs

     total energy              =   -4345.70999306 Ry
     estimated scf accuracy    <       0.00428611 Ry

     iteration #  6     ecut=    60.00 Ry     beta= 0.30
     Davidson diagonalization with overlap
     ethr =  6.21E-07,  avg # of iterations =  4.0

     negative rho (up, down):  1.818E-04 0.000E+00

     total cpu time spent up to now is      242.0 secs

     total energy              =   -4345.71075106 Ry
     estimated scf accuracy    <       0.00066626 Ry

     iteration #  7     ecut=    60.00 Ry     beta= 0.30
     Davidson diagonalization with overlap
     ethr =  9.66E-08,  avg # of iterations =  5.0

     negative rho (up, down):  9.910E-05 0.000E+00

     total cpu time spent up to now is      285.3 secs

     total energy              =   -4345.71088777 Ry
     estimated scf accuracy    <       0.00064198 Ry

     iteration #  8     ecut=    60.00 Ry     beta= 0.30
     Davidson diagonalization with overlap
     ethr =  9.30E-08,  avg # of iterations =  4.0

     negative rho (up, down):  4.719E-05 0.000E+00

     total cpu time spent up to now is      321.0 secs

     total energy              =   -4345.71099282 Ry
     estimated scf accuracy    <       0.00002097 Ry

     iteration #  9     ecut=    60.00 Ry     beta= 0.30
     Davidson diagonalization with overlap
     ethr =  3.04E-09,  avg # of iterations =  4.0

     negative rho (up, down):  1.784E-05 0.000E+00

     total cpu time spent up to now is      361.4 secs

     total energy              =   -4345.71100035 Ry
     estimated scf accuracy    <       0.00000362 Ry

     iteration # 10     ecut=    60.00 Ry     beta= 0.30
     Davidson diagonalization with overlap
     ethr =  5.25E-10,  avg # of iterations =  4.0

     negative rho (up, down):  4.616E-06 0.000E+00

     total cpu time spent up to now is      399.9 secs

     total energy              =   -4345.71100136 Ry
     estimated scf accuracy    <       0.00000050 Ry

     iteration # 11     ecut=    60.00 Ry     beta= 0.30
     Davidson diagonalization with overlap
     ethr =  7.21E-11,  avg # of iterations =  5.0

     negative rho (up, down):  6.670E-07 0.000E+00

     total cpu time spent up to now is      441.5 secs

     total energy              =   -4345.71100159 Ry
     estimated scf accuracy    <       0.00000011 Ry

     iteration # 12     ecut=    60.00 Ry     beta= 0.30
     Davidson diagonalization with overlap
     ethr =  1.54E-11,  avg # of iterations =  5.0

     negative rho (up, down):  5.635E-08 0.000E+00

     total cpu time spent up to now is      483.4 secs

     total energy              =   -4345.71100168 Ry
     estimated scf accuracy    <       0.00000004 Ry

     iteration # 13     ecut=    60.00 Ry     beta= 0.30
     Davidson diagonalization with overlap
     ethr =  5.16E-12,  avg # of iterations =  4.0

     total cpu time spent up to now is      518.5 secs

     End of self-consistent calculation

          k = 0.0000 0.0000 0.0000 (200173 PWs)   bands (ev):

   -46.4591 -46.4569 -46.4499 -46.4499 -46.4488 -46.4488 -46.4414 -46.4401
   -46.3517 -46.3503 -46.2764 -46.2749 -46.2114 -46.2091 -46.1529 -46.1498
   -45.8899 -45.8860 -45.8803 -45.8798 -45.8783 -45.8776 -45.8709 -45.8694
   -45.8162 -45.8128 -45.7980 -45.7954 -45.7846 -45.7815 -45.7671 -45.7648
   -45.7074 -45.7035 -45.6972 -45.6955 -45.6950 -45.6933 -45.6861 -45.6845
   -45.6750 -45.6702 -45.6659 -45.6630 -45.6580 -45.6538 -45.6495 -45.6458
   -45.4671 -45.4663 -45.4585 -45.4584 -45.4580 -45.4579 -45.4505 -45.4490
   -45.3510 -45.3469 -45.3304 -45.3135 -45.2868 -45.2654 -45.2574 -45.2249
   -28.7308 -28.4872 -27.2646 -27.0454 -24.8372 -24.7929 -24.7423 -24.7423
   -24.7278 -24.7278 -24.7061 -24.6617 -24.6564 -24.6402 -24.6041 -24.5912
   -24.5879 -24.5596 -24.5567 -24.4905 -24.4790 -24.4355 -24.4329 -24.4021
   -24.3740 -24.3247 -24.3245 -24.2983 -24.2968 -24.2803 -24.2455 -24.2238
   -24.2209 -24.2198 -24.2018 -24.1889 -24.1858 -24.1358 -24.1343 -24.1342
   -24.0678 -24.0501 -24.0499 -24.0495 -24.0453 -24.0441 -24.0220 -23.9967
   -23.9661 -23.9575 -23.9557 -23.9280 -23.5510 -23.5014 -23.4764 -23.4764
   -23.4401 -23.4401 -23.4073 -23.3993 -23.3766 -23.3641 -23.2961 -23.2543
   -23.2510 -23.1635 -23.1610 -23.0656 -17.9541 -16.3596 -14.1365 -12.8404
   -11.1707 -11.1154 -10.7136 -10.5699  -9.5951  -9.0847  -8.4055  -8.0307
    -7.6112  -7.6079  -7.5983  -7.5705  -7.4139  -7.3353  -7.3031  -7.2783
    -7.2774  -7.1842  -7.1641  -7.1613  -7.1488  -7.1484  -7.1348  -7.1307
    -7.1297  -7.1289  -7.1262  -7.0284  -7.0282  -6.9892  -6.9876  -6.9630
    -6.9620  -6.9341  -6.9324  -6.9213  -6.9152  -6.9017  -6.8915  -6.8905
    -6.8759  -6.8576  -6.8290  -6.8108  -6.8065  -6.7955  -6.7817  -6.7804
    -6.7492  -6.7464  -6.7363  -6.7353  -6.7201  -6.7194  -6.7136  -6.7072
    -6.7056  -6.6469  -6.6258  -6.6230  -6.5823  -6.5815  -6.5797  -6.5795
    -6.5097  -6.4920  -6.4880  -6.4852  -6.4711  -6.4688  -6.4661  -6.4492
    -6.3849  -6.3228  -6.2755  -6.2602  -6.2584  -6.2567  -6.2543  -6.2138
    -6.2134  -6.1959  -6.1918  -6.1767  -6.1705  -6.1646  -6.1405  -6.1063
    -6.0467  -6.0455  -6.0224  -6.0168  -6.0025  -5.9978  -5.9863  -5.9324
    -5.9145  -5.8972  -5.8241  -5.8091  -5.8071  -5.8040  -5.8033  -5.7900
    -5.7855  -5.7775  -5.7763  -5.7552  -5.7107  -5.6928  -5.6844  -5.6832
    -5.6318  -5.5683  -5.5664  -5.5640  -5.5518  -5.5513  -5.5240  -5.5218
    -5.5033  -5.4971  -5.4969  -5.4860  -5.4821  -5.4774  -5.4739  -5.4694
    -5.4656  -5.4405  -5.4289  -5.4230  -5.3914  -5.3542  -5.3305  -5.2953
    -5.2711  -5.2705  -5.2624  -5.2606  -5.2480  -5.2445  -5.2434  -5.2407
    -5.2253  -5.2244  -5.2099  -5.2097  -5.1937  -5.1910  -5.1739  -5.1698
    -5.1666  -5.1635  -5.1575  -5.1566  -5.1483  -5.1466  -5.1365  -5.1360
    -5.1288  -5.1283  -5.1249  -5.0968  -5.0487  -5.0485  -5.0463  -5.0462
    -5.0053  -4.9851  -4.9842  -4.9842  -4.9823  -4.9640  -4.9558  -4.9550
    -4.9270  -4.8989  -4.8982  -4.8777  -4.8756  -4.8742  -4.8263  -4.7987
    -4.7953  -4.7944  -4.7833  -4.7683  -4.7492  -4.7324  -4.7316  -4.7300
    -4.7190  -4.7173  -4.6907  -4.6839  -4.6690  -4.6690  -4.6087  -4.5795
    -4.5550  -4.5241  -4.4723  -4.4275  -4.3799  -4.3307  -4.2915  -4.1238
    -4.0547

          k = 0.0000 0.3536 0.0000 (200366 PWs)   bands (ev):

   -46.4588 -46.4573 -46.4499 -46.4498 -46.4490 -46.4489 -46.4411 -46.4407
   -46.3516 -46.3506 -46.2763 -46.2752 -46.2113 -46.2094 -46.1529 -46.1499
   -45.8893 -45.8867 -45.8801 -45.8796 -45.8786 -45.8779 -45.8706 -45.8700
   -45.8157 -45.8134 -45.7977 -45.7959 -45.7842 -45.7820 -45.7668 -45.7653
   -45.7069 -45.7043 -45.6970 -45.6954 -45.6953 -45.6937 -45.6858 -45.6850
   -45.6743 -45.6707 -45.6657 -45.6633 -45.6577 -45.6541 -45.6497 -45.6460
   -45.4669 -45.4665 -45.4586 -45.4585 -45.4580 -45.4580 -45.4502 -45.4496
   -45.3510 -45.3470 -45.3305 -45.3136 -45.2869 -45.2655 -45.2575 -45.2250
   -28.7308 -28.4872 -27.2646 -27.0454 -24.8310 -24.7996 -24.7403 -24.7402
   -24.7300 -24.7300 -24.6988 -24.6635 -24.6586 -24.6433 -24.6015 -24.5900
   -24.5863 -24.5638 -24.5489 -24.4890 -24.4806 -24.4665 -24.4290 -24.4271
   -24.3684 -24.3681 -24.3198 -24.2836 -24.2527 -24.2515 -24.2419 -24.2270
   -24.2161 -24.2055 -24.2002 -24.1942 -24.1906 -24.1263 -24.1259 -24.1117
   -24.0871 -24.0640 -24.0640 -24.0410 -24.0359 -24.0312 -24.0252 -24.0148
   -23.9770 -23.9682 -23.9540 -23.9327 -23.5438 -23.5088 -23.4711 -23.4711
   -23.4455 -23.4455 -23.4011 -23.3960 -23.3799 -23.3702 -23.2926 -23.2547
   -23.2524 -23.1649 -23.1608 -23.0667 -17.9541 -16.3596 -14.1365 -12.8402
   -11.1708 -11.1153 -10.7138 -10.5699  -9.5951  -9.0846  -8.4065  -8.0316
    -7.5985  -7.5622  -7.5164  -7.5046  -7.4133  -7.2902  -7.2707  -7.2672
    -7.2618  -7.1846  -7.1613  -7.1561  -7.1528  -7.1295  -7.1293  -7.1290
    -7.1195  -7.1190  -7.1076  -7.0936  -7.0568  -7.0558  -7.0156  -6.9796
    -6.9637  -6.9622  -6.9580  -6.9561  -6.9506  -6.9462  -6.9150  -6.9065
    -6.9042  -6.9025  -6.8992  -6.8941  -6.8825  -6.8502  -6.8153  -6.8111
    -6.7826  -6.7812  -6.7537  -6.7271  -6.7166  -6.7128  -6.7079  -6.6939
    -6.6922  -6.6474  -6.6020  -6.5907  -6.5896  -6.5800  -6.5739  -6.5709
    -6.5305  -6.5119  -6.5115  -6.4896  -6.4854  -6.4554  -6.4298  -6.4252
    -6.4251  -6.3810  -6.2863  -6.2847  -6.2731  -6.2726  -6.2399  -6.1762
    -6.1641  -6.1341  -6.1266  -6.1060  -6.0585  -6.0580  -6.0281  -6.0266
    -6.0256  -6.0162  -5.9887  -5.9696  -5.9472  -5.9239  -5.9217  -5.9112
    -5.8695  -5.8643  -5.8436  -5.8288  -5.8285  -5.8079  -5.7860  -5.7798
    -5.7686  -5.7451  -5.7428  -5.7369  -5.6649  -5.6635  -5.6626  -5.6563
    -5.6433  -5.5760  -5.5758  -5.5602  -5.5551  -5.5491  -5.5466  -5.5429
    -5.5409  -5.5299  -5.5258  -5.4979  -5.4943  -5.4817  -5.4728  -5.4717
    -5.4583  -5.4476  -5.4457  -5.4413  -5.4343  -5.4305  -5.4235  -5.4040
    -5.3707  -5.3699  -5.3374  -5.2874  -5.2743  -5.2688  -5.2442  -5.2369
    -5.2343  -5.2278  -5.2222  -5.2215  -5.1956  -5.1870  -5.1819  -5.1777
    -5.1713  -5.1692  -5.1665  -5.1606  -5.1288  -5.1221  -5.1149  -5.0974
    -5.0866  -5.0850  -5.0847  -5.0655  -5.0616  -5.0603  -5.0481  -5.0461
    -5.0362  -5.0247  -4.9929  -4.9670  -4.9566  -4.9558  -4.9555  -4.9350
    -4.9301  -4.9046  -4.8967  -4.8936  -4.8907  -4.8621  -4.8382  -4.8185
    -4.8022  -4.7996  -4.7873  -4.7616  -4.7546  -4.7286  -4.7260  -4.7253
    -4.7096  -4.7030  -4.6897  -4.6812  -4.6807  -4.6762  -4.6133  -4.5763
    -4.5502  -4.5267  -4.4751  -4.4360  -4.3829  -4.3247  -4.2971  -4.1212
    -4.0571

          k = 0.0000-0.7071 0.0000 (200506 PWs)   bands (ev):

   -46.4582 -46.4581 -46.4495 -46.4495 -46.4495 -46.4494 -46.4410 -46.4409
   -46.3512 -46.3511 -46.2761 -46.2755 -46.2112 -46.2095 -46.1528 -46.1501
   -45.8882 -45.8880 -45.8795 -45.8793 -45.8790 -45.8786 -45.8705 -45.8702
   -45.8146 -45.8146 -45.7969 -45.7968 -45.7832 -45.7831 -45.7661 -45.7661
   -45.7058 -45.7057 -45.6963 -45.6962 -45.6946 -45.6946 -45.6855 -45.6855
   -45.6730 -45.6718 -45.6654 -45.6635 -45.6574 -45.6544 -45.6498 -45.6460
   -45.4668 -45.4668 -45.4583 -45.4583 -45.4583 -45.4583 -45.4500 -45.4500
   -45.3511 -45.3471 -45.3306 -45.3137 -45.2869 -45.2655 -45.2576 -45.2250
   -28.7308 -28.4872 -27.2646 -27.0455 -24.8156 -24.8155 -24.7352 -24.7352
   -24.7351 -24.7351 -24.6812 -24.6808 -24.6510 -24.6509 -24.5958 -24.5953
   -24.5750 -24.5743 -24.5216 -24.5211 -24.4848 -24.4847 -24.4078 -24.4073
   -24.4071 -24.4065 -24.2939 -24.2932 -24.2354 -24.2344 -24.2178 -24.2175
   -24.2124 -24.2119 -24.2045 -24.2043 -24.1401 -24.1400 -24.0979 -24.0977
   -24.0977 -24.0973 -24.0630 -24.0595 -24.0331 -24.0331 -24.0073 -24.0030
   -24.0026 -23.9951 -23.9484 -23.9396 -23.5264 -23.5264 -23.4583 -23.4583
   -23.4583 -23.4583 -23.3891 -23.3880 -23.3880 -23.3822 -23.2882 -23.2593
   -23.2504 -23.1669 -23.1600 -23.0678 -17.9542 -16.3597 -14.1365 -12.8400
   -11.1710 -11.1153 -10.7141 -10.5700  -9.5952  -9.0844  -8.4073  -8.0323
    -7.5985  -7.4605  -7.4603  -7.3698  -7.3684  -7.2478  -7.2467  -7.2280
    -7.2277  -7.2271  -7.2266  -7.1849  -7.1610  -7.1191  -7.1179  -7.0980
    -7.0977  -7.0977  -7.0968  -7.0650  -7.0650  -7.0633  -7.0632  -7.0526
    -7.0520  -7.0505  -7.0497  -7.0310  -7.0286  -6.9775  -6.9726  -6.9232
    -6.9228  -6.9225  -6.9215  -6.9069  -6.8530  -6.8510  -6.8500  -6.8485
    -6.8082  -6.8063  -6.8023  -6.8006  -6.7522  -6.7506  -6.7081  -6.6602
    -6.6602  -6.6484  -6.6189  -6.6173  -6.6146  -6.6140  -6.5428  -6.5401
    -6.5397  -6.5380  -6.5117  -6.5034  -6.4530  -6.3714  -6.3711  -6.3698
    -6.3697  -6.3155  -6.3144  -6.3143  -6.3121  -6.2724  -6.2719  -6.0717
    -6.0713  -6.0261  -6.0259  -6.0178  -5.9993  -5.9992  -5.9989  -5.9977
    -5.9662  -5.9639  -5.9395  -5.9390  -5.9272  -5.9267  -5.9257  -5.9247
    -5.9179  -5.9142  -5.8610  -5.8608  -5.7701  -5.7689  -5.7472  -5.7472
    -5.7458  -5.7445  -5.7149  -5.7131  -5.6544  -5.6536  -5.6366  -5.6358
    -5.6236  -5.6225  -5.5812  -5.5809  -5.5807  -5.5800  -5.5799  -5.5788
    -5.5178  -5.5157  -5.5147  -5.5122  -5.4950  -5.4946  -5.4853  -5.4850
    -5.4843  -5.4812  -5.4510  -5.4455  -5.4389  -5.4361  -5.3821  -5.3818
    -5.3806  -5.3804  -5.3614  -5.3606  -5.3591  -5.3571  -5.2701  -5.2686
    -5.2573  -5.2568  -5.2496  -5.2493  -5.2450  -5.2427  -5.1893  -5.1820
    -5.1557  -5.1550  -5.1549  -5.1520  -5.1368  -5.1330  -5.1249  -5.1243
    -5.1240  -5.1232  -5.1177  -5.0604  -5.0595  -5.0545  -5.0537  -5.0158
    -5.0144  -4.9850  -4.9799  -4.9642  -4.9637  -4.9353  -4.9251  -4.9155
    -4.9051  -4.9043  -4.9042  -4.9010  -4.8730  -4.8689  -4.8677  -4.8312
    -4.8158  -4.8112  -4.8044  -4.7410  -4.7375  -4.7324  -4.7223  -4.7030
    -4.7028  -4.7002  -4.6953  -4.6918  -4.6904  -4.6625  -4.6237  -4.5721
    -4.5496  -4.5323  -4.4771  -4.4461  -4.3858  -4.3114  -4.3114  -4.1191
    -4.0603

          k = 0.2500 0.0000 0.0000 (200254 PWs)   bands (ev):

   -46.4583 -46.4563 -46.4534 -46.4520 -46.4466 -46.4456 -46.4419 -46.4410
   -46.3517 -46.3503 -46.2764 -46.2750 -46.2114 -46.2092 -46.1529 -46.1498
   -45.8892 -45.8855 -45.8835 -45.8808 -45.8767 -45.8751 -45.8714 -45.8702
   -45.8161 -45.8128 -45.7981 -45.7956 -45.7844 -45.7815 -45.7671 -45.7649
   -45.7070 -45.7032 -45.6994 -45.6968 -45.6933 -45.6916 -45.6865 -45.6851
   -45.6749 -45.6701 -45.6663 -45.6632 -45.6577 -45.6538 -45.6497 -45.6460
   -45.4664 -45.4657 -45.4617 -45.4612 -45.4554 -45.4547 -45.4510 -45.4500
   -45.3510 -45.3470 -45.3305 -45.3136 -45.2868 -45.2654 -45.2575 -45.2249
   -28.7308 -28.4872 -27.2646 -27.0454 -24.8302 -24.7880 -24.7794 -24.7528
   -24.7043 -24.7026 -24.7010 -24.6668 -24.6544 -24.6482 -24.6315 -24.5971
   -24.5650 -24.5503 -24.5461 -24.4927 -24.4922 -24.4761 -24.3964 -24.3781
   -24.3686 -24.3543 -24.3261 -24.2947 -24.2734 -24.2688 -24.2631 -24.2515
   -24.2255 -24.2222 -24.2144 -24.1723 -24.1677 -24.1608 -24.1305 -24.1002
   -24.0784 -24.0656 -24.0534 -24.0511 -24.0475 -24.0279 -24.0163 -23.9962
   -23.9701 -23.9630 -23.9517 -23.9279 -23.5454 -23.5052 -23.4968 -23.4638
   -23.4472 -23.4160 -23.4066 -23.4053 -23.3815 -23.3635 -23.3015 -23.2535
   -23.2472 -23.1638 -23.1608 -23.0661 -17.9541 -16.3596 -14.1365 -12.8404
   -11.1706 -11.1154 -10.7136 -10.5700  -9.5952  -9.0847  -8.4056  -8.0307
    -7.5985  -7.5799  -7.5704  -7.5255  -7.3721  -7.3438  -7.3120  -7.3066
    -7.2643  -7.2389  -7.2382  -7.2124  -7.1844  -7.1599  -7.1530  -7.1222
    -7.0932  -7.0907  -7.0854  -7.0798  -7.0748  -7.0274  -6.9769  -6.9634
    -6.9596  -6.9583  -6.9189  -6.9128  -6.8990  -6.8931  -6.8926  -6.8924
    -6.8639  -6.8456  -6.8378  -6.8165  -6.8098  -6.8085  -6.7986  -6.7733
    -6.7713  -6.7569  -6.7419  -6.7231  -6.7226  -6.7203  -6.7178  -6.7059
    -6.6831  -6.6688  -6.6466  -6.6117  -6.6077  -6.5779  -6.5414  -6.5097
    -6.5046  -6.4892  -6.4666  -6.4509  -6.4424  -6.4344  -6.4280  -6.4279
    -6.4264  -6.3384  -6.3184  -6.2989  -6.2898  -6.2776  -6.2728  -6.2435
    -6.2426  -6.2360  -6.1549  -6.1383  -6.1229  -6.1200  -6.0970  -6.0796
    -6.0658  -6.0553  -6.0363  -6.0170  -5.9806  -5.9743  -5.9624  -5.9591
    -5.9490  -5.9264  -5.9247  -5.8584  -5.8549  -5.8400  -5.8084  -5.7780
    -5.7626  -5.7184  -5.7063  -5.6733  -5.6728  -5.6706  -5.6638  -5.6576
    -5.6480  -5.6454  -5.6194  -5.5879  -5.5731  -5.5586  -5.5518  -5.5252
    -5.5231  -5.5078  -5.4852  -5.4840  -5.4416  -5.4276  -5.4189  -5.4105
    -5.4017  -5.3946  -5.3940  -5.3765  -5.3701  -5.3603  -5.3581  -5.3399
    -5.3257  -5.3003  -5.2702  -5.2547  -5.2531  -5.2460  -5.2453  -5.2425
    -5.2346  -5.2300  -5.2033  -5.2003  -5.1983  -5.1961  -5.1947  -5.1847
    -5.1719  -5.1681  -5.1555  -5.1548  -5.1497  -5.1399  -5.1366  -5.1248
    -5.1167  -5.1041  -5.0960  -5.0848  -5.0760  -5.0714  -5.0559  -5.0530
    -5.0397  -5.0224  -5.0056  -4.9974  -4.9899  -4.9833  -4.9518  -4.9497
    -4.9476  -4.9353  -4.9008  -4.8798  -4.8766  -4.8464  -4.8390  -4.8264
    -4.8250  -4.8181  -4.7888  -4.7759  -4.7348  -4.7291  -4.7145  -4.7101
    -4.6941  -4.6917  -4.6811  -4.6722  -4.6364  -4.6063  -4.5801  -4.5661
    -4.5132  -4.4987  -4.4604  -4.4161  -4.3754  -4.3615  -4.3467  -4.1697
    -4.1035

          k = 0.2500 0.3536 0.0000 (200411 PWs)   bands (ev):

   -46.4581 -46.4568 -46.4532 -46.4522 -46.4465 -46.4458 -46.4418 -46.4413
   -46.3515 -46.3506 -46.2763 -46.2752 -46.2113 -46.2094 -46.1529 -46.1500
   -45.8887 -45.8863 -45.8831 -45.8812 -45.8766 -45.8754 -45.8712 -45.8704
   -45.8156 -45.8134 -45.7978 -45.7960 -45.7840 -45.7820 -45.7668 -45.7653
   -45.7065 -45.7041 -45.6991 -45.6973 -45.6931 -45.6919 -45.6863 -45.6854
   -45.6743 -45.6707 -45.6660 -45.6634 -45.6575 -45.6540 -45.6498 -45.6460
   -45.4663 -45.4660 -45.4616 -45.4613 -45.4554 -45.4548 -45.4509 -45.4502
   -45.3510 -45.3470 -45.3305 -45.3136 -45.2869 -45.2655 -45.2575 -45.2250
   -28.7308 -28.4872 -27.2646 -27.0455 -24.8242 -24.7944 -24.7756 -24.7568
   -24.7040 -24.7029 -24.6942 -24.6641 -24.6610 -24.6509 -24.6261 -24.6015
   -24.5617 -24.5521 -24.5398 -24.4917 -24.4892 -24.4733 -24.4595 -24.4068
   -24.3731 -24.3272 -24.3142 -24.2768 -24.2753 -24.2632 -24.2574 -24.2310
   -24.2264 -24.2137 -24.1949 -24.1787 -24.1679 -24.1555 -24.1078 -24.0946
   -24.0847 -24.0705 -24.0605 -24.0570 -24.0478 -24.0314 -24.0139 -24.0062
   -23.9842 -23.9610 -23.9587 -23.9334 -23.5384 -23.5040 -23.4992 -23.4699
   -23.4426 -23.4207 -23.4018 -23.4005 -23.3850 -23.3696 -23.2979 -23.2564
   -23.2462 -23.1638 -23.1618 -23.0672 -17.9541 -16.3597 -14.1365 -12.8402
   -11.1709 -11.1154 -10.7138 -10.5700  -9.5952  -9.0845  -8.4066  -8.0316
    -7.5984  -7.5250  -7.4773  -7.4750  -7.3713  -7.2775  -7.2761  -7.2536
    -7.2429  -7.2295  -7.2199  -7.1848  -7.1740  -7.1589  -7.1469  -7.1268
    -7.1071  -7.0908  -7.0821  -7.0802  -7.0644  -7.0524  -7.0284  -7.0202
    -6.9917  -6.9914  -6.9825  -6.9792  -6.9609  -6.9589  -6.9423  -6.9313
    -6.9123  -6.8944  -6.8843  -6.8721  -6.8601  -6.8511  -6.8433  -6.8395
    -6.8355  -6.8084  -6.7495  -6.7120  -6.7095  -6.7086  -6.7057  -6.7039
    -6.7006  -6.6475  -6.6264  -6.6007  -6.5908  -6.5759  -6.5577  -6.5369
    -6.5361  -6.4694  -6.4630  -6.4552  -6.4520  -6.4392  -6.4271  -6.3913
    -6.3857  -6.3707  -6.2827  -6.2502  -6.2445  -6.2389  -6.1911  -6.1804
    -6.1693  -6.1597  -6.1345  -6.1100  -6.0819  -6.0766  -6.0357  -6.0301
    -6.0175  -6.0005  -5.9886  -5.9779  -5.9761  -5.9624  -5.9568  -5.9515
    -5.9045  -5.8995  -5.8793  -5.8746  -5.8627  -5.8183  -5.7598  -5.7548
    -5.7535  -5.7410  -5.7238  -5.7134  -5.6615  -5.6531  -5.6519  -5.6514
    -5.6498  -5.6439  -5.6061  -5.5797  -5.5745  -5.5675  -5.5616  -5.4891
    -5.4786  -5.4761  -5.4727  -5.4693  -5.4677  -5.4629  -5.4532  -5.4447
    -5.4371  -5.4284  -5.4266  -5.4224  -5.4142  -5.3970  -5.3910  -5.3755
    -5.3372  -5.3366  -5.3112  -5.3049  -5.2888  -5.2856  -5.2710  -5.2684
    -5.2634  -5.2594  -5.2481  -5.2276  -5.2166  -5.2117  -5.2090  -5.1960
    -5.1794  -5.1746  -5.1558  -5.1378  -5.1274  -5.1145  -5.1051  -5.1041
    -5.0996  -5.0965  -5.0937  -5.0885  -5.0821  -5.0480  -5.0415  -5.0346
    -5.0337  -5.0286  -5.0267  -5.0160  -4.9960  -4.9792  -4.9695  -4.9546
    -4.9288  -4.9229  -4.9081  -4.8934  -4.8677  -4.8503  -4.8398  -4.8352
    -4.8143  -4.8082  -4.7942  -4.7774  -4.7480  -4.7263  -4.7090  -4.7071
    -4.7005  -4.6934  -4.6827  -4.6646  -4.6335  -4.6154  -4.5819  -4.5642
    -4.5081  -4.4982  -4.4571  -4.4198  -4.3718  -4.3674  -4.3503  -4.1687
    -4.1047

          k = 0.2500-0.7071 0.0000 (200442 PWs)   bands (ev):

   -46.4575 -46.4574 -46.4527 -46.4527 -46.4461 -46.4461 -46.4416 -46.4416
   -46.3511 -46.3511 -46.2761 -46.2755 -46.2112 -46.2095 -46.1528 -46.1500
   -45.8876 -45.8874 -45.8824 -45.8820 -45.8761 -45.8758 -45.8710 -45.8707
   -45.8146 -45.8145 -45.7970 -45.7969 -45.7831 -45.7830 -45.7661 -45.7661
   -45.7055 -45.7053 -45.6983 -45.6982 -45.6925 -45.6925 -45.6859 -45.6858
   -45.6729 -45.6718 -45.6656 -45.6636 -45.6572 -45.6543 -45.6498 -45.6461
   -45.4662 -45.4662 -45.4615 -45.4615 -45.4551 -45.4551 -45.4506 -45.4506
   -45.3510 -45.3471 -45.3305 -45.3137 -45.2869 -45.2655 -45.2575 -45.2250
   -28.7308 -28.4872 -27.2646 -27.0455 -24.8096 -24.8095 -24.7664 -24.7663
   -24.7035 -24.7034 -24.6777 -24.6774 -24.6576 -24.6575 -24.6138 -24.6130
   -24.5564 -24.5560 -24.5138 -24.5133 -24.4890 -24.4888 -24.4525 -24.4520
   -24.3571 -24.3565 -24.2873 -24.2867 -24.2624 -24.2617 -24.2408 -24.2402
   -24.1964 -24.1960 -24.1897 -24.1895 -24.1369 -24.1368 -24.1142 -24.1140
   -24.0783 -24.0780 -24.0600 -24.0569 -24.0397 -24.0396 -24.0239 -24.0176
   -23.9858 -23.9803 -23.9511 -23.9421 -23.5213 -23.5213 -23.4847 -23.4846
   -23.4317 -23.4317 -23.3934 -23.3934 -23.3888 -23.3813 -23.2936 -23.2605
   -23.2447 -23.1654 -23.1612 -23.0684 -17.9542 -16.3597 -14.1365 -12.8400
   -11.1709 -11.1153 -10.7139 -10.5699  -9.5950  -9.0844  -8.4073  -8.0323
    -7.5983  -7.4200  -7.4198  -7.3339  -7.3327  -7.2208  -7.2201  -7.2099
    -7.2095  -7.1872  -7.1857  -7.1849  -7.1832  -7.1825  -7.1597  -7.1056
    -7.1055  -7.1011  -7.1007  -7.0955  -7.0953  -7.0784  -7.0776  -7.0538
    -7.0537  -7.0488  -7.0485  -7.0292  -7.0286  -6.9683  -6.9652  -6.9490
    -6.9483  -6.9399  -6.9394  -6.9357  -6.9353  -6.9247  -6.9207  -6.9040
    -6.8756  -6.8725  -6.7774  -6.7773  -6.7436  -6.7415  -6.7071  -6.6542
    -6.6532  -6.6490  -6.6490  -6.6474  -6.5581  -6.5573  -6.5087  -6.5037
    -6.4840  -6.4825  -6.4555  -6.4540  -6.4514  -6.4069  -6.4040  -6.3581
    -6.3573  -6.2801  -6.2797  -6.2556  -6.2554  -6.1879  -6.1877  -6.1682
    -6.1664  -6.0592  -6.0585  -6.0196  -6.0117  -6.0088  -6.0039  -6.0033
    -5.9988  -5.9982  -5.9583  -5.9569  -5.9458  -5.9452  -5.8793  -5.8784
    -5.8698  -5.8694  -5.8441  -5.8420  -5.8094  -5.8085  -5.7680  -5.7675
    -5.7493  -5.7465  -5.6891  -5.6891  -5.6810  -5.6802  -5.6765  -5.6760
    -5.6319  -5.6313  -5.6116  -5.6110  -5.6080  -5.6060  -5.5982  -5.5947
    -5.5192  -5.5188  -5.5045  -5.5041  -5.4643  -5.4636  -5.4580  -5.4548
    -5.4205  -5.4176  -5.4052  -5.4028  -5.4022  -5.4006  -5.3749  -5.3738
    -5.3497  -5.3491  -5.3372  -5.3356  -5.3218  -5.3188  -5.3105  -5.3068
    -5.2877  -5.2861  -5.2623  -5.2606  -5.2005  -5.2003  -5.1882  -5.1874
    -5.1798  -5.1798  -5.1655  -5.1640  -5.1625  -5.1607  -5.1498  -5.1485
    -5.1303  -5.1214  -5.1043  -5.0618  -5.0616  -5.0305  -5.0258  -5.0151
    -5.0148  -5.0116  -5.0112  -4.9949  -4.9930  -4.9768  -4.9724  -4.9510
    -4.9447  -4.9271  -4.9256  -4.8843  -4.8708  -4.8388  -4.8301  -4.8180
    -4.8120  -4.8097  -4.8045  -4.7948  -4.7593  -4.7201  -4.7196  -4.7004
    -4.6989  -4.6906  -4.6895  -4.6401  -4.6397  -4.6307  -4.5840  -4.5634
    -4.5023  -4.4982  -4.4480  -4.4269  -4.3737  -4.3608  -4.3608  -4.1671
    -4.1060

          k =-0.5000 0.0000 0.0000 (200370 PWs)   bands (ev):

   -46.4567 -46.4560 -46.4550 -46.4543 -46.4441 -46.4435 -46.4432 -46.4426
   -46.3517 -46.3504 -46.2764 -46.2750 -46.2114 -46.2092 -46.1529 -46.1499
   -45.8881 -45.8855 -45.8849 -45.8824 -45.8748 -45.8736 -45.8723 -45.8710
   -45.8160 -45.8129 -45.7983 -45.7957 -45.7843 -45.7815 -45.7671 -45.7650
   -45.7065 -45.7030 -45.7008 -45.6979 -45.6918 -45.6905 -45.6871 -45.6855
   -45.6749 -45.6702 -45.6666 -45.6633 -45.6575 -45.6537 -45.6498 -45.6460
   -45.4650 -45.4645 -45.4640 -45.4635 -45.4533 -45.4524 -45.4522 -45.4514
   -45.3510 -45.3470 -45.3305 -45.3136 -45.2869 -45.2655 -45.2575 -45.2250
   -28.7308 -28.4872 -27.2646 -27.0455 -24.8108 -24.8093 -24.7745 -24.7733
   -24.6942 -24.6818 -24.6805 -24.6715 -24.6704 -24.6520 -24.6485 -24.6043
   -24.5446 -24.5429 -24.5330 -24.5168 -24.4952 -24.4892 -24.3825 -24.3766
   -24.3574 -24.3455 -24.3205 -24.3179 -24.2720 -24.2658 -24.2584 -24.2490
   -24.2468 -24.2371 -24.1974 -24.1943 -24.1566 -24.1515 -24.1218 -24.0961
   -24.0727 -24.0691 -24.0615 -24.0578 -24.0404 -24.0397 -23.9980 -23.9953
   -23.9728 -23.9727 -23.9488 -23.9279 -23.5297 -23.5291 -23.4840 -23.4833
   -23.4225 -23.4218 -23.4059 -23.3957 -23.3951 -23.3629 -23.3061 -23.2544
   -23.2425 -23.1649 -23.1598 -23.0666 -17.9541 -16.3596 -14.1365 -12.8405
   -11.1707 -11.1156 -10.7137 -10.5701  -9.5951  -9.0847  -8.4056  -8.0309
    -7.5983  -7.4944  -7.4835  -7.4702  -7.4644  -7.4081  -7.3953  -7.2498
    -7.2482  -7.2400  -7.2117  -7.1851  -7.1642  -7.1545  -7.1541  -7.1385
    -7.1254  -7.1214  -7.1178  -7.1129  -7.0991  -7.0928  -7.0752  -6.9862
    -6.9733  -6.9728  -6.9610  -6.9128  -6.8462  -6.8428  -6.8412  -6.8348
    -6.8298  -6.8265  -6.8241  -6.8190  -6.8161  -6.8123  -6.8075  -6.8021
    -6.7921  -6.7626  -6.7349  -6.7334  -6.7293  -6.7090  -6.7062  -6.6685
    -6.6676  -6.6469  -6.6452  -6.6347  -6.5845  -6.5663  -6.5592  -6.5415
    -6.5250  -6.5115  -6.5112  -6.4990  -6.4876  -6.4627  -6.4490  -6.3333
    -6.3210  -6.3170  -6.3128  -6.2793  -6.2649  -6.2539  -6.2530  -6.2378
    -6.2375  -6.2083  -6.1863  -6.1237  -6.1225  -6.1036  -6.0847  -6.0838
    -6.0633  -6.0585  -6.0528  -6.0344  -6.0228  -6.0182  -6.0061  -5.9774
    -5.9734  -5.9282  -5.8953  -5.8913  -5.8889  -5.8880  -5.7934  -5.7768
    -5.7197  -5.7191  -5.6896  -5.6885  -5.6390  -5.6348  -5.6300  -5.6258
    -5.6088  -5.5992  -5.5991  -5.5974  -5.5751  -5.5615  -5.5305  -5.5222
    -5.5096  -5.5029  -5.5020  -5.5010  -5.4998  -5.4901  -5.4524  -5.4462
    -5.3413  -5.3372  -5.3363  -5.3309  -5.3283  -5.3260  -5.3252  -5.3231
    -5.3171  -5.3143  -5.3142  -5.3135  -5.2993  -5.2989  -5.2882  -5.2830
    -5.2270  -5.2194  -5.2173  -5.2146  -5.1838  -5.1814  -5.1803  -5.1638
    -5.1581  -5.1506  -5.1434  -5.1402  -5.1340  -5.1298  -5.1205  -5.0935
    -5.0926  -5.0862  -5.0849  -5.0835  -5.0802  -5.0781  -5.0713  -5.0492
    -5.0374  -5.0323  -5.0305  -5.0289  -5.0241  -5.0166  -4.9996  -4.9928
    -4.9822  -4.9585  -4.9485  -4.8816  -4.8798  -4.8692  -4.8413  -4.8341
    -4.8253  -4.7879  -4.7871  -4.7849  -4.7375  -4.7175  -4.7055  -4.7024
    -4.7002  -4.6998  -4.6685  -4.6284  -4.5726  -4.5595  -4.4960  -4.4945
    -4.4928  -4.4886  -4.4882  -4.4776  -4.4082  -4.3383  -4.3001  -4.2668
    -4.1880

          k =-0.5000 0.3536 0.0000 (200424 PWs)   bands (ev):

   -46.4564 -46.4558 -46.4553 -46.4546 -46.4440 -46.4434 -46.4433 -46.4428
   -46.3515 -46.3506 -46.2763 -46.2752 -46.2113 -46.2094 -46.1529 -46.1500
   -45.8877 -45.8854 -45.8851 -45.8829 -45.8747 -45.8738 -45.8722 -45.8713
   -45.8156 -45.8134 -45.7979 -45.7961 -45.7839 -45.7820 -45.7668 -45.7654
   -45.7061 -45.7036 -45.7004 -45.6984 -45.6917 -45.6908 -45.6869 -45.6858
   -45.6741 -45.6707 -45.6662 -45.6635 -45.6573 -45.6539 -45.6499 -45.6461
   -45.4650 -45.4646 -45.4639 -45.4635 -45.4532 -45.4526 -45.4521 -45.4516
   -45.3510 -45.3470 -45.3306 -45.3137 -45.2869 -45.2655 -45.2575 -45.2250
   -28.7308 -28.4872 -27.2646 -27.0455 -24.8057 -24.8042 -24.7800 -24.7788
   -24.6882 -24.6803 -24.6791 -24.6730 -24.6718 -24.6582 -24.6417 -24.6101
   -24.5436 -24.5431 -24.5249 -24.5104 -24.4949 -24.4896 -24.4431 -24.4341
   -24.3175 -24.3152 -24.3032 -24.2937 -24.2883 -24.2876 -24.2619 -24.2505
   -24.2208 -24.2145 -24.1811 -24.1777 -24.1648 -24.1596 -24.1005 -24.0800
   -24.0765 -24.0756 -24.0685 -24.0654 -24.0457 -24.0448 -24.0126 -23.9909
   -23.9884 -23.9665 -23.9563 -23.9342 -23.5231 -23.5225 -23.4908 -23.4901
   -23.4186 -23.4179 -23.3999 -23.3997 -23.3990 -23.3689 -23.3024 -23.2576
   -23.2413 -23.1639 -23.1616 -23.0678 -17.9541 -16.3597 -14.1365 -12.8402
   -11.1709 -11.1154 -10.7138 -10.5700  -9.5950  -9.0845  -8.4066  -8.0317
    -7.5982  -7.4250  -7.4196  -7.4039  -7.3939  -7.3623  -7.3492  -7.2566
    -7.2554  -7.1851  -7.1815  -7.1634  -7.1552  -7.1519  -7.1482  -7.1462
    -7.1248  -7.1169  -7.1123  -7.1046  -7.0974  -7.0481  -7.0367  -7.0358
    -7.0244  -7.0149  -7.0057  -6.9665  -6.9664  -6.9607  -6.9561  -6.9350
    -6.9262  -6.9154  -6.8856  -6.8851  -6.8726  -6.8639  -6.8518  -6.8504
    -6.8447  -6.8365  -6.7503  -6.7121  -6.7051  -6.6931  -6.6867  -6.6824
    -6.6793  -6.6540  -6.6475  -6.6273  -6.5910  -6.5800  -6.5770  -6.5575
    -6.4798  -6.4594  -6.4543  -6.4354  -6.4150  -6.4099  -6.4051  -6.3565
    -6.3484  -6.2992  -6.2888  -6.2424  -6.2391  -6.2140  -6.2129  -6.1498
    -6.1474  -6.1293  -6.1105  -6.1038  -6.1030  -6.0608  -6.0422  -6.0265
    -6.0254  -6.0178  -6.0029  -5.9959  -5.9923  -5.9891  -5.9838  -5.9576
    -5.9281  -5.9238  -5.9235  -5.9201  -5.9198  -5.8900  -5.7576  -5.7487
    -5.7108  -5.7093  -5.7070  -5.7048  -5.6972  -5.6967  -5.6536  -5.6448
    -5.6270  -5.6268  -5.6223  -5.6170  -5.5508  -5.5486  -5.5388  -5.5345
    -5.4621  -5.4547  -5.4525  -5.4493  -5.4410  -5.4324  -5.4127  -5.4075
    -5.4032  -5.4031  -5.3667  -5.3640  -5.3613  -5.3581  -5.3553  -5.3498
    -5.3459  -5.3441  -5.3220  -5.3172  -5.2879  -5.2846  -5.2832  -5.2727
    -5.2704  -5.2677  -5.2605  -5.2574  -5.2355  -5.2307  -5.2171  -5.2139
    -5.2110  -5.2074  -5.1572  -5.1481  -5.1348  -5.1341  -5.1287  -5.1271
    -5.1212  -5.0934  -5.0813  -5.0693  -5.0674  -5.0571  -5.0484  -5.0445
    -5.0382  -5.0259  -5.0257  -5.0223  -5.0031  -4.9965  -4.9920  -4.9848
    -4.9684  -4.9535  -4.9436  -4.9075  -4.8676  -4.8641  -4.8411  -4.8217
    -4.8117  -4.7898  -4.7884  -4.7808  -4.7477  -4.7154  -4.7094  -4.7079
    -4.7057  -4.6977  -4.6735  -4.6248  -4.5753  -4.5595  -4.4941  -4.4933
    -4.4916  -4.4890  -4.4886  -4.4774  -4.4070  -4.3372  -4.3023  -4.2664
    -4.1876

          k =-0.5000-0.7071 0.0000 (200236 PWs)   bands (ev):

   -46.4559 -46.4559 -46.4552 -46.4552 -46.4436 -46.4436 -46.4429 -46.4429
   -46.3511 -46.3510 -46.2760 -46.2754 -46.2111 -46.2094 -46.1527 -46.1500
   -45.8867 -45.8865 -45.8842 -45.8839 -45.8742 -45.8740 -45.8718 -45.8714
   -45.8145 -45.8145 -45.7970 -45.7969 -45.7830 -45.7828 -45.7660 -45.7660
   -45.7050 -45.7049 -45.6996 -45.6995 -45.6911 -45.6911 -45.6862 -45.6862
   -45.6728 -45.6716 -45.6656 -45.6637 -45.6569 -45.6540 -45.6497 -45.6459
   -45.4648 -45.4648 -45.4637 -45.4637 -45.4528 -45.4528 -45.4517 -45.4517
   -45.3510 -45.3470 -45.3305 -45.3136 -45.2868 -45.2654 -45.2575 -45.2249
   -28.7308 -28.4872 -27.2646 -27.0454 -24.7931 -24.7930 -24.7918 -24.7916
   -24.6767 -24.6766 -24.6755 -24.6754 -24.6733 -24.6731 -24.6259 -24.6249
   -24.5433 -24.5430 -24.4995 -24.4991 -24.4916 -24.4914 -24.4826 -24.4820
   -24.3079 -24.3070 -24.3062 -24.3058 -24.2732 -24.2728 -24.2628 -24.2619
   -24.1881 -24.1877 -24.1826 -24.1824 -24.1293 -24.1292 -24.1260 -24.1257
   -24.0584 -24.0580 -24.0572 -24.0568 -24.0540 -24.0521 -24.0338 -24.0265
   -23.9757 -23.9712 -23.9552 -23.9455 -23.5070 -23.5070 -23.5064 -23.5064
   -23.4091 -23.4091 -23.4085 -23.4085 -23.3886 -23.3803 -23.2981 -23.2616
   -23.2398 -23.1640 -23.1625 -23.0689 -17.9541 -16.3596 -14.1364 -12.8399
   -11.1708 -11.1152 -10.7138 -10.5698  -9.5948  -9.0842  -8.4071  -8.0322
    -7.5980  -7.3125  -7.3122  -7.3091  -7.3088  -7.2409  -7.2405  -7.2280
    -7.2268  -7.1850  -7.1649  -7.1643  -7.1608  -7.1587  -7.1581  -7.1294
    -7.1287  -7.1281  -7.1271  -7.1006  -7.0998  -7.0740  -7.0739  -7.0671
    -7.0663  -7.0539  -7.0526  -7.0379  -7.0369  -7.0247  -7.0229  -7.0139
    -7.0138  -7.0089  -7.0085  -6.9435  -6.9421  -6.9257  -6.9041  -6.8879
    -6.7825  -6.7824  -6.7763  -6.7759  -6.7673  -6.7664  -6.7419  -6.7396
    -6.7068  -6.6478  -6.6307  -6.6303  -6.6295  -6.6291  -6.4953  -6.4926
    -6.4581  -6.4568  -6.4443  -6.3382  -6.3379  -6.3370  -6.3366  -6.3095
    -6.3093  -6.2885  -6.2880  -6.1860  -6.1860  -6.1822  -6.1812  -6.0963
    -6.0953  -6.0947  -6.0940  -6.0551  -6.0537  -6.0523  -6.0517  -6.0172
    -6.0123  -6.0092  -5.9971  -5.9956  -5.9861  -5.9858  -5.9781  -5.9758
    -5.8453  -5.8449  -5.8334  -5.8318  -5.7378  -5.7376  -5.7352  -5.7346
    -5.7337  -5.7336  -5.7322  -5.7292  -5.6712  -5.6705  -5.6666  -5.6613
    -5.6605  -5.6601  -5.6567  -5.6565  -5.6414  -5.6405  -5.6268  -5.6256
    -5.4525  -5.4521  -5.4517  -5.4511  -5.4445  -5.4443  -5.4438  -5.4434
    -5.4179  -5.4171  -5.4161  -5.4129  -5.3832  -5.3827  -5.3679  -5.3676
    -5.3578  -5.3525  -5.3486  -5.3388  -5.2673  -5.2669  -5.2645  -5.2637
    -5.2515  -5.2512  -5.2450  -5.2433  -5.2238  -5.2232  -5.2198  -5.2177
    -5.2051  -5.2050  -5.1950  -5.1899  -5.1312  -5.1290  -5.1278  -5.1269
    -5.1247  -5.1147  -5.1142  -5.1132  -5.1129  -5.0782  -5.0761  -5.0600
    -5.0436  -5.0125  -5.0114  -5.0020  -4.9980  -4.9749  -4.9727  -4.9719
    -4.9677  -4.9539  -4.9237  -4.9168  -4.8897  -4.8667  -4.8298  -4.8243
    -4.8032  -4.7947  -4.7924  -4.7851  -4.7540  -4.7141  -4.7111  -4.7083
    -4.7074  -4.6878  -4.6869  -4.6206  -4.5773  -4.5590  -4.4907  -4.4907
    -4.4903  -4.4903  -4.4893  -4.4768  -4.4053  -4.3357  -4.3044  -4.2658
    -4.1871

          k =-0.2500 0.3536 0.0000 (200411 PWs)   bands (ev):

   -46.4581 -46.4568 -46.4532 -46.4522 -46.4465 -46.4458 -46.4418 -46.4413
   -46.3515 -46.3506 -46.2763 -46.2752 -46.2113 -46.2094 -46.1529 -46.1500
   -45.8887 -45.8863 -45.8831 -45.8812 -45.8766 -45.8754 -45.8712 -45.8704
   -45.8156 -45.8134 -45.7978 -45.7960 -45.7840 -45.7820 -45.7668 -45.7653
   -45.7065 -45.7041 -45.6991 -45.6973 -45.6931 -45.6919 -45.6863 -45.6854
   -45.6743 -45.6707 -45.6660 -45.6634 -45.6575 -45.6540 -45.6498 -45.6460
   -45.4663 -45.4660 -45.4616 -45.4613 -45.4554 -45.4548 -45.4509 -45.4502
   -45.3510 -45.3470 -45.3305 -45.3136 -45.2869 -45.2655 -45.2575 -45.2250
   -28.7308 -28.4872 -27.2646 -27.0455 -24.8242 -24.7944 -24.7756 -24.7568
   -24.7040 -24.7029 -24.6942 -24.6641 -24.6610 -24.6509 -24.6261 -24.6015
   -24.5617 -24.5521 -24.5398 -24.4917 -24.4892 -24.4733 -24.4595 -24.4068
   -24.3731 -24.3272 -24.3142 -24.2768 -24.2753 -24.2632 -24.2574 -24.2310
   -24.2264 -24.2137 -24.1949 -24.1787 -24.1679 -24.1555 -24.1078 -24.0946
   -24.0847 -24.0705 -24.0605 -24.0570 -24.0478 -24.0314 -24.0139 -24.0062
   -23.9842 -23.9610 -23.9587 -23.9334 -23.5384 -23.5040 -23.4992 -23.4699
   -23.4426 -23.4207 -23.4018 -23.4005 -23.3850 -23.3696 -23.2979 -23.2564
   -23.2462 -23.1638 -23.1618 -23.0672 -17.9541 -16.3596 -14.1365 -12.8403
   -11.1709 -11.1154 -10.7138 -10.5700  -9.5951  -9.0845  -8.4065  -8.0316
    -7.5984  -7.5250  -7.4773  -7.4750  -7.3713  -7.2775  -7.2761  -7.2536
    -7.2429  -7.2295  -7.2199  -7.1847  -7.1741  -7.1589  -7.1470  -7.1268
    -7.1071  -7.0908  -7.0821  -7.0802  -7.0644  -7.0524  -7.0284  -7.0202
    -6.9917  -6.9915  -6.9825  -6.9792  -6.9610  -6.9587  -6.9424  -6.9313
    -6.9125  -6.8943  -6.8844  -6.8721  -6.8601  -6.8511  -6.8433  -6.8395
    -6.8354  -6.8084  -6.7495  -6.7118  -6.7102  -6.7089  -6.7054  -6.7041
    -6.7000  -6.6474  -6.6263  -6.6007  -6.5909  -6.5759  -6.5578  -6.5369
    -6.5361  -6.4694  -6.4632  -6.4549  -6.4520  -6.4393  -6.4271  -6.3912
    -6.3857  -6.3708  -6.2827  -6.2502  -6.2446  -6.2389  -6.1911  -6.1804
    -6.1693  -6.1597  -6.1344  -6.1100  -6.0819  -6.0767  -6.0357  -6.0301
    -6.0180  -6.0005  -5.9887  -5.9779  -5.9761  -5.9623  -5.9568  -5.9515
    -5.9044  -5.8995  -5.8793  -5.8745  -5.8627  -5.8183  -5.7599  -5.7548
    -5.7535  -5.7410  -5.7238  -5.7134  -5.6615  -5.6531  -5.6519  -5.6514
    -5.6498  -5.6439  -5.6061  -5.5797  -5.5745  -5.5675  -5.5616  -5.4891
    -5.4786  -5.4761  -5.4727  -5.4693  -5.4677  -5.4629  -5.4532  -5.4447
    -5.4370  -5.4285  -5.4266  -5.4224  -5.4142  -5.3970  -5.3910  -5.3755
    -5.3372  -5.3366  -5.3112  -5.3049  -5.2888  -5.2855  -5.2710  -5.2683
    -5.2634  -5.2594  -5.2480  -5.2276  -5.2166  -5.2117  -5.2090  -5.1960
    -5.1794  -5.1746  -5.1562  -5.1379  -5.1266  -5.1145  -5.1050  -5.1040
    -5.0996  -5.0966  -5.0941  -5.0885  -5.0821  -5.0480  -5.0415  -5.0344
    -5.0336  -5.0286  -5.0267  -5.0160  -4.9961  -4.9792  -4.9695  -4.9546
    -4.9289  -4.9230  -4.9080  -4.8932  -4.8678  -4.8503  -4.8399  -4.8353
    -4.8143  -4.8082  -4.7942  -4.7771  -4.7481  -4.7263  -4.7091  -4.7071
    -4.7005  -4.6934  -4.6825  -4.6646  -4.6335  -4.6154  -4.5819  -4.5641
    -4.5081  -4.4983  -4.4571  -4.4197  -4.3718  -4.3675  -4.3503  -4.1687
    -4.1047

     highest occupied level (ev):    -4.0547

!    total energy              =   -4345.71100181 Ry
     estimated scf accuracy    <          1.4E-09 Ry

     The total energy is the sum of the following terms:
     one-electron contribution = -103138.35783630 Ry
     hartree contribution      =   51713.55734412 Ry
     xc contribution           =    -998.17945726 Ry
     ewald contribution        =   48077.26894763 Ry

     convergence has been achieved in  13 iterations

     Forces acting on atoms (cartesian axes, Ry/au):

     atom    1 type  1   force =    -0.00000701   -0.00000008    0.00117335
     atom    2 type  1   force =     0.00002672    0.00000130    0.00094977
     atom    3 type  1   force =     0.00000882    0.00000056    0.00092290
     atom    4 type  1   force =     0.00001387   -0.00000009    0.00117742
     atom    5 type  2   force =    -0.00002366   -0.00000019   -0.00098316
     atom    6 type  2   force =     0.00000592   -0.00000043   -0.00086840
     atom    7 type  2   force =    -0.00001183   -0.00000056   -0.00087371
     atom    8 type  2   force =    -0.00000779   -0.00000018   -0.00095163
     atom    9 type  1   force =     0.00005603   -0.00000013    0.00059554
     atom   10 type  1   force =     0.00004118    0.00000344    0.00066290
     atom   11 type  1   force =     0.00012696    0.00001344    0.00079719
     atom   12 type  1   force =    -0.00002860   -0.00000009    0.00057470
     atom   13 type  2   force =    -0.00003518   -0.00000010   -0.00079173
     atom   14 type  2   force =    -0.00005020   -0.00000363   -0.00109475
     atom   15 type  2   force =     0.00002521   -0.00000232   -0.00106877
     atom   16 type  2   force =    -0.00010873   -0.00000009   -0.00094027
     atom   17 type  1   force =    -0.00012869   -0.00000013    0.00077960
     atom   18 type  1   force =     0.00058019    0.00012582    0.00130653
     atom   19 type  1   force =     0.00017485    0.00000661    0.00067459
     atom   20 type  1   force =     0.00024526   -0.00000054    0.00086521
     atom   21 type  2   force =    -0.00047566    0.00000054   -0.00070298
     atom   22 type  2   force =     0.00012021   -0.00001376   -0.00060694
     atom   23 type  2   force =    -0.00023645   -0.00002883   -0.00071773
     atom   24 type  2   force =    -0.00014432    0.00000114   -0.00007312
     atom   25 type  1   force =     0.00106039   -0.00000604    0.00006853
     atom   26 type  1   force =     0.00038426   -0.00018032   -0.00199714
     atom   27 type  1   force =     0.00226275    0.00121965    0.00166260
     atom   28 type  1   force =    -0.00059280   -0.00000091   -0.00019445
     atom   29 type  2   force =    -0.00034369    0.00002549    0.00140493
     atom   30 type  2   force =    -0.00122692   -0.00021106   -0.00016079
     atom   31 type  2   force =     0.00064975   -0.00004475    0.00021886
     atom   32 type  2   force =    -0.00160419    0.00015330   -0.00059310
     atom   33 type  1   force =    -0.00000717    0.00000001    0.00117391
     atom   34 type  1   force =     0.00002670   -0.00000124    0.00094975
     atom   35 type  1   force =     0.00000884   -0.00000051    0.00092287
     atom   36 type  1   force =     0.00001434    0.00000002    0.00117822
     atom   37 type  2   force =    -0.00002407   -0.00000004   -0.00098713
     atom   38 type  2   force =     0.00000591    0.00000048   -0.00086830
     atom   39 type  2   force =    -0.00001183    0.00000061   -0.00087362
     atom   40 type  2   force =    -0.00000804   -0.00000004   -0.00095282
     atom   41 type  1   force =     0.00006134    0.00000003    0.00060306
     atom   42 type  1   force =     0.00004138   -0.00000339    0.00066311
     atom   43 type  1   force =     0.00012682   -0.00001338    0.00079745
     atom   44 type  1   force =    -0.00003049   -0.00000001    0.00057924
     atom   45 type  2   force =    -0.00003816   -0.00000011   -0.00079653
     atom   46 type  2   force =    -0.00005019    0.00000376   -0.00109485
     atom   47 type  2   force =     0.00002517    0.00000245   -0.00106876
     atom   48 type  2   force =    -0.00011409   -0.00000013   -0.00098090
     atom   49 type  1   force =    -0.00015342    0.00000004    0.00080479
     atom   50 type  1   force =     0.00057882   -0.00012892    0.00131383
     atom   51 type  1   force =     0.00017695   -0.00000664    0.00067721
     atom   52 type  1   force =     0.00030985    0.00000044    0.00092493
     atom   53 type  2   force =    -0.00053004   -0.00000662   -0.00110814
     atom   54 type  2   force =     0.00011976    0.00001391   -0.00060706
     atom   55 type  2   force =    -0.00023653    0.00002897   -0.00071911
     atom   56 type  2   force =    -0.00017946   -0.00000133   -0.00002905
     atom   57 type  1   force =     0.00186721    0.00001223    0.00036721
     atom   58 type  1   force =     0.00037299    0.00021967   -0.00200316
     atom   59 type  1   force =     0.00232107   -0.00093080    0.00171315
     atom   60 type  1   force =    -0.00093753    0.00000193   -0.00015121
     atom   61 type  2   force =    -0.00032689    0.00003645    0.00232362
     atom   62 type  2   force =    -0.00124608    0.00022783   -0.00016782
     atom   63 type  2   force =     0.00064611    0.00004771    0.00021618
     atom   64 type  2   force =    -0.00389493    0.00098477   -0.00511923
     atom   65 type  1   force =     0.00000697   -0.00000008    0.00118980
     atom   66 type  1   force =    -0.00002667    0.00000082    0.00093640
     atom   67 type  1   force =    -0.00000890    0.00000143    0.00096318
     atom   68 type  1   force =    -0.00001387   -0.00000007    0.00118573
     atom   69 type  2   force =     0.00002363   -0.00000020   -0.00096770
     atom   70 type  2   force =    -0.00000591   -0.00000078   -0.00088959
     atom   71 type  2   force =     0.00001181   -0.00000065   -0.00088430
     atom   72 type  2   force =     0.00000782   -0.00000020   -0.00099915
     atom   73 type  1   force =    -0.00005585   -0.00000004    0.00063933
     atom   74 type  1   force =    -0.00004225    0.00001482    0.00086343
     atom   75 type  1   force =    -0.00012595    0.00000705    0.00073097
     atom   76 type  1   force =     0.00002836   -0.00000010    0.00066036
     atom   77 type  2   force =     0.00003575   -0.00000028   -0.00101642
     atom   78 type  2   force =     0.00004976   -0.00000463   -0.00114802
     atom   79 type  2   force =    -0.00002483   -0.00000594   -0.00117453
     atom   80 type  2   force =     0.00010811   -0.00000029   -0.00086929
     atom   81 type  1   force =     0.00012546   -0.00000025    0.00114795
     atom   82 type  1   force =    -0.00056336    0.00005380    0.00100620
     atom   83 type  1   force =    -0.00019197    0.00013936    0.00161013
     atom   84 type  1   force =    -0.00024207    0.00000051    0.00105935
     atom   85 type  2   force =     0.00046598   -0.00000149   -0.00042156
     atom   86 type  2   force =    -0.00011341   -0.00005572   -0.00107876
     atom   87 type  2   force =     0.00022957   -0.00004062   -0.00095906
     atom   88 type  2   force =     0.00015384   -0.00000135   -0.00103029
     atom   89 type  1   force =    -0.00100502    0.00000452    0.00084086
     atom   90 type  1   force =    -0.00070258    0.00148182    0.00312452
     atom   91 type  1   force =    -0.00191341    0.00046248   -0.00001226
     atom   92 type  1   force =     0.00053641   -0.00001012    0.00115272
     atom   93 type  2   force =     0.00048218    0.00007750   -0.00165044
     atom   94 type  2   force =     0.00110478   -0.00038396   -0.00119491
     atom   95 type  2   force =    -0.00053165   -0.00054325   -0.00169446
     atom   96 type  2   force =     0.00146072    0.00002067    0.00016652
     atom   97 type  1   force =     0.00000707    0.00000002    0.00119101
     atom   98 type  1   force =    -0.00002665   -0.00000076    0.00093634
     atom   99 type  1   force =    -0.00000893   -0.00000138    0.00096313
     atom  100 type  1   force =    -0.00001427    0.00000001    0.00118669
     atom  101 type  2   force =     0.00002402   -0.00000002   -0.00096983
     atom  102 type  2   force =    -0.00000591    0.00000084   -0.00088951
     atom  103 type  2   force =     0.00001180    0.00000071   -0.00088419
     atom  104 type  2   force =     0.00000805   -0.00000003   -0.00100355
     atom  105 type  1   force =    -0.00006003   -0.00000006    0.00064916
     atom  106 type  1   force =    -0.00004261   -0.00001478    0.00086324
     atom  107 type  1   force =    -0.00012564   -0.00000701    0.00073073
     atom  108 type  1   force =     0.00002915    0.00000000    0.00067318
     atom  109 type  2   force =     0.00003871    0.00000007   -0.00106097
     atom  110 type  2   force =     0.00004977    0.00000476   -0.00114781
     atom  111 type  2   force =    -0.00002479    0.00000607   -0.00117451
     atom  112 type  2   force =     0.00011341    0.00000007   -0.00088751
     atom  113 type  1   force =     0.00013228    0.00000017    0.00126817
     atom  114 type  1   force =    -0.00055925   -0.00005397    0.00100344
     atom  115 type  1   force =    -0.00019685   -0.00014115    0.00160945
     atom  116 type  1   force =    -0.00028872   -0.00000059    0.00114612
     atom  117 type  2   force =     0.00052729    0.00000089   -0.00055614
     atom  118 type  2   force =    -0.00011293    0.00005578   -0.00107925
     atom  119 type  2   force =     0.00022967    0.00004074   -0.00095697
     atom  120 type  2   force =     0.00018375   -0.00000251   -0.00145667
     atom  121 type  1   force =    -0.00152936   -0.00000887    0.00167112
     atom  122 type  1   force =    -0.00073850   -0.00118506    0.00290417
     atom  123 type  1   force =    -0.00186290   -0.00040031   -0.00003501
     atom  124 type  1   force =     0.00060828    0.00000120    0.00234444
     atom  125 type  2   force =     0.00099748    0.00054924   -0.00475399
     atom  126 type  2   force =     0.00110768    0.00038906   -0.00117071
     atom  127 type  2   force =    -0.00051177    0.00055140   -0.00169665
     atom  128 type  2   force =     0.00229462    0.00006544   -0.00049172
     atom  129 type  3   force =    -0.00163242    0.00045796    0.00027706
     atom  130 type  3   force =     0.00056213   -0.00257954   -0.01670936
     atom  131 type  4   force =     0.00089001   -0.00061306    0.00041545
     atom  132 type  4   force =     0.00014511    0.00129780   -0.00018809
     atom  133 type  4   force =     0.00006764   -0.00107607   -0.00046341
     atom  134 type  3   force =     0.00000846    0.00049267    0.00076305
     atom  135 type  2   force =     0.00031578    0.00767470    0.01545970
     atom  136 type  4   force =    -0.00035357    0.00085947   -0.00134631
     atom  137 type  3   force =     0.00360024   -0.00009902   -0.01548208
     atom  138 type  2   force =     0.00019879   -0.00786517    0.00337505
     atom  139 type  4   force =    -0.00017317   -0.00029643   -0.00113935
     atom  140 type  2   force =    -0.00165117   -0.00936372    0.00509530
     atom  141 type  2   force =    -0.00212310    0.00816475    0.01181706
     atom  142 type  4   force =     0.00095695    0.00033576   -0.00098294

     Total force =     0.039047     Total SCF correction =     0.000083


     Computing stress (Cartesian axis) and pressure

          total   stress  (Ry/bohr**3)                   (kbar)     P=      -52.02
  -0.00029187   0.00000010  -0.00000003          -42.94        0.01       -0.00
   0.00000010  -0.00043266  -0.00000098            0.01      -63.65       -0.14
  -0.00000003  -0.00000098  -0.00033644           -0.00       -0.14      -49.49

     Energy error            =      9.0E-04 Ry
     Gradient error          =      1.7E-02 Ry/Bohr

     number of scf cycles    =   3
     number of bfgs steps    =   2

     energy             old  =   -4345.7119010401 Ry
     energy             new  =   -4345.7110018074 Ry

     CASE: energy            _new > energy            _old


 %%%%%%%%%%%%%%%%%%%%%%%%%%%%%%%%%%%%%%%%%%%%%%%%%%%%%%%%%%%%%%%%%%%%%%%%%%%%%%
     Error in routine bfgs (1):
     dE0s is positive which should never happen
 %%%%%%%%%%%%%%%%%%%%%%%%%%%%%%%%%%%%%%%%%%%%%%%%%%%%%%%%%%%%%%%%%%%%%%%%%%%%%%

     stopping ...
                                                                                                                                                                                                                                                                                                                                                                                                                                                                                                                                                                                                                                                                                                                                                                                                                                                                                                                                                                                                                                                                                                                                                                                                                                                                                                                                                                                                                                                                                                                                                                                                                                                                                                                                                                                                                                                                                                                                                                                                                                                                                                                                                                                                                                                                                                                                                                                                                                                                                                                                                                                                                                                                                                                                                                                                                                                                                                                                                                                                                                                                                                                                                                                                                                                                                                                                                                                                                                                                                                                                                                                                                                                                                                                                                                                                                                                                                                                                                                                                                                                                                                                                                                                                                                                                                                                                                                                                                                                                                                                                                                                                                                                                                                                                                                                                                                                                                                                                                                                                                                                                                                                                                                                                                                                                                                                                                                                                                                                                                                                                                                                                                                                                                                                                                                                                                                                                                                                                                                                                                                                                                                                                                                                                                                                                                                                                                                                                                                                                                                                                                                                                                                                                                                                                                                                                                                                                                                                                                                                                                                                                                                                                                                                                                                                                                                                                                                                                                                                                                                                                                                                                                                                                                                                                                                                                                                                                                                                                                                                                                                                                                                                                                                                                                                                                                                                                                                                                                                                                                                                                                                                                                                                                                                                                                                                                                                                                                                                                                                                                                                                                                                                                                                                                                                                                                                                                                                                                                                                                                                                                                                                                                                                                                                                                                                                                                                                                                                                                                                                                                                                                                                                                                                                                                                                                                                                                                                                                                                                                                                                                                                                                                                                                                                                                                                                                                                                                                                                                                                                                                                                                                                                                                                                                                                                                                                                                                                                                                                                                                                                                                                                                             ethr =  1.42E-09,  avg # of iterations =  3.0

     total cpu time spent up to now is      712.9 secs

     total energy              =   -4345.71167958 Ry
     estimated scf accuracy    <       0.00000146 Ry

     iteration #  5     ecut=    60.00 Ry     beta= 0.30
     Davidson diagonalization with overlap
     ethr =  2.11E-10,  avg # of iterations =  3.7

     total cpu time spent up to now is      744.2 secs

     total energy              =   -4345.71167967 Ry
     estimated scf accuracy    <       0.00000015 Ry

     iteration #  6     ecut=    60.00 Ry     beta= 0.30
     Davidson diagonalization with overlap
     ethr =  2.17E-11,  avg # of iterations =  3.8

     total cpu time spent up to now is      776.2 secs

     total energy              =   -4345.71167969 Ry
     estimated scf accuracy    <       0.00000002 Ry

     iteration #  7     ecut=    60.00 Ry     beta= 0.30
     Davidson diagonalization with overlap
     ethr =  2.31E-12,  avg # of iterations =  5.0

     total cpu time spent up to now is      809.5 secs

     End of self-consistent calculation

          k = 0.0000 0.0000 0.0000 (200173 PWs)   bands (ev):

   -46.4499 -46.4477 -46.4407 -46.4407 -46.4396 -46.4396 -46.4322 -46.4309
   -46.3739 -46.3722 -46.3117 -46.3103 -46.2607 -46.2549 -46.2106 -46.2090
   -45.8960 -45.8920 -45.8864 -45.8861 -45.8843 -45.8840 -45.8772 -45.8758
   -45.8397 -45.8362 -45.8243 -45.8219 -45.8139 -45.8109 -45.7991 -45.7970
   -45.7211 -45.7162 -45.7107 -45.7097 -45.7080 -45.7069 -45.7000 -45.6984
   -45.6940 -45.6882 -45.6852 -45.6821 -45.6798 -45.6754 -45.6718 -45.6684
   -45.4650 -45.4643 -45.4564 -45.4564 -45.4559 -45.4559 -45.4485 -45.4470
   -45.3775 -45.3743 -45.3592 -45.3430 -45.3240 -45.3059 -45.2992 -45.2721
   -28.8999 -28.6613 -27.3998 -27.1876 -24.8371 -24.7917 -24.7421 -24.7418
   -24.7350 -24.7268 -24.7268 -24.6860 -24.6608 -24.6393 -24.6346 -24.6244
   -24.6183 -24.5987 -24.5765 -24.5307 -24.5154 -24.4523 -24.4513 -24.4152
   -24.3935 -24.3380 -24.3378 -24.3174 -24.3166 -24.2970 -24.2590 -24.2392
   -24.2373 -24.2275 -24.2196 -24.2061 -24.2043 -24.1623 -24.1413 -24.1412
   -24.0769 -24.0763 -24.0737 -24.0580 -24.0578 -24.0516 -24.0295 -24.0199
   -23.9915 -23.9860 -23.9839 -23.9586 -23.5412 -23.4917 -23.4665 -23.4665
   -23.4329 -23.4303 -23.4303 -23.3894 -23.3892 -23.3667 -23.3298 -23.2960
   -23.2886 -23.2202 -23.2090 -23.1321 -17.8846 -16.3177 -14.1323 -12.9024
   -11.2475 -11.1809 -10.8245 -10.6063  -9.6604  -9.1610  -8.4332  -8.0552
    -7.6239  -7.6192  -7.6151  -7.5877  -7.4139  -7.3530  -7.3181  -7.3096
    -7.2985  -7.2473  -7.1813  -7.1741  -7.1605  -7.1602  -7.1513  -7.1439
    -7.1432  -7.1423  -7.1418  -7.0352  -7.0350  -7.0025  -7.0008  -6.9840
    -6.9832  -6.9499  -6.9445  -6.9399  -6.9312  -6.9221  -6.9093  -6.9081
    -6.9007  -6.8718  -6.8487  -6.8288  -6.8261  -6.8009  -6.7919  -6.7898
    -6.7866  -6.7606  -6.7583  -6.7528  -6.7519  -6.7354  -6.7342  -6.7313
    -6.7241  -6.7038  -6.6558  -6.6540  -6.6006  -6.6003  -6.5860  -6.5859
    -6.5300  -6.5247  -6.5122  -6.5079  -6.5062  -6.5028  -6.4972  -6.4880
    -6.4010  -6.3223  -6.2763  -6.2751  -6.2735  -6.2715  -6.2588  -6.2250
    -6.2247  -6.2123  -6.2100  -6.2086  -6.1922  -6.1873  -6.1731  -6.1407
    -6.0637  -6.0628  -6.0258  -6.0167  -6.0162  -6.0040  -5.9996  -5.9442
    -5.9347  -5.9136  -5.8344  -5.8215  -5.8204  -5.8200  -5.8156  -5.8152
    -5.7973  -5.7964  -5.7852  -5.7817  -5.7231  -5.7107  -5.7068  -5.7044
    -5.6663  -5.5840  -5.5747  -5.5742  -5.5587  -5.5583  -5.5376  -5.5366
    -5.5229  -5.5138  -5.5136  -5.5017  -5.5009  -5.4988  -5.4980  -5.4931
    -5.4907  -5.4528  -5.4444  -5.4300  -5.4079  -5.3465  -5.3448  -5.3088
    -5.2894  -5.2815  -5.2745  -5.2727  -5.2642  -5.2580  -5.2577  -5.2567
    -5.2432  -5.2426  -5.2245  -5.2215  -5.2109  -5.2096  -5.2001  -5.1991
    -5.1896  -5.1807  -5.1721  -5.1715  -5.1589  -5.1515  -5.1497  -5.1493
    -5.1439  -5.1434  -5.1081  -5.0706  -5.0557  -5.0509  -5.0415  -5.0415
    -5.0260  -5.0127  -4.9954  -4.9919  -4.9883  -4.9806  -4.9751  -4.9751
    -4.9409  -4.9137  -4.8957  -4.8952  -4.8825  -4.8763  -4.8694  -4.8291
    -4.8251  -4.8206  -4.8093  -4.7872  -4.7860  -4.7798  -4.7605  -4.7340
    -4.7277  -4.7120  -4.7117  -4.6845  -4.6615  -4.6615  -4.6460  -4.6088
    -4.5913  -4.5622  -4.5158  -4.4766  -4.4397  -4.3202  -4.2812  -4.1641
    -4.1067

          k = 0.0000 0.3536 0.0000 (200366 PWs)   bands (ev):

   -46.4496 -46.4481 -46.4407 -46.4407 -46.4398 -46.4397 -46.4319 -46.4315
   -46.3737 -46.3725 -46.3116 -46.3106 -46.2608 -46.2550 -46.2104 -46.2093
   -45.8955 -45.8927 -45.8862 -45.8859 -45.8846 -45.8843 -45.8770 -45.8763
   -45.8392 -45.8368 -45.8240 -45.8224 -45.8135 -45.8114 -45.7988 -45.7974
   -45.7205 -45.7172 -45.7104 -45.7094 -45.7085 -45.7074 -45.6997 -45.6989
   -45.6930 -45.6889 -45.6849 -45.6824 -45.6794 -45.6758 -45.6720 -45.6686
   -45.4649 -45.4645 -45.4565 -45.4565 -45.4560 -45.4559 -45.4482 -45.4476
   -45.3775 -45.3744 -45.3592 -45.3431 -45.3240 -45.3059 -45.2993 -45.2722
   -28.9000 -28.6614 -27.3998 -27.1876 -24.8307 -24.7985 -24.7398 -24.7397
   -24.7290 -24.7290 -24.7280 -24.6931 -24.6577 -24.6425 -24.6321 -24.6207
   -24.6205 -24.6024 -24.5678 -24.5288 -24.5177 -24.4822 -24.4456 -24.4448
   -24.3841 -24.3839 -24.3371 -24.3003 -24.2697 -24.2689 -24.2557 -24.2405
   -24.2357 -24.2231 -24.2116 -24.2095 -24.2072 -24.1392 -24.1333 -24.1320
   -24.0952 -24.0722 -24.0719 -24.0622 -24.0591 -24.0484 -24.0388 -24.0327
   -24.0024 -23.9962 -23.9827 -23.9630 -23.5340 -23.4991 -23.4612 -23.4612
   -23.4357 -23.4356 -23.4266 -23.3954 -23.3861 -23.3700 -23.3259 -23.2937
   -23.2927 -23.2227 -23.2079 -23.1334 -17.8846 -16.3177 -14.1323 -12.9022
   -11.2476 -11.1808 -10.8248 -10.6064  -9.6605  -9.1609  -8.4342  -8.0561
    -7.6177  -7.5697  -7.5343  -7.5167  -7.4125  -7.3051  -7.3006  -7.2883
    -7.2835  -7.2476  -7.1812  -7.1682  -7.1663  -7.1479  -7.1406  -7.1405
    -7.1325  -7.1320  -7.1138  -7.1059  -7.0673  -7.0660  -7.0423  -6.9942
    -6.9771  -6.9756  -6.9736  -6.9724  -6.9681  -6.9648  -6.9308  -6.9253
    -6.9235  -6.9153  -6.9123  -6.9110  -6.8979  -6.8660  -6.8343  -6.8306
    -6.7970  -6.7960  -6.7886  -6.7721  -6.7458  -6.7364  -6.7182  -6.7116
    -6.7114  -6.7036  -6.6262  -6.6091  -6.6013  -6.5980  -6.5923  -6.5907
    -6.5308  -6.5300  -6.5296  -6.5288  -6.5147  -6.5118  -6.4499  -6.4457
    -6.4454  -6.4150  -6.3035  -6.3026  -6.2903  -6.2900  -6.2531  -6.1831
    -6.1789  -6.1459  -6.1456  -6.1083  -6.0758  -6.0755  -6.0587  -6.0438
    -6.0423  -6.0173  -5.9996  -5.9867  -5.9616  -5.9395  -5.9380  -5.9129
    -5.8825  -5.8818  -5.8625  -5.8359  -5.8357  -5.8078  -5.8014  -5.7995
    -5.7963  -5.7695  -5.7678  -5.7505  -5.6915  -5.6912  -5.6786  -5.6779
    -5.6621  -5.5844  -5.5843  -5.5749  -5.5722  -5.5665  -5.5630  -5.5562
    -5.5536  -5.5447  -5.5395  -5.5178  -5.5149  -5.4973  -5.4924  -5.4912
    -5.4703  -5.4612  -5.4611  -5.4574  -5.4505  -5.4449  -5.4381  -5.4201
    -5.3920  -5.3913  -5.3516  -5.2848  -5.2836  -5.2819  -5.2609  -5.2541
    -5.2518  -5.2455  -5.2396  -5.2391  -5.2003  -5.1992  -5.1975  -5.1948
    -5.1924  -5.1864  -5.1858  -5.1776  -5.1380  -5.1169  -5.1143  -5.1035
    -5.0954  -5.0867  -5.0862  -5.0724  -5.0715  -5.0674  -5.0563  -5.0459
    -5.0452  -5.0320  -5.0026  -4.9911  -4.9849  -4.9749  -4.9557  -4.9482
    -4.9481  -4.9380  -4.9049  -4.8926  -4.8909  -4.8877  -4.8707  -4.8452
    -4.8446  -4.8094  -4.8011  -4.7949  -4.7925  -4.7620  -4.7481  -4.7272
    -4.7248  -4.7063  -4.6988  -4.6838  -4.6745  -4.6743  -4.6521  -4.6065
    -4.5859  -4.5643  -4.5191  -4.4858  -4.4431  -4.3142  -4.2868  -4.1607
    -4.1098

          k = 0.0000-0.7071 0.0000 (200506 PWs)   bands (ev):

   -46.4490 -46.4489 -46.4403 -46.4403 -46.4403 -46.4402 -46.4318 -46.4317
   -46.3735 -46.3728 -46.3113 -46.3110 -46.2608 -46.2551 -46.2102 -46.2096
   -45.8943 -45.8940 -45.8856 -45.8853 -45.8853 -45.8850 -45.8768 -45.8765
   -45.8382 -45.8379 -45.8233 -45.8232 -45.8128 -45.8123 -45.7983 -45.7980
   -45.7192 -45.7190 -45.7096 -45.7095 -45.7086 -45.7085 -45.6994 -45.6993
   -45.6913 -45.6902 -45.6845 -45.6828 -45.6789 -45.6762 -45.6721 -45.6686
   -45.4647 -45.4647 -45.4563 -45.4563 -45.4562 -45.4562 -45.4480 -45.4480
   -45.3775 -45.3745 -45.3593 -45.3431 -45.3241 -45.3060 -45.2994 -45.2723
   -28.9000 -28.6614 -27.3999 -27.1876 -24.8149 -24.8148 -24.7345 -24.7345
   -24.7344 -24.7344 -24.7110 -24.7102 -24.6502 -24.6501 -24.6267 -24.6256
   -24.6120 -24.6111 -24.5384 -24.5380 -24.5239 -24.5228 -24.4240 -24.4236
   -24.4235 -24.4231 -24.3107 -24.3101 -24.2488 -24.2478 -24.2345 -24.2342
   -24.2300 -24.2296 -24.2244 -24.2242 -24.1477 -24.1475 -24.1060 -24.1058
   -24.1055 -24.1050 -24.0878 -24.0843 -24.0407 -24.0406 -24.0326 -24.0296
   -24.0289 -24.0234 -23.9770 -23.9697 -23.5167 -23.5167 -23.4485 -23.4485
   -23.4485 -23.4485 -23.4139 -23.4081 -23.3781 -23.3781 -23.3206 -23.2981
   -23.2911 -23.2253 -23.2068 -23.1347 -17.8847 -16.3177 -14.1323 -12.9021
   -11.2479 -11.1808 -10.8251 -10.6064  -9.6605  -9.1608  -8.4350  -8.0569
    -7.6177  -7.4626  -7.4624  -7.3915  -7.3902  -7.2635  -7.2624  -7.2510
    -7.2494  -7.2468  -7.2351  -7.2346  -7.1809  -7.1391  -7.1380  -7.1093
    -7.1091  -7.1090  -7.1081  -7.0793  -7.0791  -7.0712  -7.0711  -7.0653
    -7.0646  -7.0638  -7.0631  -7.0534  -7.0511  -7.0009  -6.9965  -6.9374
    -6.9367  -6.9366  -6.9355  -6.9227  -6.8709  -6.8693  -6.8690  -6.8678
    -6.8250  -6.8230  -6.8216  -6.8197  -6.7877  -6.7738  -6.7727  -6.7051
    -6.6590  -6.6589  -6.6344  -6.6334  -6.6312  -6.6304  -6.5631  -6.5616
    -6.5603  -6.5590  -6.5442  -6.5420  -6.5228  -6.3888  -6.3884  -6.3878
    -6.3876  -6.3343  -6.3335  -6.3334  -6.3319  -6.2905  -6.2899  -6.0774
    -6.0769  -6.0417  -6.0416  -6.0157  -6.0155  -6.0154  -6.0145  -6.0011
    -5.9818  -5.9788  -5.9533  -5.9529  -5.9457  -5.9419  -5.9396  -5.9394
    -5.9385  -5.9380  -5.8617  -5.8615  -5.7871  -5.7859  -5.7680  -5.7680
    -5.7669  -5.7658  -5.7474  -5.7457  -5.6667  -5.6660  -5.6529  -5.6521
    -5.6369  -5.6358  -5.5997  -5.5981  -5.5897  -5.5895  -5.5890  -5.5890
    -5.5382  -5.5363  -5.5360  -5.5336  -5.5121  -5.5116  -5.5036  -5.5026
    -5.5015  -5.4987  -5.4643  -5.4595  -5.4544  -5.4524  -5.3983  -5.3980
    -5.3971  -5.3969  -5.3804  -5.3798  -5.3783  -5.3768  -5.2769  -5.2757
    -5.2727  -5.2722  -5.2657  -5.2656  -5.2622  -5.2605  -5.2031  -5.1913
    -5.1728  -5.1720  -5.1669  -5.1643  -5.1458  -5.1419  -5.1204  -5.1202
    -5.1198  -5.1193  -5.0777  -5.0766  -5.0748  -5.0703  -5.0653  -5.0417
    -5.0414  -4.9940  -4.9906  -4.9731  -4.9726  -4.9674  -4.9591  -4.9530
    -4.9188  -4.9002  -4.9000  -4.8999  -4.8985  -4.8981  -4.8939  -4.8669
    -4.8492  -4.8083  -4.8083  -4.7693  -4.7680  -4.7650  -4.7500  -4.7027
    -4.7022  -4.7021  -4.7015  -4.6954  -4.6861  -4.6861  -4.6649  -4.6023
    -4.5857  -4.5688  -4.5216  -4.4972  -4.4462  -4.3010  -4.3010  -4.1577
    -4.1140

          k = 0.2500 0.0000 0.0000 (200254 PWs)   bands (ev):

   -46.4491 -46.4471 -46.4442 -46.4428 -46.4374 -46.4364 -46.4327 -46.4319
   -46.3738 -46.3723 -46.3117 -46.3104 -46.2608 -46.2549 -46.2105 -46.2091
   -45.8953 -45.8915 -45.8898 -45.8870 -45.8829 -45.8813 -45.8777 -45.8766
   -45.8395 -45.8362 -45.8246 -45.8221 -45.8136 -45.8108 -45.7991 -45.7971
   -45.7205 -45.7158 -45.7135 -45.7102 -45.7068 -45.7048 -45.7005 -45.6990
   -45.6939 -45.6882 -45.6859 -45.6823 -45.6792 -45.6753 -45.6720 -45.6686
   -45.4643 -45.4636 -45.4596 -45.4592 -45.4534 -45.4527 -45.4490 -45.4480
   -45.3775 -45.3743 -45.3592 -45.3430 -45.3240 -45.3059 -45.2992 -45.2722
   -28.8999 -28.6613 -27.3998 -27.1876 -24.8301 -24.7868 -24.7791 -24.7517
   -24.7297 -24.7035 -24.7017 -24.6834 -24.6659 -24.6646 -24.6474 -24.6308
   -24.5936 -24.5861 -24.5675 -24.5335 -24.5230 -24.5011 -24.4094 -24.3946
   -24.3879 -24.3675 -24.3459 -24.3080 -24.2900 -24.2879 -24.2786 -24.2650
   -24.2450 -24.2393 -24.2211 -24.1894 -24.1786 -24.1746 -24.1567 -24.1074
   -24.1067 -24.0739 -24.0614 -24.0586 -24.0557 -24.0434 -24.0358 -24.0194
   -23.9969 -23.9920 -23.9782 -23.9582 -23.5356 -23.4954 -23.4871 -23.4540
   -23.4373 -23.4319 -23.4062 -23.3954 -23.3884 -23.3716 -23.3373 -23.2928
   -23.2857 -23.2181 -23.2108 -23.1328 -17.8846 -16.3177 -14.1323 -12.9024
   -11.2475 -11.1809 -10.8246 -10.6064  -9.6606  -9.1610  -8.4333  -8.0553
    -7.6177  -7.5925  -7.5804  -7.5415  -7.3722  -7.3559  -7.3244  -7.3241
    -7.2803  -7.2692  -7.2584  -7.2474  -7.2266  -7.1797  -7.1629  -7.1389
    -7.1116  -7.1054  -7.1012  -7.0833  -7.0819  -7.0463  -6.9937  -6.9877
    -6.9820  -6.9721  -6.9298  -6.9287  -6.9180  -6.9104  -6.9047  -6.9021
    -6.8798  -6.8621  -6.8598  -6.8365  -6.8187  -6.8163  -6.8153  -6.7909
    -6.7873  -6.7824  -6.7700  -6.7525  -6.7483  -6.7435  -6.7390  -6.7369
    -6.7045  -6.7024  -6.6882  -6.6352  -6.6319  -6.5922  -6.5632  -6.5315
    -6.5286  -6.5186  -6.5036  -6.4863  -6.4601  -6.4470  -6.4432  -6.4376
    -6.4300  -6.3522  -6.3374  -6.3251  -6.3210  -6.2939  -6.2903  -6.2617
    -6.2602  -6.2372  -6.1631  -6.1558  -6.1431  -6.1422  -6.1225  -6.0849
    -6.0814  -6.0788  -6.0449  -6.0008  -5.9994  -5.9936  -5.9800  -5.9784
    -5.9656  -5.9454  -5.9356  -5.8828  -5.8721  -5.8685  -5.8101  -5.7887
    -5.7831  -5.7301  -5.7195  -5.7057  -5.6947  -5.6889  -5.6794  -5.6779
    -5.6657  -5.6584  -5.6291  -5.6056  -5.5895  -5.5823  -5.5661  -5.5461
    -5.5362  -5.5230  -5.5037  -5.5010  -5.4510  -5.4404  -5.4305  -5.4231
    -5.4182  -5.4130  -5.4111  -5.3850  -5.3838  -5.3782  -5.3759  -5.3411
    -5.3306  -5.3224  -5.2824  -5.2701  -5.2654  -5.2597  -5.2571  -5.2557
    -5.2471  -5.2266  -5.2247  -5.2176  -5.2156  -5.2136  -5.2093  -5.2015
    -5.1887  -5.1843  -5.1831  -5.1798  -5.1577  -5.1526  -5.1432  -5.1423
    -5.1137  -5.1110  -5.1039  -5.0889  -5.0769  -5.0712  -5.0632  -5.0565
    -5.0487  -5.0340  -5.0157  -5.0096  -4.9991  -4.9978  -4.9876  -4.9729
    -4.9624  -4.9446  -4.9326  -4.9113  -4.8945  -4.8672  -4.8658  -4.8497
    -4.8402  -4.8189  -4.8135  -4.7894  -4.7813  -4.7464  -4.7169  -4.7091
    -4.7070  -4.6890  -4.6857  -4.6796  -4.6581  -4.6186  -4.5978  -4.5973
    -4.5580  -4.5384  -4.5029  -4.4674  -4.4147  -4.3650  -4.3365  -4.2098
    -4.1574

          k = 0.2500 0.3536 0.0000 (200411 PWs)   bands (ev):

   -46.4489 -46.4476 -46.4440 -46.4430 -46.4373 -46.4366 -46.4326 -46.4321
   -46.3737 -46.3725 -46.3115 -46.3106 -46.2608 -46.2550 -46.2104 -46.2094
   -45.8948 -45.8923 -45.8894 -45.8875 -45.8827 -45.8815 -45.8776 -45.8768
   -45.8391 -45.8369 -45.8243 -45.8226 -45.8133 -45.8113 -45.7988 -45.7975
   -45.7200 -45.7169 -45.7131 -45.7108 -45.7066 -45.7051 -45.7003 -45.6993
   -45.6930 -45.6888 -45.6854 -45.6826 -45.6790 -45.6756 -45.6721 -45.6687
   -45.4642 -45.4639 -45.4596 -45.4593 -45.4533 -45.4528 -45.4489 -45.4482
   -45.3775 -45.3744 -45.3593 -45.3431 -45.3240 -45.3060 -45.2993 -45.2722
   -28.9000 -28.6614 -27.3998 -27.1876 -24.8239 -24.7933 -24.7752 -24.7558
   -24.7230 -24.7033 -24.7020 -24.6901 -24.6632 -24.6596 -24.6501 -24.6355
   -24.5923 -24.5871 -24.5591 -24.5320 -24.5242 -24.4941 -24.4752 -24.4227
   -24.3895 -24.3427 -24.3315 -24.2934 -24.2929 -24.2786 -24.2720 -24.2482
   -24.2436 -24.2322 -24.2019 -24.1957 -24.1858 -24.1628 -24.1331 -24.1022
   -24.0927 -24.0882 -24.0784 -24.0651 -24.0554 -24.0396 -24.0375 -24.0327
   -24.0114 -23.9879 -23.9869 -23.9635 -23.5286 -23.4943 -23.4894 -23.4602
   -23.4328 -23.4257 -23.4108 -23.3946 -23.3919 -23.3751 -23.3333 -23.2955
   -23.2849 -23.2205 -23.2096 -23.1341 -17.8846 -16.3177 -14.1323 -12.9022
   -11.2477 -11.1809 -10.8247 -10.6064  -9.6606  -9.1609  -8.4343  -8.0562
    -7.6176  -7.5336  -7.4915  -7.4893  -7.3707  -7.2894  -7.2879  -7.2698
    -7.2617  -7.2606  -7.2482  -7.2395  -7.1878  -7.1776  -7.1589  -7.1412
    -7.1110  -7.1074  -7.0941  -7.0925  -7.0723  -7.0709  -7.0478  -7.0299
    -7.0097  -7.0043  -7.0021  -6.9985  -6.9795  -6.9747  -6.9676  -6.9444
    -6.9286  -6.9147  -6.9024  -6.8870  -6.8759  -6.8684  -6.8617  -6.8565
    -6.8530  -6.8196  -6.7883  -6.7702  -6.7353  -6.7305  -6.7203  -6.7165
    -6.7112  -6.7041  -6.6434  -6.6202  -6.6188  -6.5881  -6.5813  -6.5582
    -6.5363  -6.5294  -6.4845  -6.4775  -6.4665  -6.4605  -6.4446  -6.4245
    -6.4055  -6.3795  -6.2963  -6.2787  -6.2602  -6.2595  -6.2076  -6.1976
    -6.1857  -6.1684  -6.1525  -6.1244  -6.0908  -6.0900  -6.0522  -6.0436
    -6.0103  -6.0050  -6.0004  -5.9982  -5.9894  -5.9872  -5.9700  -5.9670
    -5.9218  -5.9216  -5.9091  -5.8848  -5.8795  -5.8353  -5.7818  -5.7739
    -5.7664  -5.7617  -5.7426  -5.7249  -5.6791  -5.6753  -5.6698  -5.6632
    -5.6612  -5.6595  -5.6233  -5.5968  -5.5950  -5.5894  -5.5738  -5.5055
    -5.4934  -5.4881  -5.4866  -5.4851  -5.4826  -5.4795  -5.4709  -5.4582
    -5.4519  -5.4466  -5.4398  -5.4363  -5.4297  -5.4145  -5.4037  -5.3962
    -5.3516  -5.3510  -5.3287  -5.3251  -5.3009  -5.2917  -5.2879  -5.2866
    -5.2805  -5.2691  -5.2595  -5.2450  -5.2266  -5.2260  -5.2131  -5.2098
    -5.1924  -5.1887  -5.1826  -5.1532  -5.1254  -5.1164  -5.1155  -5.1076
    -5.1075  -5.1073  -5.0946  -5.0943  -5.0724  -5.0601  -5.0510  -5.0468
    -5.0409  -5.0392  -5.0370  -5.0302  -5.0217  -4.9937  -4.9796  -4.9750
    -4.9617  -4.9401  -4.9324  -4.9264  -4.8993  -4.8870  -4.8607  -4.8479
    -4.8319  -4.8125  -4.8093  -4.7941  -4.7878  -4.7396  -4.7164  -4.7123
    -4.7001  -4.6954  -4.6884  -4.6737  -4.6528  -4.6206  -4.6066  -4.5960
    -4.5530  -4.5387  -4.4990  -4.4702  -4.4218  -4.3615  -4.3401  -4.2084
    -4.1589

          k = 0.2500-0.7071 0.0000 (200442 PWs)   bands (ev):

   -46.4483 -46.4483 -46.4436 -46.4435 -46.4369 -46.4369 -46.4324 -46.4324
   -46.3735 -46.3727 -46.3112 -46.3110 -46.2608 -46.2550 -46.2102 -46.2096
   -45.8937 -45.8934 -45.8886 -45.8883 -45.8822 -45.8819 -45.8774 -45.8771
   -45.8381 -45.8379 -45.8235 -45.8234 -45.8126 -45.8121 -45.7984 -45.7980
   -45.7187 -45.7185 -45.7122 -45.7120 -45.7059 -45.7058 -45.6999 -45.6998
   -45.6913 -45.6901 -45.6848 -45.6830 -45.6786 -45.6760 -45.6721 -45.6687
   -45.4641 -45.4641 -45.4594 -45.4594 -45.4530 -45.4530 -45.4486 -45.4486
   -45.3775 -45.3744 -45.3593 -45.3431 -45.3240 -45.3060 -45.2993 -45.2722
   -28.9000 -28.6614 -27.3998 -27.1876 -24.8089 -24.8088 -24.7657 -24.7656
   -24.7070 -24.7063 -24.7026 -24.7025 -24.6567 -24.6566 -24.6480 -24.6468
   -24.5900 -24.5892 -24.5311 -24.5306 -24.5278 -24.5268 -24.4695 -24.4690
   -24.3732 -24.3726 -24.3042 -24.3036 -24.2776 -24.2770 -24.2581 -24.2576
   -24.2133 -24.2129 -24.2080 -24.2077 -24.1445 -24.1443 -24.1220 -24.1217
   -24.0879 -24.0870 -24.0831 -24.0804 -24.0511 -24.0478 -24.0472 -24.0450
   -24.0114 -24.0068 -23.9797 -23.9723 -23.5116 -23.5116 -23.4748 -23.4748
   -23.4218 -23.4218 -23.4135 -23.4068 -23.3835 -23.3835 -23.3283 -23.3000
   -23.2831 -23.2230 -23.2084 -23.1355 -17.8847 -16.3177 -14.1323 -12.9020
   -11.2477 -11.1808 -10.8249 -10.6063  -9.6604  -9.1608  -8.4349  -8.0569
    -7.6175  -7.4227  -7.4224  -7.3540  -7.3528  -7.2483  -7.2380  -7.2371
    -7.2181  -7.2176  -7.2069  -7.2063  -7.1945  -7.1939  -7.1791  -7.1235
    -7.1227  -7.1112  -7.1107  -7.1058  -7.1055  -7.0966  -7.0958  -7.0675
    -7.0671  -7.0574  -7.0573  -7.0438  -7.0432  -6.9918  -6.9887  -6.9710
    -6.9700  -6.9592  -6.9588  -6.9499  -6.9496  -6.9442  -6.9413  -6.9225
    -6.8995  -6.8951  -6.7971  -6.7955  -6.7864  -6.7682  -6.7670  -6.7049
    -6.6663  -6.6651  -6.6486  -6.6485  -6.5728  -6.5721  -6.5390  -6.5378
    -6.5238  -6.5071  -6.5062  -6.4601  -6.4590  -6.4275  -6.4258  -6.3815
    -6.3805  -6.2966  -6.2960  -6.2754  -6.2751  -6.2002  -6.1999  -6.1874
    -6.1860  -6.0752  -6.0748  -6.0276  -6.0272  -6.0170  -6.0167  -6.0078
    -6.0074  -5.9992  -5.9704  -5.9693  -5.9563  -5.9558  -5.9017  -5.9001
    -5.8883  -5.8875  -5.8710  -5.8691  -5.8306  -5.8298  -5.7801  -5.7797
    -5.7617  -5.7591  -5.7077  -5.7074  -5.6980  -5.6975  -5.6901  -5.6893
    -5.6464  -5.6458  -5.6305  -5.6290  -5.6282  -5.6266  -5.6185  -5.6163
    -5.5346  -5.5342  -5.5116  -5.5112  -5.4808  -5.4800  -5.4718  -5.4690
    -5.4352  -5.4335  -5.4297  -5.4265  -5.4157  -5.4143  -5.3944  -5.3934
    -5.3640  -5.3638  -5.3562  -5.3549  -5.3403  -5.3374  -5.3272  -5.3241
    -5.3065  -5.3054  -5.2661  -5.2648  -5.2152  -5.2147  -5.2048  -5.2040
    -5.1768  -5.1766  -5.1731  -5.1727  -5.1708  -5.1700  -5.1618  -5.1586
    -5.1400  -5.1342  -5.0735  -5.0698  -5.0654  -5.0518  -5.0508  -5.0206
    -5.0205  -5.0112  -5.0107  -5.0097  -5.0077  -4.9937  -4.9851  -4.9801
    -4.9751  -4.9561  -4.9548  -4.9156  -4.9031  -4.8736  -4.8678  -4.8469
    -4.8209  -4.8135  -4.8118  -4.7996  -4.7973  -4.7269  -4.7229  -4.7112
    -4.7083  -4.6917  -4.6907  -4.6666  -4.6315  -4.6311  -4.6227  -4.5953
    -4.5486  -4.5385  -4.4873  -4.4772  -4.4302  -4.3505  -4.3505  -4.2062
    -4.1608

          k =-0.5000 0.0000 0.0000 (200370 PWs)   bands (ev):

   -46.4474 -46.4469 -46.4457 -46.4452 -46.4349 -46.4344 -46.4340 -46.4335
   -46.3739 -46.3723 -46.3117 -46.3104 -46.2608 -46.2549 -46.2106 -46.2092
   -45.8940 -45.8920 -45.8907 -45.8888 -45.8808 -45.8795 -45.8789 -45.8776
   -45.8395 -45.8363 -45.8249 -45.8223 -45.8134 -45.8108 -45.7991 -45.7972
   -45.7198 -45.7154 -45.7152 -45.7115 -45.7049 -45.7035 -45.7015 -45.6996
   -45.6938 -45.6882 -45.6865 -45.6824 -45.6788 -45.6753 -45.6721 -45.6687
   -45.4628 -45.4623 -45.4620 -45.4615 -45.4512 -45.4504 -45.4503 -45.4495
   -45.3775 -45.3744 -45.3593 -45.3431 -45.3240 -45.3059 -45.2993 -45.2722
   -28.8999 -28.6613 -27.3998 -27.1876 -24.8105 -24.8092 -24.7732 -24.7723
   -24.7215 -24.6831 -24.6807 -24.6803 -24.6798 -24.6706 -24.6698 -24.6396
   -24.5770 -24.5728 -24.5497 -24.5386 -24.5369 -24.5281 -24.3950 -24.3904
   -24.3757 -24.3664 -24.3363 -24.3342 -24.2848 -24.2799 -24.2740 -24.2670
   -24.2649 -24.2577 -24.2038 -24.2014 -24.1734 -24.1696 -24.1467 -24.1258
   -24.0796 -24.0770 -24.0691 -24.0663 -24.0484 -24.0481 -24.0233 -24.0187
   -24.0031 -24.0002 -23.9746 -23.9580 -23.5198 -23.5193 -23.4742 -23.4737
   -23.4309 -23.4125 -23.4120 -23.3875 -23.3858 -23.3853 -23.3433 -23.2938
   -23.2800 -23.2162 -23.2126 -23.1335 -17.8846 -16.3177 -14.1323 -12.9025
   -11.2475 -11.1811 -10.8247 -10.6065  -9.6605  -9.1611  -8.4334  -8.0554
    -7.6175  -7.5063  -7.4965  -7.4811  -7.4763  -7.4217  -7.4106  -7.2557
    -7.2502  -7.2489  -7.2482  -7.2323  -7.1837  -7.1714  -7.1688  -7.1658
    -7.1406  -7.1357  -7.1339  -7.1319  -7.1276  -7.1096  -7.0942  -6.9986
    -6.9890  -6.9888  -6.9789  -6.9285  -6.8563  -6.8524  -6.8520  -6.8496
    -6.8446  -6.8405  -6.8372  -6.8332  -6.8315  -6.8294  -6.8207  -6.8166
    -6.8112  -6.7897  -6.7818  -6.7574  -6.7565  -6.7547  -6.7367  -6.7038
    -6.6773  -6.6761  -6.6618  -6.6530  -6.6010  -6.5846  -6.5743  -6.5623
    -6.5371  -6.5315  -6.5304  -6.5255  -6.5205  -6.5083  -6.4849  -6.3477
    -6.3376  -6.3343  -6.3308  -6.2969  -6.2857  -6.2668  -6.2664  -6.2369
    -6.2367  -6.2235  -6.2055  -6.1348  -6.1261  -6.1256  -6.1199  -6.1024
    -6.0862  -6.0632  -6.0588  -6.0526  -6.0446  -6.0286  -6.0115  -6.0026
    -5.9980  -5.9609  -5.9119  -5.9091  -5.8937  -5.8930  -5.8207  -5.8078
    -5.7346  -5.7345  -5.7025  -5.7023  -5.6570  -5.6521  -5.6483  -5.6436
    -5.6205  -5.6130  -5.6094  -5.6077  -5.5949  -5.5840  -5.5530  -5.5468
    -5.5247  -5.5184  -5.5174  -5.5162  -5.5152  -5.5070  -5.4695  -5.4641
    -5.3549  -5.3502  -5.3501  -5.3441  -5.3417  -5.3409  -5.3383  -5.3382
    -5.3326  -5.3298  -5.3209  -5.3205  -5.3053  -5.3011  -5.2902  -5.2899
    -5.2332  -5.2293  -5.2273  -5.2246  -5.1991  -5.1983  -5.1963  -5.1860
    -5.1786  -5.1690  -5.1678  -5.1642  -5.1544  -5.1515  -5.1078  -5.1064
    -5.1012  -5.0947  -5.0939  -5.0920  -5.0903  -5.0848  -5.0821  -5.0810
    -5.0672  -5.0373  -5.0368  -5.0361  -5.0274  -5.0236  -5.0190  -4.9979
    -4.9885  -4.9825  -4.9731  -4.9237  -4.9130  -4.8998  -4.8668  -4.8408
    -4.8328  -4.8314  -4.7923  -4.7815  -4.7808  -4.7365  -4.7012  -4.6994
    -4.6973  -4.6973  -4.6944  -4.6632  -4.6098  -4.5923  -4.5361  -4.5288
    -4.4849  -4.4846  -4.4786  -4.4783  -4.4643  -4.3697  -4.3407  -4.3114
    -4.2508

          k =-0.5000 0.3536 0.0000 (200424 PWs)   bands (ev):

   -46.4472 -46.4467 -46.4460 -46.4455 -46.4347 -46.4342 -46.4342 -46.4337
   -46.3737 -46.3725 -46.3116 -46.3106 -46.2608 -46.2550 -46.2104 -46.2094
   -45.8936 -45.8916 -45.8912 -45.8893 -45.8806 -45.8798 -45.8787 -45.8778
   -45.8390 -45.8368 -45.8245 -45.8227 -45.8131 -45.8112 -45.7989 -45.7975
   -45.7193 -45.7163 -45.7148 -45.7122 -45.7047 -45.7038 -45.7012 -45.7000
   -45.6928 -45.6888 -45.6859 -45.6827 -45.6786 -45.6755 -45.6722 -45.6687
   -45.4628 -45.4624 -45.4620 -45.4616 -45.4510 -45.4505 -45.4502 -45.4497
   -45.3775 -45.3744 -45.3593 -45.3431 -45.3240 -45.3060 -45.2993 -45.2722
   -28.9000 -28.6614 -27.3998 -27.1876 -24.8052 -24.8040 -24.7788 -24.7779
   -24.7157 -24.6864 -24.6793 -24.6783 -24.6767 -24.6721 -24.6712 -24.6456
   -24.5766 -24.5733 -24.5419 -24.5362 -24.5329 -24.5258 -24.4580 -24.4508
   -24.3333 -24.3313 -24.3195 -24.3120 -24.3034 -24.3033 -24.2776 -24.2687
   -24.2375 -24.2330 -24.1880 -24.1850 -24.1815 -24.1777 -24.1246 -24.1047
   -24.0874 -24.0847 -24.0756 -24.0736 -24.0536 -24.0533 -24.0359 -24.0173
   -24.0153 -23.9967 -23.9817 -23.9643 -23.5132 -23.5127 -23.4810 -23.4805
   -23.4248 -23.4086 -23.4081 -23.3936 -23.3897 -23.3892 -23.3392 -23.2973
   -23.2786 -23.2184 -23.2115 -23.1349 -17.8846 -16.3177 -14.1323 -12.9023
   -11.2477 -11.1809 -10.8248 -10.6064  -9.6604  -9.1609  -8.4343  -8.0563
    -7.6174  -7.4352  -7.4308  -7.4154  -7.4063  -7.3755  -7.3641  -7.2570
    -7.2561  -7.2482  -7.1973  -7.1832  -7.1754  -7.1722  -7.1685  -7.1629
    -7.1442  -7.1356  -7.1264  -7.1236  -7.1196  -7.0605  -7.0498  -7.0488
    -7.0409  -7.0309  -7.0260  -6.9855  -6.9816  -6.9807  -6.9718  -6.9428
    -6.9356  -6.9317  -6.9057  -6.9043  -6.8940  -6.8817  -6.8765  -6.8647
    -6.8613  -6.8488  -6.7884  -6.7712  -6.7404  -6.7091  -6.7048  -6.7026
    -6.6879  -6.6860  -6.6704  -6.6498  -6.6156  -6.5883  -6.5838  -6.5818
    -6.5294  -6.5061  -6.4886  -6.4501  -6.4296  -6.4274  -6.4193  -6.3721
    -6.3662  -6.3154  -6.3078  -6.2554  -6.2531  -6.2305  -6.2300  -6.1515
    -6.1496  -6.1448  -6.1302  -6.1095  -6.1080  -6.0795  -6.0646  -6.0568
    -6.0534  -6.0206  -6.0166  -6.0040  -6.0021  -6.0009  -5.9965  -5.9886
    -5.9479  -5.9425  -5.9405  -5.9383  -5.9377  -5.9192  -5.7751  -5.7679
    -5.7251  -5.7225  -5.7221  -5.7189  -5.7124  -5.7115  -5.6705  -5.6633
    -5.6461  -5.6460  -5.6380  -5.6332  -5.5669  -5.5653  -5.5523  -5.5485
    -5.4790  -5.4723  -5.4682  -5.4661  -5.4567  -5.4485  -5.4329  -5.4290
    -5.4194  -5.4190  -5.3805  -5.3762  -5.3742  -5.3686  -5.3670  -5.3643
    -5.3626  -5.3580  -5.3337  -5.3282  -5.3051  -5.3049  -5.3015  -5.2901
    -5.2759  -5.2748  -5.2686  -5.2654  -5.2543  -5.2500  -5.2305  -5.2264
    -5.2120  -5.2098  -5.1718  -5.1666  -5.1598  -5.1506  -5.1341  -5.1293
    -5.1064  -5.0950  -5.0835  -5.0815  -5.0725  -5.0650  -5.0641  -5.0638
    -5.0567  -5.0558  -5.0391  -5.0243  -5.0199  -5.0164  -5.0090  -5.0049
    -4.9985  -4.9637  -4.9545  -4.9417  -4.9013  -4.8919  -4.8672  -4.8470
    -4.8211  -4.8158  -4.7966  -4.7844  -4.7833  -4.7330  -4.7093  -4.7031
    -4.7011  -4.6993  -4.6941  -4.6597  -4.6121  -4.5922  -4.5347  -4.5283
    -4.4837  -4.4834  -4.4790  -4.4787  -4.4635  -4.3685  -4.3425  -4.3109
    -4.2503

          k =-0.5000-0.7071 0.0000 (200236 PWs)   bands (ev):

   -46.4466 -46.4466 -46.4461 -46.4461 -46.4343 -46.4343 -46.4338 -46.4338
   -46.3734 -46.3727 -46.3112 -46.3109 -46.2607 -46.2550 -46.2101 -46.2095
   -45.8926 -45.8923 -45.8907 -45.8903 -45.8802 -45.8799 -45.8783 -45.8779
   -45.8381 -45.8378 -45.8236 -45.8235 -45.8123 -45.8118 -45.7983 -45.7979
   -45.7181 -45.7179 -45.7137 -45.7135 -45.7041 -45.7041 -45.7005 -45.7004
   -45.6911 -45.6900 -45.6850 -45.6831 -45.6782 -45.6757 -45.6720 -45.6686
   -45.4626 -45.4626 -45.4618 -45.4618 -45.4506 -45.4506 -45.4498 -45.4498
   -45.3774 -45.3744 -45.3592 -45.3430 -45.3239 -45.3059 -45.2992 -45.2721
   -28.8999 -28.6613 -27.3998 -27.1876 -24.7922 -24.7921 -24.7912 -24.7911
   -24.7015 -24.7009 -24.6757 -24.6756 -24.6748 -24.6747 -24.6616 -24.6604
   -24.5753 -24.5746 -24.5355 -24.5343 -24.5105 -24.5102 -24.5021 -24.5014
   -24.3235 -24.3227 -24.3220 -24.3215 -24.2892 -24.2888 -24.2811 -24.2803
   -24.2047 -24.2043 -24.2007 -24.2005 -24.1366 -24.1365 -24.1339 -24.1337
   -24.0800 -24.0781 -24.0658 -24.0650 -24.0643 -24.0637 -24.0612 -24.0552
   -24.0004 -23.9967 -23.9845 -23.9763 -23.4972 -23.4972 -23.4967 -23.4967
   -23.4131 -23.4054 -23.3992 -23.3992 -23.3987 -23.3987 -23.3342 -23.3019
   -23.2767 -23.2207 -23.2102 -23.1363 -17.8846 -16.3177 -14.1322 -12.9019
   -11.2476 -11.1806 -10.8248 -10.6062  -9.6602  -9.1605  -8.4348  -8.0568
    -7.6172  -7.3178  -7.3175  -7.3150  -7.3146  -7.2551  -7.2547  -7.2489
    -7.2421  -7.2404  -7.1810  -7.1726  -7.1726  -7.1673  -7.1667  -7.1458
    -7.1451  -7.1434  -7.1424  -7.1210  -7.1204  -7.0996  -7.0989  -7.0904
    -7.0896  -7.0756  -7.0744  -7.0553  -7.0544  -7.0443  -7.0426  -7.0197
    -7.0196  -7.0157  -7.0154  -6.9662  -6.9654  -6.9492  -6.9331  -6.9091
    -6.7993  -6.7986  -6.7945  -6.7935  -6.7884  -6.7863  -6.7852  -6.7667
    -6.7656  -6.7047  -6.6344  -6.6340  -6.6323  -6.6319  -6.5316  -6.5205
    -6.5162  -6.4902  -6.4826  -6.3523  -6.3521  -6.3513  -6.3509  -6.3234
    -6.3230  -6.3061  -6.3054  -6.1910  -6.1909  -6.1879  -6.1872  -6.1195
    -6.1178  -6.1159  -6.1147  -6.0711  -6.0704  -6.0689  -6.0683  -6.0323
    -6.0298  -6.0225  -6.0219  -6.0026  -5.9994  -5.9968  -5.9925  -5.9899
    -5.8633  -5.8632  -5.8539  -5.8524  -5.7539  -5.7536  -5.7496  -5.7471
    -5.7437  -5.7431  -5.7430  -5.7429  -5.6943  -5.6932  -5.6906  -5.6852
    -5.6749  -5.6744  -5.6708  -5.6706  -5.6593  -5.6586  -5.6478  -5.6467
    -5.4609  -5.4604  -5.4603  -5.4599  -5.4582  -5.4579  -5.4575  -5.4569
    -5.4331  -5.4326  -5.4317  -5.4288  -5.4064  -5.4060  -5.3924  -5.3920
    -5.3768  -5.3732  -5.3689  -5.3605  -5.2823  -5.2820  -5.2803  -5.2794
    -5.2676  -5.2671  -5.2639  -5.2626  -5.2218  -5.2214  -5.2192  -5.2174
    -5.2168  -5.2166  -5.2075  -5.2030  -5.1466  -5.1453  -5.1448  -5.1444
    -5.1144  -5.1143  -5.1074  -5.1067  -5.1019  -5.1012  -5.0904  -5.0785
    -5.0672  -5.0246  -5.0212  -5.0097  -5.0076  -4.9901  -4.9871  -4.9865
    -4.9832  -4.9816  -4.9643  -4.9536  -4.9253  -4.8957  -4.8721  -4.8560
    -4.8229  -4.7936  -4.7933  -4.7904  -4.7861  -4.7247  -4.7190  -4.7034
    -4.7022  -4.7005  -4.6966  -4.6555  -4.6144  -4.5914  -4.5323  -4.5279
    -4.4808  -4.4808  -4.4804  -4.4804  -4.4620  -4.3668  -4.3443  -4.3104
    -4.2499

          k =-0.2500 0.3536 0.0000 (200411 PWs)   bands (ev):

   -46.4489 -46.4476 -46.4440 -46.4430 -46.4373 -46.4366 -46.4326 -46.4321
   -46.3737 -46.3725 -46.3115 -46.3106 -46.2608 -46.2550 -46.2104 -46.2094
   -45.8948 -45.8923 -45.8894 -45.8875 -45.8827 -45.8815 -45.8776 -45.8768
   -45.8391 -45.8369 -45.8243 -45.8226 -45.8133 -45.8113 -45.7988 -45.7975
   -45.7200 -45.7169 -45.7131 -45.7108 -45.7066 -45.7051 -45.7003 -45.6993
   -45.6930 -45.6888 -45.6854 -45.6826 -45.6790 -45.6756 -45.6721 -45.6687
   -45.4642 -45.4639 -45.4596 -45.4593 -45.4533 -45.4528 -45.4489 -45.4482
   -45.3775 -45.3744 -45.3593 -45.3431 -45.3240 -45.3060 -45.2993 -45.2722
   -28.9000 -28.6614 -27.3998 -27.1876 -24.8239 -24.7933 -24.7752 -24.7558
   -24.7230 -24.7033 -24.7020 -24.6901 -24.6632 -24.6596 -24.6501 -24.6355
   -24.5923 -24.5871 -24.5591 -24.5320 -24.5242 -24.4941 -24.4752 -24.4227
   -24.3895 -24.3427 -24.3315 -24.2934 -24.2929 -24.2786 -24.2720 -24.2482
   -24.2436 -24.2322 -24.2019 -24.1957 -24.1858 -24.1628 -24.1331 -24.1022
   -24.0927 -24.0882 -24.0784 -24.0651 -24.0554 -24.0396 -24.0375 -24.0327
   -24.0114 -23.9879 -23.9869 -23.9635 -23.5286 -23.4943 -23.4894 -23.4602
   -23.4328 -23.4257 -23.4108 -23.3946 -23.3919 -23.3751 -23.3333 -23.2955
   -23.2849 -23.2205 -23.2096 -23.1341 -17.8846 -16.3177 -14.1323 -12.9023
   -11.2477 -11.1808 -10.8248 -10.6064  -9.6605  -9.1609  -8.4342  -8.0562
    -7.6176  -7.5336  -7.4915  -7.4893  -7.3707  -7.2894  -7.2879  -7.2698
    -7.2617  -7.2606  -7.2480  -7.2396  -7.1879  -7.1776  -7.1590  -7.1411
    -7.1110  -7.1074  -7.0941  -7.0925  -7.0723  -7.0709  -7.0478  -7.0299
    -7.0097  -7.0043  -7.0021  -6.9984  -6.9795  -6.9744  -6.9679  -6.9445
    -6.9287  -6.9147  -6.9024  -6.8869  -6.8760  -6.8684  -6.8617  -6.8563
    -6.8531  -6.8196  -6.7884  -6.7704  -6.7351  -6.7305  -6.7203  -6.7164
    -6.7112  -6.7041  -6.6434  -6.6202  -6.6189  -6.5882  -6.5813  -6.5582
    -6.5362  -6.5294  -6.4845  -6.4775  -6.4666  -6.4605  -6.4446  -6.4244
    -6.4055  -6.3795  -6.2963  -6.2787  -6.2603  -6.2595  -6.2076  -6.1976
    -6.1857  -6.1684  -6.1525  -6.1244  -6.0908  -6.0901  -6.0522  -6.0436
    -6.0104  -6.0054  -6.0003  -5.9987  -5.9888  -5.9872  -5.9701  -5.9670
    -5.9219  -5.9215  -5.9091  -5.8848  -5.8795  -5.8353  -5.7818  -5.7738
    -5.7664  -5.7616  -5.7426  -5.7249  -5.6791  -5.6753  -5.6697  -5.6632
    -5.6612  -5.6595  -5.6233  -5.5968  -5.5950  -5.5894  -5.5738  -5.5056
    -5.4934  -5.4881  -5.4866  -5.4851  -5.4826  -5.4795  -5.4708  -5.4582
    -5.4519  -5.4466  -5.4398  -5.4363  -5.4297  -5.4145  -5.4037  -5.3962
    -5.3516  -5.3510  -5.3287  -5.3251  -5.3009  -5.2916  -5.2879  -5.2867
    -5.2805  -5.2691  -5.2594  -5.2450  -5.2266  -5.2260  -5.2131  -5.2098
    -5.1924  -5.1888  -5.1827  -5.1531  -5.1255  -5.1162  -5.1154  -5.1076
    -5.1075  -5.1073  -5.0947  -5.0943  -5.0725  -5.0598  -5.0510  -5.0465
    -5.0409  -5.0392  -5.0371  -5.0307  -5.0218  -4.9936  -4.9797  -4.9750
    -4.9618  -4.9401  -4.9324  -4.9261  -4.8994  -4.8871  -4.8609  -4.8475
    -4.8319  -4.8126  -4.8093  -4.7941  -4.7878  -4.7397  -4.7163  -4.7121
    -4.7001  -4.6954  -4.6884  -4.6737  -4.6528  -4.6207  -4.6066  -4.5960
    -4.5532  -4.5387  -4.4989  -4.4701  -4.4219  -4.3615  -4.3401  -4.2084
    -4.1589

     highest occupied level (ev):    -4.1067

!    total energy              =   -4345.71167970 Ry
     estimated scf accuracy    <          3.3E-09 Ry

     The total energy is the sum of the following terms:
     one-electron contribution = -103135.27054836 Ry
     hartree contribution      =   51711.55099426 Ry
     xc contribution           =    -998.21698251 Ry
     ewald contribution        =   48076.22485691 Ry

     convergence has been achieved in   7 iterations

     Forces acting on atoms (cartesian axes, Ry/au):

     atom    1 type  1   force =    -0.00000398   -0.00000007    0.00089531
     atom    2 type  1   force =     0.00001894    0.00000124    0.00065978
     atom    3 type  1   force =     0.00000655    0.00000063    0.00064109
     atom    4 type  1   force =     0.00000818   -0.00000008    0.00089820
     atom    5 type  2   force =    -0.00001562   -0.00000008   -0.00065980
     atom    6 type  2   force =     0.00000360   -0.00000046   -0.00063331
     atom    7 type  2   force =    -0.00000750   -0.00000059   -0.00063760
     atom    8 type  2   force =    -0.00000541   -0.00000009   -0.00063746
     atom    9 type  1   force =     0.00003936   -0.00000027    0.00036844
     atom   10 type  1   force =     0.00003135    0.00000374    0.00044147
     atom   11 type  1   force =     0.00009212    0.00001193    0.00054260
     atom   12 type  1   force =    -0.00001951   -0.00000016    0.00035260
     atom   13 type  2   force =    -0.00002644    0.00000030   -0.00056510
     atom   14 type  2   force =    -0.00003518   -0.00000352   -0.00084135
     atom   15 type  2   force =     0.00001704   -0.00000227   -0.00082050
     atom   16 type  2   force =    -0.00007759    0.00000056   -0.00068083
     atom   17 type  1   force =    -0.00009336   -0.00000068    0.00056457
     atom   18 type  1   force =     0.00043571    0.00010270    0.00100542
     atom   19 type  1   force =     0.00013948    0.00000842    0.00049813
     atom   20 type  1   force =     0.00018168   -0.00000196    0.00063189
     atom   21 type  2   force =    -0.00036312    0.00000595   -0.00046712
     atom   22 type  2   force =     0.00008352   -0.00001209   -0.00039590
     atom   23 type  2   force =    -0.00016964   -0.00002551   -0.00048399
     atom   24 type  2   force =    -0.00011889    0.00000459    0.00004790
     atom   25 type  1   force =     0.00079113   -0.00001360    0.00001363
     atom   26 type  1   force =     0.00026051   -0.00018778   -0.00176613
     atom   27 type  1   force =     0.00167266    0.00100401    0.00122426
     atom   28 type  1   force =    -0.00043933   -0.00000210   -0.00019473
     atom   29 type  2   force =    -0.00025062    0.00003518    0.00121814
     atom   30 type  2   force =    -0.00079544   -0.00017531   -0.00004699
     atom   31 type  2   force =     0.00041562   -0.00002465    0.00021724
     atom   32 type  2   force =    -0.00115704    0.00019718   -0.00042193
     atom   33 type  1   force =    -0.00000407    0.00000006    0.00089583
     atom   34 type  1   force =     0.00001894   -0.00000115    0.00065992
     atom   35 type  1   force =     0.00000660   -0.00000054    0.00064116
     atom   36 type  1   force =     0.00000851    0.00000006    0.00089892
     atom   37 type  2   force =    -0.00001589   -0.00000008   -0.00066369
     atom   38 type  2   force =     0.00000359    0.00000054   -0.00063330
     atom   39 type  2   force =    -0.00000750    0.00000068   -0.00063756
     atom   40 type  2   force =    -0.00000561   -0.00000007   -0.00063859
     atom   41 type  1   force =     0.00004366    0.00000022    0.00037537
     atom   42 type  1   force =     0.00003194   -0.00000366    0.00044250
     atom   43 type  1   force =     0.00009223   -0.00001181    0.00054428
     atom   44 type  1   force =    -0.00002080    0.00000011    0.00035673
     atom   45 type  2   force =    -0.00002857   -0.00000045   -0.00056752
     atom   46 type  2   force =    -0.00003522    0.00000367   -0.00084189
     atom   47 type  2   force =     0.00001701    0.00000242   -0.00082068
     atom   48 type  2   force =    -0.00008098   -0.00000068   -0.00072001
     atom   49 type  1   force =    -0.00011055    0.00000062    0.00058382
     atom   50 type  1   force =     0.00043763   -0.00010769    0.00102900
     atom   51 type  1   force =     0.00014657   -0.00000821    0.00050713
     atom   52 type  1   force =     0.00023293    0.00000176    0.00068069
     atom   53 type  2   force =    -0.00039339   -0.00001453   -0.00086056
     atom   54 type  2   force =     0.00008312    0.00001223   -0.00039704
     atom   55 type  2   force =    -0.00017010    0.00002538   -0.00048883
     atom   56 type  2   force =    -0.00014710   -0.00000410    0.00010851
     atom   57 type  1   force =     0.00130959    0.00003513    0.00011524
     atom   58 type  1   force =     0.00027169    0.00022201   -0.00175601
     atom   59 type  1   force =     0.00176299   -0.00074439    0.00140409
     atom   60 type  1   force =    -0.00066902    0.00000566   -0.00019609
     atom   61 type  2   force =    -0.00020966    0.00001779    0.00206466
     atom   62 type  2   force =    -0.00083597    0.00022318   -0.00008390
     atom   63 type  2   force =     0.00041361    0.00003144    0.00020895
     atom   64 type  2   force =    -0.00301614    0.00083432   -0.00426620
     atom   65 type  1   force =     0.00000396   -0.00000008    0.00090657
     atom   66 type  1   force =    -0.00001893    0.00000081    0.00065016
     atom   67 type  1   force =    -0.00000658    0.00000131    0.00066879
     atom   68 type  1   force =    -0.00000819   -0.00000007    0.00090365
     atom   69 type  2   force =     0.00001562   -0.00000012   -0.00064856
     atom   70 type  2   force =    -0.00000360   -0.00000080   -0.00064941
     atom   71 type  2   force =     0.00000748   -0.00000066   -0.00064529
     atom   72 type  2   force =     0.00000542   -0.00000010   -0.00067090
     atom   73 type  1   force =    -0.00003924   -0.00000017    0.00039994
     atom   74 type  1   force =    -0.00003161    0.00001252    0.00059098
     atom   75 type  1   force =    -0.00009189    0.00000623    0.00049147
     atom   76 type  1   force =     0.00001934   -0.00000029    0.00041583
     atom   77 type  2   force =     0.00002651    0.00000035   -0.00073925
     atom   78 type  2   force =     0.00003481   -0.00000418   -0.00088163
     atom   79 type  2   force =    -0.00001674   -0.00000541   -0.00090262
     atom   80 type  2   force =     0.00007749    0.00000009   -0.00062459
     atom   81 type  1   force =     0.00009068   -0.00000222    0.00084543
     atom   82 type  1   force =    -0.00043167    0.00004212    0.00076348
     atom   83 type  1   force =    -0.00014386    0.00010766    0.00124458
     atom   84 type  1   force =    -0.00017903   -0.00000072    0.00077739
     atom   85 type  2   force =     0.00036180    0.00000112   -0.00023664
     atom   86 type  2   force =    -0.00007780   -0.00004706   -0.00076129
     atom   87 type  2   force =     0.00016388   -0.00003315   -0.00066864
     atom   88 type  2   force =     0.00011949    0.00000373   -0.00073291
     atom   89 type  1   force =    -0.00073991   -0.00000134    0.00062356
     atom   90 type  1   force =    -0.00049129    0.00123254    0.00249123
     atom   91 type  1   force =    -0.00141743    0.00037497   -0.00009259
     atom   92 type  1   force =     0.00038732   -0.00002044    0.00087016
     atom   93 type  2   force =     0.00034467    0.00011895   -0.00129995
     atom   94 type  2   force =     0.00069835   -0.00027562   -0.00081096
     atom   95 type  2   force =    -0.00032900   -0.00037958   -0.00115294
     atom   96 type  2   force =     0.00105855    0.00003404    0.00018715
     atom   97 type  1   force =     0.00000398    0.00000006    0.00090762
     atom   98 type  1   force =    -0.00001893   -0.00000071    0.00065020
     atom   99 type  1   force =    -0.00000664   -0.00000122    0.00066888
     atom  100 type  1   force =    -0.00000846    0.00000005    0.00090452
     atom  101 type  2   force =     0.00001587   -0.00000004   -0.00065048
     atom  102 type  2   force =    -0.00000360    0.00000089   -0.00064942
     atom  103 type  2   force =     0.00000749    0.00000075   -0.00064525
     atom  104 type  2   force =     0.00000557   -0.00000007   -0.00067507
     atom  105 type  1   force =    -0.00004256    0.00000011    0.00040840
     atom  106 type  1   force =    -0.00003232   -0.00001243    0.00059210
     atom  107 type  1   force =    -0.00009189   -0.00000615    0.00049194
     atom  108 type  1   force =     0.00001967    0.00000023    0.00042708
     atom  109 type  2   force =     0.00002868   -0.00000045   -0.00077939
     atom  110 type  2   force =     0.00003487    0.00000432   -0.00088176
     atom  111 type  2   force =    -0.00001670    0.00000556   -0.00090319
     atom  112 type  2   force =     0.00008076   -0.00000023   -0.00063976
     atom  113 type  1   force =     0.00009212    0.00000202    0.00094124
     atom  114 type  1   force =    -0.00043141   -0.00004236    0.00076600
     atom  115 type  1   force =    -0.00015323   -0.00011076    0.00125530
     atom  116 type  1   force =    -0.00021448    0.00000062    0.00084448
     atom  117 type  2   force =     0.00040213   -0.00000155   -0.00033871
     atom  118 type  2   force =    -0.00007743    0.00004674   -0.00076698
     atom  119 type  2   force =     0.00016444    0.00003312   -0.00066922
     atom  120 type  2   force =     0.00014046   -0.00000895   -0.00109450
     atom  121 type  1   force =    -0.00107801    0.00000871    0.00119004
     atom  122 type  1   force =    -0.00055915   -0.00095771    0.00239539
     atom  123 type  1   force =    -0.00139319   -0.00031828   -0.00008436
     atom  124 type  1   force =     0.00041137    0.00003690    0.00167129
     atom  125 type  2   force =     0.00069879    0.00045270   -0.00390710
     atom  126 type  2   force =     0.00072057    0.00030052   -0.00081830
     atom  127 type  2   force =    -0.00030577    0.00043545   -0.00121977
     atom  128 type  2   force =     0.00169637    0.00004283   -0.00035272
     atom  129 type  3   force =     0.00107185    0.00014092   -0.00176323
     atom  130 type  3   force =    -0.00130386   -0.00084459    0.00870380
     atom  131 type  4   force =    -0.00089131   -0.00039665   -0.00015900
     atom  132 type  4   force =    -0.00000839    0.00059227   -0.00002601
     atom  133 type  4   force =     0.00037221   -0.00028789   -0.00009800
     atom  134 type  3   force =     0.00029694    0.00049552   -0.00411997
     atom  135 type  2   force =     0.00152587   -0.00205312   -0.00016379
     atom  136 type  4   force =    -0.00021474    0.00029428   -0.00118467
     atom  137 type  3   force =    -0.00025970   -0.00146487    0.01043914
     atom  138 type  2   force =     0.00058930    0.00011435   -0.00215595
     atom  139 type  4   force =    -0.00014746    0.00049874   -0.00102706
     atom  140 type  2   force =     0.00047093    0.00131036   -0.00170262
     atom  141 type  2   force =     0.00076504   -0.00178319   -0.00231789
     atom  142 type  4   force =    -0.00149346    0.00086370   -0.00368830

     Total force =     0.020447     Total SCF correction =     0.000202


     Computing stress (Cartesian axis) and pressure

          total   stress  (Ry/bohr**3)                   (kbar)     P=      -51.77
  -0.00029217   0.00000007  -0.00000041          -42.98        0.01       -0.06
   0.00000007  -0.00042943  -0.00000005            0.01      -63.17       -0.01
  -0.00000041  -0.00000005  -0.00033420           -0.06       -0.01      -49.16


     BFGS Geometry Optimization
     Energy error            =      4.2E-04 Ry
     Gradient error          =      1.0E-02 Ry/Bohr

     number of scf cycles    =   1
     number of bfgs steps    =   0

     energy             new  =   -4345.7116796988 Ry

     new trust radius        =       0.0105446184 bohr
     new conv_thr            =       0.0000000100 Ry


ATOMIC_POSITIONS (angstrom)
Li              -0.0000058188       -0.0000000711       15.2239798732
Li               4.3311526966        2.0417149160       16.3543602836
Li               1.4437176473        2.0417142078       16.3543361714
Li               2.8874306980       -0.0000000868       15.2239835507
F                4.3311077527       -0.0000001423       16.4348594789
F                0.0000050373        2.0417131077       15.0840326358
F                2.8874087990        2.0417129679       15.0840275763
F                1.4437025287       -0.0000001468       16.4348879865
Li               2.8874695052        8.1668566880       17.9585185931
Li               1.4437478927        2.0417173695       19.3058195904
Li               4.3312444736        2.0417269954       19.3059441670
Li              11.5496507710        8.1668567673       17.9584991830
F                1.4436769064        0.0000001066       19.3300414498
F                2.8873738487        2.0417097875       17.9179111411
F                0.0000223573        2.0417111478       17.9179359192
F                4.3310299471        0.0000002505       19.3299015958
Li              11.5495587181        8.1668564732       20.8014427279
Li               4.3316661333        2.0418345043       22.1491815541
Li               1.4438758536        2.0417215232       22.1485787052
Li               2.8876449516        8.1668555822       20.8015236508
F                4.3306846779        0.0000034368       22.1864117171
F               11.5497840329        2.0416998974       20.7746764671
F                2.8872041329        2.0416848174       20.7745712238
F                1.4435702302        0.0000030318       22.1870175606
Li               2.8883988103       -0.0000103942       23.7525015381
Li               1.4440507095        2.0415187861       24.8810899798
Li               4.3332110720        2.0428902888       24.8846090722
Li              11.5491300464       -0.0000015940       23.7522521163
F                1.4433950170        0.0000321008       25.0225273200
F                2.8863488379        2.0415091189       23.6701277507
F                0.0005637682        2.0416768500       23.6704684754
F                4.3296673571        0.0001854649       25.0206021292
Li              -0.0000059458        4.0834271806       15.2239804447
Li               4.3311526936        6.1251394576       16.3543603380
Li               1.4437176836        6.1251401679       16.3543361878
Li               2.8874311172        4.0834271887       15.2239843578
F                4.3311073980        4.0834270857       16.4348553233
F                0.0000050248        6.1251412646       15.0840327383
F                2.8874088003        6.1251414047       15.0840276692
F                1.4437022916        4.0834270909       16.4348867642
Li               2.8874745888        4.0834272911       17.9585262367
Li               1.4437483134        6.1251369962       19.3058202368
Li               4.3312444567        6.1251273937       19.3059451803
Li              11.5496490808        4.0834272099       17.9585037676
F                1.4436742046        4.0834268503       19.3300376275
F                2.8873738299        6.1251446552       17.9179108182
F                0.0000223216        6.1251433007       17.9179358503
F                4.3310253164        4.0834267253       19.3298593623
Li              -0.0001396869        4.0834275032       20.8014662469
Li               4.3316664238        6.1250155175       22.1491978933
Li               1.4438807098        6.1251328694       22.1485848493
Li               2.8877062538        4.0834283157       20.8015810794
F                4.3306398853        4.0834159521       22.1859891261
F               11.5497835829        6.1251545532       20.7746758050
F                2.8872038496        6.1251694841       20.7745679325
F                1.4435367069        4.0834242786       22.1870729599
Li               2.8891001184        4.0834522167       23.7527133590
Li               1.4440506630        6.1253744499       24.8810921448
Li               4.3332897324        6.1242542512       24.8847309825
Li              -0.0008501496        4.0834311636       23.7522742785
F                1.4434255879        4.0834558521       25.0234614349
F                2.8863172559        6.1253793911       23.6701045021
F               11.5502370087        6.1251826103       23.6704626720
F                4.3274713551        4.0843897725       25.0161727188
Li               5.7748438421       -0.0000000819       15.2239945415
Li              10.1059424650        2.0417144341       16.3543481103
Li               7.2185393828        2.0417150264       16.3543721462
Li               8.6622454107       -0.0000000733       15.2239908348
F               10.1059873649       -0.0000001693       16.4348736113
F                5.7748330242        2.0417127381       15.0840129033
F                8.6622672935        2.0417128816       15.0840179023
F                7.2185545775        8.1668567468       16.4348451432
Li               8.6622067695        8.1668567901       17.9585584359
Li               7.2185084837        2.0417280432       19.3060048222
Li              10.1058513227        2.0417206008       19.3058820665
Li               5.7748632996        8.1668566964       17.9585779740
F                7.2185805170        0.0000000394       19.3298303856
F                8.6623018355        2.0417089103       17.9178616371
F                5.7748160588        2.0417075679       17.9178364972
F               10.1060648157        8.1668567994       19.3299689210
Li               5.7749524356        8.1668556008       20.8017862753
Li              10.1054400560        2.0417643351       22.1488945989
Li               7.2183698557        2.0418442849       22.1494687705
Li               8.6620342470        8.1668567898       20.8017033798
F               10.1064046428       -0.0000001948       22.1866826018
F                5.7747368722        2.0416591883       20.7742334376
F                8.6624652907        2.0416745372       20.7743458053
F                7.2186922081        0.0000012613       22.1860978571
Li               8.6613337164        8.1668585888       23.7532329985
Li               7.2179158018        2.0431499553       24.8860531364
Li              10.1042039949        2.0421567362       24.8830259257
Li               5.7753268705       -0.0000161726       23.7535285256
F                7.2189851258        0.0001039604       25.0195779792
F                8.6632112624        2.0413645361       23.6691762439
F                5.7743826189        2.0412252302       23.6687309214
F               10.1072997420        0.0000289521       25.0213264085
Li               5.7748439033        4.0834271845       15.2239957368
Li              10.1059424794        6.1251399463       16.3543480981
Li               7.2185393348        6.1251393489       16.3543721637
Li               8.6622450602        4.0834271761       15.2239918042
F               10.1059877073        4.0834271195       16.4348714670
F                5.7748330277        6.1251416369       15.0840129870
F                8.6622672946        6.1251414994       15.0840180050
F                7.2185547784        4.0834271011       16.4348406132
Li               8.6622027930        4.0834271852       17.9585681106
Li               7.2185079166        6.1251263285       19.3060053064
Li              10.1058514833        6.1251337658       19.3058821824
Li               5.7748638917        4.0834272826       17.9585907061
F                7.2185832271        4.0834269490       19.3297855760
F                8.6623018723        6.1251455335       17.9178616920
F                5.7748161000        6.1251468815       17.9178362280
F               10.1060693459        4.0834270688       19.3299512542
Li               5.7749568029        4.0834283087       20.8019005875
Li              10.1054423672        6.1250897492       22.1488944656
Li               7.2183623157        6.1250074223       22.1494740827
Li               8.6619908031        4.0834271653       20.8017847962
F               10.1064584233        4.0834267941       22.1865573834
F                5.7747373222        6.1251949738       20.7742301642
F                8.6624656417        6.1251798063       20.7743466120
F                7.2187191350        4.0834210836       22.1856808899
Li               8.6608773276        4.0834270646       23.7539721191
Li               7.2178608869        6.1240068195       24.8858858226
Li              10.1042435528        6.1247604670       24.8830182473
Li               5.7753776298        4.0834473113       23.7545830947
F                7.2194451966        4.0839573512       25.0165560084
F                8.6632245546        6.1255056381       23.6691851622
F                5.7744054293        6.1256629422       23.6686943994
F               10.1080785420        4.0834844467       25.0206924175
C                3.7963105328        4.0093726617       29.4480975609
C                5.1557206709        4.1996988601       28.8072288416
H                3.0247734078        4.2028087847       28.6947630817
H                3.6898492848        2.9813285388       29.8138701542
H                3.6652748035        4.7074467332       30.2835571708
C                6.3331101920        3.9733787448       29.7610345880
F                5.2586827365        3.3447022764       27.7292335216
H                6.2440653530        2.9607452249       30.1807686568
C                7.7494727527        4.1105295466       29.2171704349
F                5.2197691414        5.4876193566       28.2914426251
H                6.2343405513        4.6780783433       30.5998544181
F                7.9802750766        5.3659806014       28.7038274734
F                8.0035765084        3.2021648154       28.2199879572
H                8.4933512617        3.9414291502       30.0116843906



     Writing config-only to output data dir ./tmp/LiF_PVDF/LiF_PVDF.save/ :
     XML data file
     NEW-OLD atomic charge density approx. for the potential

     total cpu time spent up to now is      852.6 secs

     per-process dynamical memory:   151.3 Mb

     Self-consistent Calculation

     iteration #  1     ecut=    60.00 Ry     beta= 0.30
     Davidson diagonalization with overlap
     ethr =  1.00E-06,  avg # of iterations =  4.0

     Threshold (ethr) on eigenvalues was too large:
     Diagonalizing with lowered threshold

     Davidson diagonalization with overlap
     ethr =  6.92E-09,  avg # of iterations =  4.0

     total cpu time spent up to now is      934.2 secs

     total energy              =   -4345.71190340 Ry
     estimated scf accuracy    <       0.00005372 Ry

     iteration #  2     ecut=    60.00 Ry     beta= 0.30
     Davidson diagonalization with overlap
     ethr =  7.79E-09,  avg # of iterations =  4.0

     total cpu time spent up to now is      965.5 secs

     total energy              =   -4345.71189864 Ry
     estimated scf accuracy    <       0.00001823 Ry

     iteration #  3     ecut=    60.00 Ry     beta= 0.30
     Davidson diagonalization with overlap
     ethr =  2.64E-09,  avg # of iterations =  4.0

     total cpu time spent up to now is      998.5 secs

     total energy              =   -4345.71190079 Ry
     estimated scf accuracy    <       0.00000161 Ry

     iteration #  4     ecut=    60.00 Ry     beta= 0.30
     Davidson diagonalization with overlap
     ethr =  2.33E-10,  avg # of iterations =  4.0

     total cpu time spent up to now is     1030.2 secs

     total energy              =   -4345.71190099 Ry
     estimated scf accuracy    <       0.00000023 Ry

     iteration #  5     ecut=    60.00 Ry     beta= 0.30
     Davidson diagonalization with overlap
     ethr =  3.40E-11,  avg # of iterations =  5.0

     total cpu time spent up to now is     1062.8 secs

     total energy              =   -4345.71190102 Ry
     estimated scf accuracy    <       0.00000007 Ry

     iteration #  6     ecut=    60.00 Ry     beta= 0.30
     Davidson diagonalization with overlap
     ethr =  9.52E-12,  avg # of iterations =  4.0

     total cpu time spent up to now is     1095.8 secs

     End of self-consistent calculation

          k = 0.0000 0.0000 0.0000 (200173 PWs)   bands (ev):

   -46.4291 -46.4269 -46.4199 -46.4199 -46.4188 -46.4188 -46.4114 -46.4101
   -46.3702 -46.3685 -46.3150 -46.3136 -46.2703 -46.2637 -46.2256 -46.2238
   -45.8837 -45.8796 -45.8740 -45.8738 -45.8719 -45.8716 -45.8648 -45.8634
   -45.8369 -45.8334 -45.8228 -45.8205 -45.8136 -45.8107 -45.8000 -45.7980
   -45.7129 -45.7074 -45.7025 -45.7017 -45.6993 -45.6985 -45.6916 -45.6900
   -45.6885 -45.6821 -45.6799 -45.6765 -45.6755 -45.6709 -45.6677 -45.6643
   -45.4484 -45.4476 -45.4398 -45.4398 -45.4393 -45.4393 -45.4319 -45.4305
   -45.3766 -45.3735 -45.3591 -45.3418 -45.3279 -45.3113 -45.3044 -45.2795
   -28.8602 -28.6308 -27.3651 -27.1630 -24.8217 -24.7756 -24.7355 -24.7262
   -24.7261 -24.7108 -24.7108 -24.6865 -24.6450 -24.6354 -24.6270 -24.6235
   -24.6190 -24.6033 -24.5704 -24.5357 -24.5191 -24.4453 -24.4447 -24.4064
   -24.3881 -24.3292 -24.3291 -24.3119 -24.3112 -24.2901 -24.2504 -24.2337
   -24.2287 -24.2154 -24.2135 -24.1995 -24.1982 -24.1609 -24.1293 -24.1293
   -24.0756 -24.0731 -24.0652 -24.0469 -24.0465 -24.0399 -24.0178 -24.0167
   -23.9892 -23.9854 -23.9828 -23.9587 -23.5202 -23.4708 -23.4455 -23.4455
   -23.4318 -23.4093 -23.4093 -23.3879 -23.3683 -23.3457 -23.3327 -23.3028
   -23.2926 -23.2330 -23.2184 -23.1491 -17.9420 -16.3681 -14.1704 -12.9040
   -11.2443 -11.1891 -10.8067 -10.6278  -9.6712  -9.1537  -8.4423  -8.0676
    -7.6389  -7.6153  -7.6058  -7.5818  -7.3984  -7.3467  -7.3108  -7.3105
    -7.2940  -7.2390  -7.2014  -7.1640  -7.1515  -7.1513  -7.1448  -7.1363
    -7.1347  -7.1345  -7.1339  -7.0235  -7.0233  -6.9950  -6.9926  -6.9799
    -6.9791  -6.9471  -6.9427  -6.9350  -6.9338  -6.9178  -6.9030  -6.9023
    -6.8982  -6.8636  -6.8440  -6.8228  -6.8207  -6.7883  -6.7819  -6.7795
    -6.7769  -6.7533  -6.7514  -6.7466  -6.7455  -6.7315  -6.7237  -6.7229
    -6.7146  -6.6985  -6.6561  -6.6546  -6.5944  -6.5943  -6.5733  -6.5732
    -6.5245  -6.5179  -6.5070  -6.5043  -6.5026  -6.5013  -6.4970  -6.4845
    -6.3939  -6.3067  -6.2682  -6.2667  -6.2649  -6.2610  -6.2424  -6.2153
    -6.2150  -6.2119  -6.2055  -6.2020  -6.1880  -6.1836  -6.1748  -6.1431
    -6.0570  -6.0563  -6.0307  -6.0118  -6.0101  -6.0086  -5.9977  -5.9445
    -5.9209  -5.9067  -5.8239  -5.8201  -5.8125  -5.8117  -5.8065  -5.8062
    -5.7922  -5.7915  -5.7799  -5.7698  -5.7142  -5.7051  -5.7025  -5.6992
    -5.6689  -5.5774  -5.5638  -5.5635  -5.5468  -5.5464  -5.5295  -5.5287
    -5.5175  -5.5071  -5.5069  -5.4991  -5.4965  -5.4933  -5.4909  -5.4899
    -5.4880  -5.4439  -5.4371  -5.4185  -5.4012  -5.3394  -5.3241  -5.3002
    -5.2835  -5.2717  -5.2660  -5.2625  -5.2574  -5.2510  -5.2493  -5.2483
    -5.2371  -5.2369  -5.2168  -5.2130  -5.2053  -5.2036  -5.2015  -5.2004
    -5.1824  -5.1740  -5.1642  -5.1638  -5.1557  -5.1452  -5.1447  -5.1431
    -5.1281  -5.1257  -5.1256  -5.0968  -5.0438  -5.0355  -5.0267  -5.0230
    -5.0229  -5.0149  -5.0012  -4.9910  -4.9791  -4.9694  -4.9544  -4.9544
    -4.9309  -4.9164  -4.8806  -4.8779  -4.8738  -4.8711  -4.8627  -4.8326
    -4.8245  -4.8233  -4.8136  -4.7977  -4.7817  -4.7673  -4.7653  -4.7265
    -4.7104  -4.7031  -4.6934  -4.6655  -4.6495  -4.6418  -4.6418  -4.6090
    -4.5945  -4.5665  -4.5230  -4.4848  -4.4525  -4.2987  -4.2598  -4.1704
    -4.1172

          k = 0.0000 0.3536 0.0000 (200366 PWs)   bands (ev):

   -46.4288 -46.4273 -46.4199 -46.4199 -46.4189 -46.4189 -46.4111 -46.4107
   -46.3701 -46.3688 -46.3148 -46.3139 -46.2703 -46.2638 -46.2255 -46.2240
   -45.8831 -45.8803 -45.8738 -45.8736 -45.8722 -45.8719 -45.8646 -45.8640
   -45.8364 -45.8340 -45.8226 -45.8209 -45.8133 -45.8112 -45.7998 -45.7985
   -45.7123 -45.7086 -45.7021 -45.7013 -45.6999 -45.6990 -45.6913 -45.6906
   -45.6874 -45.6828 -45.6795 -45.6768 -45.6750 -45.6713 -45.6679 -45.6645
   -45.4483 -45.4478 -45.4399 -45.4399 -45.4394 -45.4393 -45.4316 -45.4310
   -45.3766 -45.3736 -45.3592 -45.3419 -45.3280 -45.3114 -45.3045 -45.2796
   -28.8602 -28.6308 -27.3651 -27.1630 -24.8152 -24.7826 -24.7286 -24.7241
   -24.7238 -24.7131 -24.7131 -24.6936 -24.6419 -24.6330 -24.6267 -24.6236
   -24.6213 -24.6068 -24.5613 -24.5336 -24.5216 -24.4748 -24.4386 -24.4381
   -24.3767 -24.3766 -24.3304 -24.2935 -24.2629 -24.2623 -24.2472 -24.2319
   -24.2303 -24.2169 -24.2049 -24.2034 -24.1955 -24.1366 -24.1217 -24.1212
   -24.0839 -24.0612 -24.0610 -24.0601 -24.0578 -24.0367 -24.0360 -24.0210
   -24.0002 -23.9950 -23.9821 -23.9630 -23.5131 -23.4782 -23.4402 -23.4402
   -23.4254 -23.4147 -23.4147 -23.3942 -23.3651 -23.3490 -23.3286 -23.3003
   -23.2969 -23.2357 -23.2171 -23.1505 -17.9420 -16.3681 -14.1704 -12.9038
   -11.2444 -11.1890 -10.8069 -10.6278  -9.6713  -9.1535  -8.4432  -8.0685
    -7.6389  -7.5585  -7.5286  -7.5079  -7.3966  -7.3027  -7.2973  -7.2820
    -7.2793  -7.2394  -7.2014  -7.1594  -7.1577  -7.1423  -7.1313  -7.1312
    -7.1243  -7.1238  -7.1013  -7.0973  -7.0581  -7.0563  -7.0407  -6.9868
    -6.9711  -6.9675  -6.9666  -6.9656  -6.9615  -6.9595  -6.9440  -6.9195
    -6.9182  -6.9079  -6.9039  -6.9036  -6.8917  -6.8588  -6.8286  -6.8255
    -6.7890  -6.7879  -6.7794  -6.7662  -6.7409  -6.7335  -6.7054  -6.7050
    -6.7036  -6.6985  -6.6254  -6.6030  -6.5916  -6.5898  -6.5861  -6.5850
    -6.5251  -6.5239  -6.5231  -6.5136  -6.5122  -6.5098  -6.4443  -6.4402
    -6.4400  -6.4172  -6.2969  -6.2963  -6.2836  -6.2835  -6.2447  -6.1728
    -6.1712  -6.1399  -6.1351  -6.0941  -6.0692  -6.0690  -6.0598  -6.0375
    -6.0357  -6.0303  -6.0165  -5.9800  -5.9537  -5.9323  -5.9311  -5.8987
    -5.8755  -5.8736  -5.8570  -5.8241  -5.8239  -5.8001  -5.7939  -5.7926
    -5.7896  -5.7678  -5.7662  -5.7395  -5.6934  -5.6899  -5.6714  -5.6709
    -5.6562  -5.5736  -5.5734  -5.5673  -5.5655  -5.5599  -5.5556  -5.5482
    -5.5450  -5.5389  -5.5295  -5.5131  -5.5106  -5.4901  -5.4866  -5.4855
    -5.4614  -5.4555  -5.4539  -5.4486  -5.4434  -5.4363  -5.4306  -5.4129
    -5.3873  -5.3865  -5.3436  -5.2745  -5.2738  -5.2649  -5.2550  -5.2475
    -5.2457  -5.2390  -5.2334  -5.2329  -5.1959  -5.1911  -5.1880  -5.1855
    -5.1848  -5.1793  -5.1787  -5.1708  -5.1383  -5.1308  -5.1020  -5.0992
    -5.0950  -5.0935  -5.0782  -5.0770  -5.0547  -5.0544  -5.0486  -5.0347
    -5.0265  -5.0174  -4.9996  -4.9892  -4.9825  -4.9754  -4.9532  -4.9412
    -4.9282  -4.9282  -4.8943  -4.8936  -4.8739  -4.8731  -4.8701  -4.8531
    -4.8435  -4.8081  -4.8030  -4.7939  -4.7754  -4.7645  -4.7524  -4.7180
    -4.7070  -4.7001  -4.6802  -4.6648  -4.6574  -4.6549  -4.6538  -4.6071
    -4.5889  -4.5685  -4.5265  -4.4944  -4.4560  -4.2928  -4.2654  -4.1666
    -4.1207

          k = 0.0000-0.7071 0.0000 (200506 PWs)   bands (ev):

   -46.4282 -46.4281 -46.4195 -46.4195 -46.4194 -46.4194 -46.4110 -46.4109
   -46.3699 -46.3691 -46.3146 -46.3143 -46.2704 -46.2639 -46.2254 -46.2242
   -45.8819 -45.8816 -45.8732 -45.8730 -45.8729 -45.8726 -45.8645 -45.8641
   -45.8354 -45.8351 -45.8219 -45.8217 -45.8126 -45.8120 -45.7994 -45.7989
   -45.7108 -45.7106 -45.7012 -45.7010 -45.7004 -45.7002 -45.6911 -45.6910
   -45.6855 -45.6843 -45.6790 -45.6772 -45.6744 -45.6718 -45.6680 -45.6646
   -45.4481 -45.4481 -45.4397 -45.4397 -45.4397 -45.4396 -45.4314 -45.4314
   -45.3767 -45.3736 -45.3592 -45.3419 -45.3280 -45.3114 -45.3046 -45.2796
   -28.8602 -28.6308 -27.3651 -27.1630 -24.7991 -24.7990 -24.7188 -24.7187
   -24.7187 -24.7186 -24.7115 -24.7105 -24.6344 -24.6343 -24.6277 -24.6264
   -24.6158 -24.6148 -24.5316 -24.5311 -24.5282 -24.5269 -24.4168 -24.4166
   -24.4163 -24.4160 -24.3039 -24.3033 -24.2402 -24.2392 -24.2277 -24.2274
   -24.2234 -24.2230 -24.2190 -24.2188 -24.1361 -24.1359 -24.0955 -24.0951
   -24.0943 -24.0937 -24.0851 -24.0816 -24.0304 -24.0291 -24.0289 -24.0277
   -24.0268 -24.0221 -23.9764 -23.9695 -23.4958 -23.4957 -23.4275 -23.4275
   -23.4275 -23.4275 -23.4120 -23.4076 -23.3570 -23.3570 -23.3230 -23.3027
   -23.2975 -23.2387 -23.2158 -23.1520 -17.9420 -16.3681 -14.1703 -12.9037
   -11.2447 -11.1890 -10.8072 -10.6278  -9.6713  -9.1534  -8.4440  -8.0693
    -7.6388  -7.4485  -7.4483  -7.3882  -7.3868  -7.2562  -7.2551  -7.2457
    -7.2448  -7.2393  -7.2244  -7.2239  -7.2012  -7.1341  -7.1330  -7.1002
    -7.1000  -7.0999  -7.0990  -7.0711  -7.0709  -7.0601  -7.0598  -7.0568
    -7.0561  -7.0554  -7.0547  -7.0494  -7.0472  -6.9994  -6.9935  -6.9428
    -6.9287  -6.9286  -6.9275  -6.9258  -6.8647  -6.8633  -6.8632  -6.8621
    -6.8184  -6.8164  -6.8159  -6.8140  -6.7785  -6.7694  -6.7682  -6.7000
    -6.6428  -6.6428  -6.6271  -6.6263  -6.6243  -6.6234  -6.5582  -6.5577
    -6.5552  -6.5540  -6.5451  -6.5426  -6.5190  -6.3822  -6.3819  -6.3815
    -6.3813  -6.3284  -6.3278  -6.3276  -6.3262  -6.2842  -6.2835  -6.0653
    -6.0650  -6.0352  -6.0348  -6.0312  -6.0085  -6.0085  -6.0082  -6.0076
    -5.9741  -5.9722  -5.9454  -5.9448  -5.9437  -5.9404  -5.9311  -5.9309
    -5.9303  -5.9298  -5.8469  -5.8467  -5.7805  -5.7793  -5.7632  -5.7630
    -5.7621  -5.7610  -5.7488  -5.7471  -5.6578  -5.6571  -5.6462  -5.6454
    -5.6284  -5.6273  -5.5937  -5.5924  -5.5791  -5.5790  -5.5785  -5.5784
    -5.5334  -5.5316  -5.5315  -5.5292  -5.5053  -5.5048  -5.4973  -5.4964
    -5.4951  -5.4927  -5.4559  -5.4513  -5.4471  -5.4454  -5.3912  -5.3911
    -5.3901  -5.3900  -5.3747  -5.3742  -5.3726  -5.3714  -5.2660  -5.2658
    -5.2627  -5.2625  -5.2589  -5.2584  -5.2556  -5.2542  -5.1996  -5.1874
    -5.1660  -5.1652  -5.1582  -5.1557  -5.1324  -5.1305  -5.1258  -5.1038
    -5.1036  -5.1028  -5.1023  -5.0688  -5.0675  -5.0625  -5.0621  -5.0414
    -5.0398  -4.9858  -4.9827  -4.9682  -4.9625  -4.9618  -4.9591  -4.9569
    -4.9283  -4.8959  -4.8918  -4.8819  -4.8818  -4.8815  -4.8803  -4.8693
    -4.8543  -4.7906  -4.7905  -4.7722  -4.7693  -4.7685  -4.7540  -4.6978
    -4.6848  -4.6844  -4.6843  -4.6838  -4.6704  -4.6673  -4.6668  -4.6033
    -4.5887  -4.5727  -4.5294  -4.5062  -4.4592  -4.2796  -4.2796  -4.1630
    -4.1254

          k = 0.2500 0.0000 0.0000 (200254 PWs)   bands (ev):

   -46.4283 -46.4263 -46.4234 -46.4220 -46.4166 -46.4156 -46.4119 -46.4110
   -46.3702 -46.3685 -46.3150 -46.3136 -46.2703 -46.2637 -46.2255 -46.2239
   -45.8829 -45.8791 -45.8774 -45.8747 -45.8705 -45.8689 -45.8654 -45.8643
   -45.8367 -45.8334 -45.8232 -45.8207 -45.8133 -45.8106 -45.8000 -45.7982
   -45.7123 -45.7070 -45.7055 -45.7017 -45.6985 -45.6962 -45.6922 -45.6907
   -45.6884 -45.6821 -45.6808 -45.6767 -45.6748 -45.6708 -45.6680 -45.6645
   -45.4477 -45.4470 -45.4431 -45.4426 -45.4368 -45.4361 -45.4324 -45.4314
   -45.3766 -45.3735 -45.3591 -45.3418 -45.3279 -45.3113 -45.3045 -45.2795
   -28.8602 -28.6308 -27.3651 -27.1630 -24.8147 -24.7707 -24.7636 -24.7358
   -24.7296 -24.6879 -24.6858 -24.6837 -24.6667 -24.6501 -24.6333 -24.6316
   -24.5946 -24.5888 -24.5615 -24.5388 -24.5263 -24.4953 -24.4006 -24.3876
   -24.3825 -24.3588 -24.3406 -24.2993 -24.2831 -24.2823 -24.2712 -24.2565
   -24.2396 -24.2326 -24.2090 -24.1826 -24.1721 -24.1626 -24.1552 -24.1060
   -24.0955 -24.0627 -24.0499 -24.0469 -24.0449 -24.0420 -24.0246 -24.0162
   -23.9955 -23.9915 -23.9761 -23.9581 -23.5146 -23.4744 -23.4662 -23.4331
   -23.4306 -23.4163 -23.3870 -23.3852 -23.3743 -23.3506 -23.3415 -23.2980
   -23.2905 -23.2303 -23.2204 -23.1500 -17.9420 -16.3681 -14.1704 -12.9040
   -11.2443 -11.1892 -10.8067 -10.6279  -9.6714  -9.1536  -8.4423  -8.0677
    -7.6388  -7.5839  -7.5706  -7.5347  -7.3568  -7.3471  -7.3181  -7.3154
    -7.2733  -7.2702  -7.2532  -7.2392  -7.2197  -7.1988  -7.1527  -7.1325
    -7.1056  -7.0976  -7.0941  -7.0725  -7.0677  -7.0411  -6.9878  -6.9874
    -6.9774  -6.9639  -6.9439  -6.9204  -6.9132  -6.9040  -6.8951  -6.8919
    -6.8730  -6.8593  -6.8515  -6.8317  -6.8099  -6.8085  -6.8028  -6.7843
    -6.7783  -6.7728  -6.7619  -6.7461  -6.7431  -6.7395  -6.7334  -6.7309
    -6.6990  -6.6973  -6.6827  -6.6312  -6.6285  -6.5837  -6.5592  -6.5262
    -6.5232  -6.5104  -6.4964  -6.4829  -6.4536  -6.4409  -6.4361  -6.4247
    -6.4148  -6.3439  -6.3319  -6.3241  -6.3223  -6.2890  -6.2804  -6.2563
    -6.2533  -6.2222  -6.1512  -6.1494  -6.1420  -6.1363  -6.1181  -6.0853
    -6.0707  -6.0666  -6.0336  -6.0309  -5.9986  -5.9848  -5.9789  -5.9730
    -5.9537  -5.9407  -5.9246  -5.8801  -5.8674  -5.8655  -5.7956  -5.7790
    -5.7781  -5.7208  -5.7111  -5.7073  -5.6913  -5.6819  -5.6750  -5.6697
    -5.6595  -5.6499  -5.6184  -5.5992  -5.5826  -5.5792  -5.5580  -5.5413
    -5.5279  -5.5155  -5.4983  -5.4937  -5.4405  -5.4323  -5.4211  -5.4143
    -5.4124  -5.4068  -5.4045  -5.3754  -5.3743  -5.3728  -5.3687  -5.3339
    -5.3182  -5.3098  -5.2735  -5.2631  -5.2553  -5.2514  -5.2476  -5.2475
    -5.2406  -5.2208  -5.2109  -5.2098  -5.2089  -5.2066  -5.2012  -5.1957
    -5.1851  -5.1832  -5.1771  -5.1741  -5.1524  -5.1452  -5.1401  -5.1283
    -5.1231  -5.1069  -5.0992  -5.0969  -5.0795  -5.0690  -5.0652  -5.0418
    -5.0307  -5.0198  -5.0129  -5.0029  -4.9931  -4.9858  -4.9780  -4.9685
    -4.9544  -4.9338  -4.9313  -4.9139  -4.8894  -4.8731  -4.8703  -4.8374
    -4.8241  -4.8218  -4.8014  -4.7950  -4.7617  -4.7430  -4.7115  -4.6986
    -4.6887  -4.6808  -4.6692  -4.6667  -4.6420  -4.6227  -4.5993  -4.5767
    -4.5647  -4.5438  -4.5091  -4.4773  -4.4244  -4.3436  -4.3152  -4.2159
    -4.1688

          k = 0.2500 0.3536 0.0000 (200411 PWs)   bands (ev):

   -46.4281 -46.4268 -46.4232 -46.4222 -46.4165 -46.4158 -46.4118 -46.4113
   -46.3700 -46.3688 -46.3148 -46.3139 -46.2703 -46.2638 -46.2255 -46.2241
   -45.8824 -45.8798 -45.8771 -45.8751 -45.8703 -45.8691 -45.8653 -45.8645
   -45.8363 -45.8340 -45.8228 -45.8212 -45.8130 -45.8111 -45.7998 -45.7985
   -45.7117 -45.7082 -45.7051 -45.7025 -45.6982 -45.6966 -45.6921 -45.6911
   -45.6873 -45.6827 -45.6802 -45.6770 -45.6745 -45.6711 -45.6680 -45.6646
   -45.4476 -45.4473 -45.4430 -45.4427 -45.4367 -45.4362 -45.4323 -45.4316
   -45.3766 -45.3736 -45.3592 -45.3419 -45.3280 -45.3114 -45.3045 -45.2796
   -28.8602 -28.6308 -27.3651 -27.1630 -24.8084 -24.7774 -24.7596 -24.7399
   -24.7230 -24.6904 -24.6876 -24.6861 -24.6619 -24.6474 -24.6381 -24.6343
   -24.5937 -24.5897 -24.5528 -24.5371 -24.5281 -24.4877 -24.4678 -24.4154
   -24.3825 -24.3353 -24.3248 -24.2866 -24.2863 -24.2712 -24.2641 -24.2415
   -24.2369 -24.2260 -24.1902 -24.1890 -24.1793 -24.1512 -24.1309 -24.0907
   -24.0870 -24.0812 -24.0670 -24.0542 -24.0437 -24.0350 -24.0309 -24.0278
   -24.0101 -23.9872 -23.9848 -23.9633 -23.5076 -23.4734 -23.4684 -23.4392
   -23.4243 -23.4118 -23.3932 -23.3898 -23.3709 -23.3541 -23.3374 -23.3005
   -23.2899 -23.2329 -23.2191 -23.1514 -17.9420 -16.3681 -14.1704 -12.9038
   -11.2445 -11.1891 -10.8069 -10.6278  -9.6713  -9.1535  -8.4433  -8.0685
    -7.6387  -7.5231  -7.4850  -7.4805  -7.3550  -7.2806  -7.2790  -7.2633
    -7.2630  -7.2544  -7.2401  -7.2346  -7.2011  -7.1758  -7.1501  -7.1331
    -7.1010  -7.0975  -7.0853  -7.0839  -7.0649  -7.0606  -7.0434  -7.0193
    -7.0068  -6.9970  -6.9959  -6.9904  -6.9741  -6.9714  -6.9637  -6.9432
    -6.9354  -6.9103  -6.8965  -6.8795  -6.8688  -6.8617  -6.8556  -6.8514
    -6.8460  -6.8087  -6.7793  -6.7657  -6.7356  -6.7249  -6.7131  -6.7075
    -6.6990  -6.6970  -6.6369  -6.6182  -6.6145  -6.5794  -6.5774  -6.5535
    -6.5241  -6.5207  -6.4769  -6.4713  -6.4579  -6.4556  -6.4383  -6.4262
    -6.3999  -6.3679  -6.2881  -6.2793  -6.2545  -6.2518  -6.2008  -6.1909
    -6.1787  -6.1580  -6.1464  -6.1165  -6.0825  -6.0790  -6.0454  -6.0355
    -6.0314  -6.0026  -6.0009  -5.9893  -5.9869  -5.9771  -5.9613  -5.9596
    -5.9176  -5.9153  -5.9091  -5.8749  -5.8726  -5.8286  -5.7795  -5.7669
    -5.7570  -5.7566  -5.7370  -5.7154  -5.6732  -5.6713  -5.6630  -5.6542
    -5.6522  -5.6513  -5.6167  -5.5918  -5.5897  -5.5838  -5.5650  -5.4986
    -5.4859  -5.4811  -5.4800  -5.4778  -5.4726  -5.4716  -5.4643  -5.4501
    -5.4452  -5.4395  -5.4315  -5.4281  -5.4231  -5.4095  -5.3944  -5.3905
    -5.3438  -5.3430  -5.3230  -5.3193  -5.2935  -5.2843  -5.2825  -5.2739
    -5.2734  -5.2619  -5.2447  -5.2386  -5.2196  -5.2192  -5.2063  -5.1902
    -5.1883  -5.1847  -5.1720  -5.1493  -5.1312  -5.1205  -5.1079  -5.1066
    -5.1015  -5.0992  -5.0877  -5.0849  -5.0757  -5.0625  -5.0491  -5.0436
    -5.0253  -5.0238  -5.0220  -5.0212  -5.0093  -4.9911  -4.9754  -4.9658
    -4.9571  -4.9399  -4.9323  -4.9189  -4.8996  -4.8915  -4.8630  -4.8484
    -4.8181  -4.8141  -4.7916  -4.7911  -4.7687  -4.7366  -4.7129  -4.6985
    -4.6826  -4.6779  -4.6757  -4.6687  -4.6355  -4.6242  -4.5974  -4.5862
    -4.5598  -4.5445  -4.5052  -4.4797  -4.4319  -4.3401  -4.3187  -4.2143
    -4.1705

          k = 0.2500-0.7071 0.0000 (200442 PWs)   bands (ev):

   -46.4275 -46.4274 -46.4228 -46.4227 -46.4161 -46.4161 -46.4116 -46.4115
   -46.3699 -46.3690 -46.3145 -46.3142 -46.2703 -46.2639 -46.2253 -46.2242
   -45.8813 -45.8810 -45.8763 -45.8760 -45.8698 -45.8695 -45.8651 -45.8647
   -45.8354 -45.8350 -45.8221 -45.8219 -45.8124 -45.8117 -45.7994 -45.7990
   -45.7103 -45.7101 -45.7040 -45.7038 -45.6974 -45.6973 -45.6916 -45.6916
   -45.6854 -45.6842 -45.6794 -45.6775 -45.6741 -45.6715 -45.6681 -45.6646
   -45.4475 -45.4475 -45.4428 -45.4428 -45.4364 -45.4364 -45.4320 -45.4320
   -45.3766 -45.3736 -45.3592 -45.3419 -45.3280 -45.3114 -45.3045 -45.2796
   -28.8602 -28.6308 -27.3651 -27.1630 -24.7931 -24.7930 -24.7499 -24.7498
   -24.7072 -24.7063 -24.6869 -24.6868 -24.6506 -24.6493 -24.6409 -24.6408
   -24.5922 -24.5911 -24.5335 -24.5322 -24.5232 -24.5227 -24.4626 -24.4620
   -24.3660 -24.3654 -24.2973 -24.2967 -24.2701 -24.2694 -24.2515 -24.2509
   -24.2064 -24.2060 -24.2017 -24.2014 -24.1328 -24.1327 -24.1106 -24.1103
   -24.0834 -24.0808 -24.0741 -24.0730 -24.0495 -24.0445 -24.0359 -24.0356
   -24.0091 -24.0048 -23.9791 -23.9721 -23.4906 -23.4906 -23.4539 -23.4539
   -23.4115 -23.4061 -23.4008 -23.4008 -23.3625 -23.3625 -23.3321 -23.3052
   -23.2879 -23.2357 -23.2178 -23.1529 -17.9420 -16.3681 -14.1703 -12.9036
   -11.2446 -11.1890 -10.8070 -10.6278  -9.6712  -9.1534  -8.4440  -8.0693
    -7.6387  -7.4089  -7.4086  -7.3498  -7.3486  -7.2401  -7.2316  -7.2308
    -7.2076  -7.2069  -7.2056  -7.2011  -7.1978  -7.1845  -7.1826  -7.1182
    -7.1174  -7.1010  -7.1006  -7.0954  -7.0952  -7.0904  -7.0896  -7.0607
    -7.0603  -7.0456  -7.0455  -7.0361  -7.0354  -6.9910  -6.9856  -6.9679
    -6.9669  -6.9544  -6.9538  -6.9477  -6.9391  -6.9390  -6.9362  -6.9286
    -6.8966  -6.8935  -6.7907  -6.7893  -6.7775  -6.7652  -6.7639  -6.6998
    -6.6577  -6.6565  -6.6330  -6.6329  -6.5648  -6.5642  -6.5389  -6.5373
    -6.5202  -6.5033  -6.5027  -6.4481  -6.4469  -6.4223  -6.4208  -6.3783
    -6.3772  -6.2896  -6.2890  -6.2700  -6.2696  -6.1915  -6.1912  -6.1817
    -6.1803  -6.0683  -6.0679  -6.0326  -6.0205  -6.0182  -6.0086  -6.0080
    -5.9978  -5.9973  -5.9613  -5.9604  -5.9461  -5.9455  -5.8978  -5.8961
    -5.8819  -5.8811  -5.8694  -5.8675  -5.8258  -5.8250  -5.7713  -5.7708
    -5.7530  -5.7505  -5.7017  -5.7013  -5.6933  -5.6929  -5.6797  -5.6789
    -5.6386  -5.6380  -5.6249  -5.6231  -5.6228  -5.6215  -5.6133  -5.6117
    -5.5273  -5.5268  -5.5001  -5.4996  -5.4738  -5.4730  -5.4639  -5.4612
    -5.4298  -5.4285  -5.4247  -5.4212  -5.4072  -5.4059  -5.3892  -5.3882
    -5.3560  -5.3559  -5.3504  -5.3492  -5.3346  -5.3317  -5.3204  -5.3176
    -5.3006  -5.2997  -5.2518  -5.2506  -5.2077  -5.2070  -5.1978  -5.1971
    -5.1706  -5.1687  -5.1643  -5.1635  -5.1556  -5.1545  -5.1529  -5.1508
    -5.1305  -5.1255  -5.1216  -5.0651  -5.0601  -5.0452  -5.0436  -5.0094
    -5.0093  -5.0008  -4.9998  -4.9970  -4.9934  -4.9919  -4.9854  -4.9705
    -4.9670  -4.9554  -4.9532  -4.9171  -4.9047  -4.8769  -4.8739  -4.8502
    -4.8248  -4.7979  -4.7969  -4.7826  -4.7821  -4.7233  -4.7203  -4.6954
    -4.6922  -4.6743  -4.6725  -4.6690  -4.6274  -4.6109  -4.6108  -4.5967
    -4.5556  -4.5445  -4.4926  -4.4865  -4.4413  -4.3292  -4.3292  -4.2117
    -4.1728

          k =-0.5000 0.0000 0.0000 (200370 PWs)   bands (ev):

   -46.4266 -46.4261 -46.4249 -46.4244 -46.4140 -46.4136 -46.4131 -46.4127
   -46.3702 -46.3686 -46.3150 -46.3137 -46.2704 -46.2638 -46.2256 -46.2239
   -45.8815 -45.8798 -45.8782 -45.8765 -45.8683 -45.8670 -45.8666 -45.8653
   -45.8366 -45.8334 -45.8235 -45.8209 -45.8130 -45.8105 -45.8001 -45.7983
   -45.7115 -45.7073 -45.7065 -45.7031 -45.6963 -45.6948 -45.6935 -45.6914
   -45.6883 -45.6821 -45.6815 -45.6769 -45.6742 -45.6707 -45.6681 -45.6646
   -45.4462 -45.4457 -45.4455 -45.4450 -45.4345 -45.4338 -45.4336 -45.4330
   -45.3766 -45.3736 -45.3592 -45.3419 -45.3279 -45.3114 -45.3045 -45.2796
   -28.8602 -28.6308 -27.3651 -27.1630 -24.7950 -24.7938 -24.7572 -24.7564
   -24.7207 -24.6859 -24.6801 -24.6648 -24.6640 -24.6548 -24.6541 -24.6430
   -24.5790 -24.5731 -24.5439 -24.5426 -24.5358 -24.5291 -24.3859 -24.3819
   -24.3698 -24.3616 -24.3289 -24.3270 -24.2758 -24.2716 -24.2667 -24.2609
   -24.2586 -24.2528 -24.1915 -24.1895 -24.1665 -24.1632 -24.1446 -24.1258
   -24.0676 -24.0654 -24.0576 -24.0551 -24.0378 -24.0369 -24.0213 -24.0156
   -24.0033 -23.9990 -23.9721 -23.9576 -23.4988 -23.4984 -23.4533 -23.4528
   -23.4294 -23.3914 -23.3910 -23.3859 -23.3647 -23.3643 -23.3483 -23.2990
   -23.2843 -23.2278 -23.2226 -23.1509 -17.9420 -16.3681 -14.1704 -12.9041
   -11.2444 -11.1893 -10.8068 -10.6280  -9.6713  -9.1537  -8.4424  -8.0678
    -7.6386  -7.4973  -7.4881  -7.4718  -7.4675  -7.4136  -7.4033  -7.2484
    -7.2400  -7.2350  -7.2339  -7.2274  -7.2028  -7.1652  -7.1648  -7.1611
    -7.1354  -7.1342  -7.1319  -7.1235  -7.1175  -7.1030  -7.0889  -6.9897
    -6.9818  -6.9814  -6.9728  -6.9468  -6.8487  -6.8459  -6.8400  -6.8390
    -6.8379  -6.8314  -6.8282  -6.8275  -6.8229  -6.8209  -6.8124  -6.8085
    -6.8055  -6.7835  -6.7752  -6.7534  -6.7527  -6.7520  -6.7353  -6.6986
    -6.6670  -6.6657  -6.6548  -6.6469  -6.5940  -6.5792  -6.5667  -6.5569
    -6.5278  -6.5261  -6.5244  -6.5182  -6.5161  -6.5038  -6.4832  -6.3398
    -6.3309  -6.3279  -6.3246  -6.2904  -6.2806  -6.2586  -6.2582  -6.2209
    -6.2207  -6.2160  -6.1997  -6.1358  -6.1233  -6.1119  -6.1118  -6.0963
    -6.0823  -6.0498  -6.0490  -6.0460  -6.0389  -6.0329  -6.0239  -6.0102
    -6.0003  -5.9625  -5.9051  -5.9026  -5.8808  -5.8801  -5.8196  -5.8083
    -5.7272  -5.7271  -5.6941  -5.6940  -5.6507  -5.6462  -5.6415  -5.6371
    -5.6110  -5.6044  -5.5994  -5.5976  -5.5898  -5.5802  -5.5494  -5.5441
    -5.5168  -5.5109  -5.5100  -5.5087  -5.5078  -5.5002  -5.4628  -5.4580
    -5.3468  -5.3420  -5.3417  -5.3358  -5.3335  -5.3334  -5.3309  -5.3296
    -5.3254  -5.3232  -5.3101  -5.3096  -5.2986  -5.2949  -5.2696  -5.2693
    -5.2194  -5.2171  -5.2168  -5.2141  -5.1952  -5.1903  -5.1887  -5.1824
    -5.1738  -5.1675  -5.1617  -5.1610  -5.1552  -5.1460  -5.1296  -5.1010
    -5.0978  -5.0966  -5.0939  -5.0870  -5.0862  -5.0844  -5.0841  -5.0683
    -5.0661  -5.0309  -5.0227  -5.0224  -5.0202  -5.0149  -5.0007  -4.9846
    -4.9756  -4.9753  -4.9713  -4.9290  -4.9154  -4.8995  -4.8724  -4.8399
    -4.8255  -4.8155  -4.8044  -4.7623  -4.7618  -4.7328  -4.6952  -4.6840
    -4.6806  -4.6790  -4.6788  -4.6655  -4.6136  -4.5942  -4.5429  -4.5375
    -4.4759  -4.4638  -4.4636  -4.4574  -4.4572  -4.3710  -4.3448  -4.3200
    -4.2671

          k =-0.5000 0.3536 0.0000 (200424 PWs)   bands (ev):

   -46.4264 -46.4259 -46.4252 -46.4247 -46.4139 -46.4134 -46.4133 -46.4129
   -46.3700 -46.3688 -46.3148 -46.3139 -46.2703 -46.2638 -46.2255 -46.2241
   -45.8811 -45.8794 -45.8787 -45.8770 -45.8681 -45.8673 -45.8665 -45.8656
   -45.8362 -45.8339 -45.8232 -45.8213 -45.8127 -45.8109 -45.7999 -45.7986
   -45.7110 -45.7075 -45.7069 -45.7039 -45.6961 -45.6951 -45.6932 -45.6918
   -45.6871 -45.6827 -45.6807 -45.6772 -45.6740 -45.6710 -45.6682 -45.6646
   -45.4461 -45.4458 -45.4454 -45.4451 -45.4344 -45.4338 -45.4337 -45.4332
   -45.3766 -45.3736 -45.3592 -45.3419 -45.3279 -45.3114 -45.3045 -45.2796
   -28.8602 -28.6308 -27.3651 -27.1630 -24.7896 -24.7885 -24.7628 -24.7620
   -24.7150 -24.6862 -24.6797 -24.6634 -24.6626 -24.6563 -24.6555 -24.6491
   -24.5783 -24.5739 -24.5420 -24.5397 -24.5304 -24.5223 -24.4502 -24.4439
   -24.3259 -24.3242 -24.3123 -24.3058 -24.2960 -24.2957 -24.2703 -24.2624
   -24.2305 -24.2269 -24.1763 -24.1746 -24.1734 -24.1713 -24.1219 -24.1042
   -24.0757 -24.0734 -24.0638 -24.0622 -24.0431 -24.0421 -24.0327 -24.0162
   -24.0132 -23.9967 -23.9791 -23.9640 -23.4922 -23.4918 -23.4600 -23.4596
   -23.4232 -23.3921 -23.3876 -23.3871 -23.3687 -23.3682 -23.3441 -23.3026
   -23.2828 -23.2302 -23.2213 -23.1523 -17.9420 -16.3681 -14.1703 -12.9038
   -11.2445 -11.1891 -10.8069 -10.6279  -9.6712  -9.1535  -8.4433  -8.0686
    -7.6385  -7.4255  -7.4216  -7.4063  -7.3977  -7.3673  -7.3566  -7.2419
    -7.2412  -7.2400  -7.2029  -7.1897  -7.1713  -7.1702  -7.1618  -7.1555
    -7.1443  -7.1266  -7.1182  -7.1178  -7.1156  -7.0519  -7.0420  -7.0399
    -7.0336  -7.0239  -7.0206  -6.9797  -6.9765  -6.9726  -6.9645  -6.9490
    -6.9313  -6.9249  -6.9010  -6.8987  -6.8900  -6.8754  -6.8748  -6.8598
    -6.8514  -6.8393  -6.7793  -6.7666  -6.7402  -6.7020  -6.6995  -6.6959
    -6.6753  -6.6741  -6.6634  -6.6456  -6.6127  -6.5887  -6.5702  -6.5686
    -6.5240  -6.5047  -6.4891  -6.4423  -6.4241  -6.4187  -6.4113  -6.3648
    -6.3598  -6.3083  -6.3018  -6.2472  -6.2451  -6.2237  -6.2233  -6.1374
    -6.1369  -6.1352  -6.1249  -6.0973  -6.0952  -6.0736  -6.0607  -6.0575
    -6.0534  -6.0321  -6.0155  -6.0107  -5.9984  -5.9904  -5.9896  -5.9847
    -5.9450  -5.9350  -5.9337  -5.9319  -5.9312  -5.9187  -5.7686  -5.7622
    -5.7177  -5.7153  -5.7133  -5.7106  -5.7050  -5.7039  -5.6638  -5.6574
    -5.6403  -5.6402  -5.6308  -5.6260  -5.5597  -5.5584  -5.5441  -5.5406
    -5.4722  -5.4662  -5.4610  -5.4593  -5.4494  -5.4415  -5.4276  -5.4243
    -5.4123  -5.4118  -5.3724  -5.3673  -5.3660  -5.3608  -5.3579  -5.3560
    -5.3538  -5.3498  -5.3251  -5.3197  -5.3005  -5.2984  -5.2954  -5.2869
    -5.2679  -5.2665  -5.2504  -5.2487  -5.2478  -5.2444  -5.2235  -5.2201
    -5.1939  -5.1925  -5.1647  -5.1623  -5.1593  -5.1503  -5.1297  -5.1184
    -5.1141  -5.0976  -5.0858  -5.0744  -5.0735  -5.0691  -5.0601  -5.0542
    -5.0533  -5.0456  -5.0432  -5.0213  -5.0030  -5.0014  -5.0006  -4.9961
    -4.9947  -4.9522  -4.9437  -4.9432  -4.9049  -4.8906  -4.8714  -4.8486
    -4.8227  -4.8062  -4.7918  -4.7658  -4.7648  -4.7296  -4.7032  -4.6852
    -4.6839  -4.6825  -4.6799  -4.6624  -4.6155  -4.5939  -4.5416  -4.5371
    -4.4751  -4.4626  -4.4623  -4.4578  -4.4576  -4.3697  -4.3464  -4.3195
    -4.2667

          k =-0.5000-0.7071 0.0000 (200236 PWs)   bands (ev):

   -46.4258 -46.4258 -46.4254 -46.4253 -46.4135 -46.4134 -46.4130 -46.4130
   -46.3698 -46.3690 -46.3145 -46.3142 -46.2703 -46.2638 -46.2252 -46.2241
   -45.8801 -45.8798 -45.8784 -45.8780 -45.8677 -45.8674 -45.8661 -45.8657
   -45.8353 -45.8349 -45.8223 -45.8221 -45.8121 -45.8114 -45.7994 -45.7989
   -45.7096 -45.7094 -45.7057 -45.7055 -45.6955 -45.6954 -45.6924 -45.6923
   -45.6851 -45.6840 -45.6796 -45.6776 -45.6736 -45.6711 -45.6680 -45.6645
   -45.4459 -45.4459 -45.4453 -45.4453 -45.4339 -45.4339 -45.4333 -45.4333
   -45.3766 -45.3735 -45.3591 -45.3418 -45.3279 -45.3113 -45.3045 -45.2795
   -28.8602 -28.6308 -27.3651 -27.1630 -24.7764 -24.7763 -24.7755 -24.7754
   -24.7012 -24.7004 -24.6651 -24.6637 -24.6598 -24.6597 -24.6591 -24.6590
   -24.5766 -24.5756 -24.5407 -24.5393 -24.5031 -24.5028 -24.4958 -24.4951
   -24.3161 -24.3154 -24.3147 -24.3142 -24.2820 -24.2815 -24.2749 -24.2740
   -24.1978 -24.1973 -24.1944 -24.1941 -24.1250 -24.1248 -24.1225 -24.1222
   -24.0771 -24.0750 -24.0619 -24.0567 -24.0535 -24.0529 -24.0528 -24.0514
   -23.9977 -23.9942 -23.9840 -23.9763 -23.4762 -23.4762 -23.4758 -23.4758
   -23.4110 -23.4044 -23.3781 -23.3781 -23.3777 -23.3777 -23.3387 -23.3075
   -23.2807 -23.2329 -23.2199 -23.1539 -17.9420 -16.3681 -14.1702 -12.9035
   -11.2444 -11.1889 -10.8069 -10.6276  -9.6710  -9.1531  -8.4438  -8.0692
    -7.6384  -7.3058  -7.3054  -7.3034  -7.3030  -7.2475  -7.2472  -7.2408
    -7.2346  -7.2334  -7.2000  -7.1623  -7.1621  -7.1568  -7.1562  -7.1390
    -7.1383  -7.1359  -7.1349  -7.1157  -7.1153  -7.0989  -7.0980  -7.0848
    -7.0842  -7.0714  -7.0702  -7.0487  -7.0479  -7.0391  -7.0374  -7.0069
    -7.0068  -7.0034  -7.0032  -6.9664  -6.9624  -6.9562  -6.9328  -6.9166
    -6.7921  -6.7915  -6.7879  -6.7870  -6.7821  -6.7809  -6.7769  -6.7640
    -6.7628  -6.6996  -6.6214  -6.6210  -6.6188  -6.6184  -6.5267  -6.5178
    -6.5135  -6.4916  -6.4849  -6.3444  -6.3442  -6.3434  -6.3431  -6.3153
    -6.3148  -6.2998  -6.2990  -6.1783  -6.1782  -6.1755  -6.1750  -6.1165
    -6.1146  -6.1118  -6.1107  -6.0647  -6.0637  -6.0621  -6.0615  -6.0311
    -6.0269  -6.0246  -6.0194  -6.0176  -5.9911  -5.9910  -5.9847  -5.9829
    -5.8573  -5.8571  -5.8489  -5.8474  -5.7468  -5.7466  -5.7429  -5.7408
    -5.7326  -5.7323  -5.7320  -5.7318  -5.6911  -5.6898  -5.6879  -5.6823
    -5.6668  -5.6663  -5.6625  -5.6623  -5.6531  -5.6525  -5.6431  -5.6421
    -5.4510  -5.4509  -5.4501  -5.4497  -5.4487  -5.4485  -5.4482  -5.4479
    -5.4258  -5.4253  -5.4244  -5.4216  -5.4034  -5.4027  -5.3903  -5.3896
    -5.3706  -5.3677  -5.3636  -5.3559  -5.2747  -5.2744  -5.2731  -5.2721
    -5.2609  -5.2603  -5.2581  -5.2569  -5.2090  -5.2082  -5.2046  -5.2046
    -5.2020  -5.2005  -5.1988  -5.1945  -5.1403  -5.1400  -5.1389  -5.1381
    -5.1306  -5.1106  -5.1094  -5.0944  -5.0878  -5.0861  -5.0859  -5.0857
    -5.0758  -5.0168  -5.0117  -4.9994  -4.9990  -4.9868  -4.9789  -4.9776
    -4.9753  -4.9739  -4.9678  -4.9571  -4.9292  -4.8953  -4.8776  -4.8590
    -4.8288  -4.7765  -4.7764  -4.7744  -4.7729  -4.7210  -4.7165  -4.6862
    -4.6842  -4.6837  -4.6805  -4.6586  -4.6176  -4.5928  -4.5392  -4.5367
    -4.4737  -4.4597  -4.4597  -4.4594  -4.4594  -4.3680  -4.3480  -4.3189
    -4.2662

          k =-0.2500 0.3536 0.0000 (200411 PWs)   bands (ev):

   -46.4281 -46.4268 -46.4232 -46.4222 -46.4165 -46.4158 -46.4118 -46.4113
   -46.3700 -46.3688 -46.3148 -46.3139 -46.2703 -46.2638 -46.2255 -46.2241
   -45.8824 -45.8798 -45.8771 -45.8751 -45.8703 -45.8691 -45.8653 -45.8645
   -45.8363 -45.8340 -45.8228 -45.8212 -45.8130 -45.8111 -45.7998 -45.7985
   -45.7117 -45.7082 -45.7051 -45.7025 -45.6982 -45.6966 -45.6921 -45.6911
   -45.6873 -45.6827 -45.6802 -45.6770 -45.6745 -45.6711 -45.6680 -45.6646
   -45.4476 -45.4473 -45.4430 -45.4427 -45.4367 -45.4362 -45.4323 -45.4316
   -45.3766 -45.3736 -45.3592 -45.3419 -45.3280 -45.3114 -45.3045 -45.2796
   -28.8602 -28.6308 -27.3651 -27.1630 -24.8084 -24.7774 -24.7596 -24.7399
   -24.7230 -24.6904 -24.6876 -24.6861 -24.6619 -24.6474 -24.6381 -24.6343
   -24.5937 -24.5897 -24.5528 -24.5371 -24.5281 -24.4877 -24.4678 -24.4154
   -24.3825 -24.3353 -24.3248 -24.2866 -24.2864 -24.2712 -24.2641 -24.2415
   -24.2369 -24.2260 -24.1902 -24.1890 -24.1793 -24.1512 -24.1309 -24.0907
   -24.0870 -24.0812 -24.0670 -24.0542 -24.0437 -24.0350 -24.0309 -24.0278
   -24.0101 -23.9872 -23.9848 -23.9633 -23.5076 -23.4734 -23.4684 -23.4392
   -23.4243 -23.4118 -23.3932 -23.3898 -23.3709 -23.3541 -23.3374 -23.3005
   -23.2899 -23.2329 -23.2191 -23.1514 -17.9420 -16.3681 -14.1703 -12.9039
   -11.2445 -11.1891 -10.8069 -10.6279  -9.6712  -9.1535  -8.4432  -8.0686
    -7.6387  -7.5231  -7.4850  -7.4805  -7.3550  -7.2806  -7.2790  -7.2634
    -7.2628  -7.2544  -7.2399  -7.2348  -7.2011  -7.1757  -7.1501  -7.1331
    -7.1010  -7.0975  -7.0853  -7.0838  -7.0649  -7.0606  -7.0434  -7.0193
    -7.0068  -6.9970  -6.9959  -6.9903  -6.9741  -6.9709  -6.9641  -6.9434
    -6.9353  -6.9103  -6.8964  -6.8795  -6.8689  -6.8617  -6.8556  -6.8513
    -6.8461  -6.8087  -6.7794  -6.7658  -6.7355  -6.7249  -6.7131  -6.7075
    -6.6990  -6.6970  -6.6369  -6.6182  -6.6145  -6.5794  -6.5774  -6.5535
    -6.5240  -6.5207  -6.4769  -6.4713  -6.4579  -6.4557  -6.4382  -6.4261
    -6.3999  -6.3680  -6.2881  -6.2792  -6.2545  -6.2518  -6.2008  -6.1909
    -6.1787  -6.1580  -6.1463  -6.1165  -6.0825  -6.0790  -6.0454  -6.0355
    -6.0318  -6.0025  -6.0009  -5.9893  -5.9868  -5.9771  -5.9613  -5.9595
    -5.9177  -5.9153  -5.9091  -5.8748  -5.8726  -5.8286  -5.7795  -5.7669
    -5.7570  -5.7566  -5.7370  -5.7154  -5.6733  -5.6713  -5.6630  -5.6542
    -5.6522  -5.6513  -5.6167  -5.5918  -5.5897  -5.5838  -5.5650  -5.4987
    -5.4859  -5.4811  -5.4799  -5.4778  -5.4726  -5.4716  -5.4643  -5.4501
    -5.4452  -5.4395  -5.4316  -5.4281  -5.4231  -5.4095  -5.3944  -5.3905
    -5.3438  -5.3430  -5.3230  -5.3193  -5.2935  -5.2843  -5.2825  -5.2739
    -5.2734  -5.2618  -5.2447  -5.2385  -5.2196  -5.2192  -5.2063  -5.1902
    -5.1884  -5.1848  -5.1720  -5.1491  -5.1309  -5.1202  -5.1085  -5.1066
    -5.1015  -5.0993  -5.0877  -5.0849  -5.0757  -5.0624  -5.0488  -5.0436
    -5.0253  -5.0238  -5.0222  -5.0212  -5.0093  -4.9911  -4.9754  -4.9658
    -4.9572  -4.9399  -4.9322  -4.9188  -4.8997  -4.8918  -4.8631  -4.8479
    -4.8183  -4.8141  -4.7915  -4.7911  -4.7687  -4.7367  -4.7127  -4.6985
    -4.6826  -4.6779  -4.6756  -4.6687  -4.6355  -4.6242  -4.5974  -4.5862
    -4.5600  -4.5445  -4.5051  -4.4795  -4.4320  -4.3401  -4.3187  -4.2143
    -4.1705

     highest occupied level (ev):    -4.1172

!    total energy              =   -4345.71190104 Ry
     estimated scf accuracy    <          2.9E-09 Ry

     The total energy is the sum of the following terms:
     one-electron contribution = -103134.73336330 Ry
     hartree contribution      =   51711.42965880 Ry
     xc contribution           =    -998.21205876 Ry
     ewald contribution        =   48075.80386221 Ry

     convergence has been achieved in   6 iterations

     Forces acting on atoms (cartesian axes, Ry/au):

     atom    1 type  1   force =    -0.00000243   -0.00000006    0.00072702
     atom    2 type  1   force =     0.00001553    0.00000128    0.00049080
     atom    3 type  1   force =     0.00000567    0.00000065    0.00047599
     atom    4 type  1   force =     0.00000549   -0.00000008    0.00072936
     atom    5 type  2   force =    -0.00001176   -0.00000002   -0.00046862
     atom    6 type  2   force =     0.00000254   -0.00000050   -0.00050196
     atom    7 type  2   force =    -0.00000540   -0.00000066   -0.00050573
     atom    8 type  2   force =    -0.00000426   -0.00000003   -0.00045028
     atom    9 type  1   force =     0.00003135   -0.00000032    0.00024779
     atom   10 type  1   force =     0.00002688    0.00000379    0.00031764
     atom   11 type  1   force =     0.00007517    0.00001169    0.00040285
     atom   12 type  1   force =    -0.00001493   -0.00000019    0.00023433
     atom   13 type  2   force =    -0.00002208    0.00000050   -0.00043170
     atom   14 type  2   force =    -0.00002787   -0.00000363   -0.00068973
     atom   15 type  2   force =     0.00001300   -0.00000228   -0.00067113
     atom   16 type  2   force =    -0.00006157    0.00000082   -0.00053241
     atom   17 type  1   force =    -0.00007491   -0.00000085    0.00043681
     atom   18 type  1   force =     0.00036113    0.00009333    0.00083490
     atom   19 type  1   force =     0.00012344    0.00000923    0.00038432
     atom   20 type  1   force =     0.00014961   -0.00000243    0.00049508
     atom   21 type  2   force =    -0.00030093    0.00000802   -0.00033560
     atom   22 type  2   force =     0.00006422   -0.00001118   -0.00027195
     atom   23 type  2   force =    -0.00013592   -0.00002486   -0.00034902
     atom   24 type  2   force =    -0.00010603    0.00000650    0.00012286
     atom   25 type  1   force =     0.00064223   -0.00001357   -0.00001888
     atom   26 type  1   force =     0.00019993   -0.00018325   -0.00163067
     atom   27 type  1   force =     0.00135513    0.00093488    0.00103904
     atom   28 type  1   force =    -0.00035377   -0.00000120   -0.00019525
     atom   29 type  2   force =    -0.00019739    0.00003434    0.00113370
     atom   30 type  2   force =    -0.00055471   -0.00016997   -0.00000033
     atom   31 type  2   force =     0.00027820   -0.00001891    0.00020301
     atom   32 type  2   force =    -0.00088949    0.00018662   -0.00029148
     atom   33 type  1   force =    -0.00000249    0.00000007    0.00072747
     atom   34 type  1   force =     0.00001553   -0.00000117    0.00049100
     atom   35 type  1   force =     0.00000573   -0.00000054    0.00047612
     atom   36 type  1   force =     0.00000576    0.00000008    0.00073003
     atom   37 type  2   force =    -0.00001197   -0.00000009   -0.00047299
     atom   38 type  2   force =     0.00000254    0.00000060   -0.00050196
     atom   39 type  2   force =    -0.00000540    0.00000075   -0.00050577
     atom   40 type  2   force =    -0.00000445   -0.00000007   -0.00045138
     atom   41 type  1   force =     0.00003551    0.00000029    0.00025456
     atom   42 type  1   force =     0.00002758   -0.00000370    0.00031897
     atom   43 type  1   force =     0.00007525   -0.00001154    0.00040497
     atom   44 type  1   force =    -0.00001603    0.00000016    0.00023820
     atom   45 type  2   force =    -0.00002392   -0.00000061   -0.00043198
     atom   46 type  2   force =    -0.00002793    0.00000379   -0.00069049
     atom   47 type  2   force =     0.00001298    0.00000242   -0.00067140
     atom   48 type  2   force =    -0.00006410   -0.00000086   -0.00057477
     atom   49 type  1   force =    -0.00008881    0.00000081    0.00045299
     atom   50 type  1   force =     0.00036248   -0.00009915    0.00086427
     atom   51 type  1   force =     0.00013245   -0.00000845    0.00039523
     atom   52 type  1   force =     0.00019577    0.00000206    0.00053738
     atom   53 type  2   force =    -0.00031855   -0.00001743   -0.00075228
     atom   54 type  2   force =     0.00006389    0.00001133   -0.00027324
     atom   55 type  2   force =    -0.00013622    0.00002441   -0.00035496
     atom   56 type  2   force =    -0.00012998   -0.00000483    0.00019337
     atom   57 type  1   force =     0.00097739    0.00004728   -0.00003027
     atom   58 type  1   force =     0.00021508    0.00021454   -0.00162366
     atom   59 type  1   force =     0.00143164   -0.00068561    0.00118491
     atom   60 type  1   force =    -0.00050960    0.00000669   -0.00020883
     atom   61 type  2   force =    -0.00015640    0.00001348    0.00192253
     atom   62 type  2   force =    -0.00060100    0.00024299   -0.00004340
     atom   63 type  2   force =     0.00027704    0.00002875    0.00019650
     atom   64 type  2   force =    -0.00249842    0.00078742   -0.00381549
     atom   65 type  1   force =     0.00000253   -0.00000008    0.00073584
     atom   66 type  1   force =    -0.00001541    0.00000081    0.00048290
     atom   67 type  1   force =    -0.00000556    0.00000132    0.00049765
     atom   68 type  1   force =    -0.00000536   -0.00000007    0.00073350
     atom   69 type  2   force =     0.00001187   -0.00000006   -0.00045914
     atom   70 type  2   force =    -0.00000241   -0.00000090   -0.00051582
     atom   71 type  2   force =     0.00000552   -0.00000074   -0.00051228
     atom   72 type  2   force =     0.00000440   -0.00000005   -0.00047751
     atom   73 type  1   force =    -0.00003112   -0.00000020    0.00027307
     atom   74 type  1   force =    -0.00002673    0.00001186    0.00044219
     atom   75 type  1   force =    -0.00007511    0.00000590    0.00035856
     atom   76 type  1   force =     0.00001491   -0.00000033    0.00028654
     atom   77 type  2   force =     0.00002215    0.00000055   -0.00058229
     atom   78 type  2   force =     0.00002763   -0.00000423   -0.00072377
     atom   79 type  2   force =    -0.00001256   -0.00000555   -0.00074227
     atom   80 type  2   force =     0.00006167    0.00000025   -0.00048273
     atom   81 type  1   force =     0.00007270   -0.00000264    0.00067196
     atom   82 type  1   force =    -0.00036424    0.00003687    0.00061750
     atom   83 type  1   force =    -0.00012055    0.00009400    0.00104282
     atom   84 type  1   force =    -0.00014718   -0.00000107    0.00061425
     atom   85 type  2   force =     0.00030506    0.00000231   -0.00013003
     atom   86 type  2   force =    -0.00005850   -0.00004511   -0.00058253
     atom   87 type  2   force =     0.00013044   -0.00003061   -0.00050318
     atom   88 type  2   force =     0.00010189    0.00000548   -0.00057238
     atom   89 type  1   force =    -0.00059228    0.00000041    0.00049508
     atom   90 type  1   force =    -0.00039043    0.00114646    0.00219310
     atom   91 type  1   force =    -0.00114472    0.00034434   -0.00012401
     atom   92 type  1   force =     0.00030343   -0.00001499    0.00070360
     atom   93 type  2   force =     0.00026104    0.00011007   -0.00107068
     atom   94 type  2   force =     0.00047028   -0.00022464   -0.00059446
     atom   95 type  2   force =    -0.00021082   -0.00029944   -0.00084971
     atom   96 type  2   force =     0.00082189    0.00003145    0.00021916
     atom   97 type  1   force =     0.00000254    0.00000008    0.00073684
     atom   98 type  1   force =    -0.00001541   -0.00000069    0.00048298
     atom   99 type  1   force =    -0.00000562   -0.00000121    0.00049780
     atom  100 type  1   force =    -0.00000558    0.00000007    0.00073427
     atom  101 type  2   force =     0.00001208   -0.00000005   -0.00046120
     atom  102 type  2   force =    -0.00000241    0.00000099   -0.00051588
     atom  103 type  2   force =     0.00000552    0.00000085   -0.00051227
     atom  104 type  2   force =     0.00000456   -0.00000007   -0.00048195
     atom  105 type  1   force =    -0.00003425    0.00000017    0.00028104
     atom  106 type  1   force =    -0.00002746   -0.00001174    0.00044363
     atom  107 type  1   force =    -0.00007517   -0.00000580    0.00035926
     atom  108 type  1   force =     0.00001500    0.00000030    0.00029739
     atom  109 type  2   force =     0.00002405   -0.00000063   -0.00062296
     atom  110 type  2   force =     0.00002769    0.00000437   -0.00072399
     atom  111 type  2   force =    -0.00001252    0.00000571   -0.00074303
     atom  112 type  2   force =     0.00006405   -0.00000036   -0.00049689
     atom  113 type  1   force =     0.00007125    0.00000217    0.00075579
     atom  114 type  1   force =    -0.00036505   -0.00003692    0.00062122
     atom  115 type  1   force =    -0.00013029   -0.00009754    0.00105509
     atom  116 type  1   force =    -0.00017794    0.00000087    0.00067186
     atom  117 type  2   force =     0.00033430   -0.00000221   -0.00022094
     atom  118 type  2   force =    -0.00005824    0.00004433   -0.00058948
     atom  119 type  2   force =     0.00013086    0.00003039   -0.00050435
     atom  120 type  2   force =     0.00011810   -0.00001072   -0.00092100
     atom  121 type  1   force =    -0.00082249    0.00001656    0.00091855
     atom  122 type  1   force =    -0.00045003   -0.00088105    0.00208436
     atom  123 type  1   force =    -0.00112356   -0.00029045   -0.00012179
     atom  124 type  1   force =     0.00029641    0.00005168    0.00129428
     atom  125 type  2   force =     0.00053186    0.00042744   -0.00349258
     atom  126 type  2   force =     0.00049873    0.00026584   -0.00060831
     atom  127 type  2   force =    -0.00018671    0.00039426   -0.00092973
     atom  128 type  2   force =     0.00135905    0.00003974   -0.00028875
     atom  129 type  3   force =    -0.00088138    0.00005205    0.00109413
     atom  130 type  3   force =     0.00096468    0.00029762   -0.00230782
     atom  131 type  4   force =    -0.00020906   -0.00031453   -0.00034768
     atom  132 type  4   force =    -0.00002675    0.00064166   -0.00009300
     atom  133 type  4   force =     0.00019120   -0.00062983   -0.00050036
     atom  134 type  3   force =    -0.00011290   -0.00007986    0.00271863
     atom  135 type  2   force =     0.00079486   -0.00044760    0.00324213
     atom  136 type  4   force =    -0.00025486    0.00088934   -0.00128056
     atom  137 type  3   force =    -0.00204593    0.00084702   -0.00554419
     atom  138 type  2   force =     0.00013236   -0.00193535   -0.00007159
     atom  139 type  4   force =    -0.00010219   -0.00043054   -0.00166708
     atom  140 type  2   force =     0.00002305   -0.00217712    0.00136042
     atom  141 type  2   force =     0.00012105    0.00092810    0.00281945
     atom  142 type  4   force =     0.00216067   -0.00016021    0.00121693

     Total force =     0.014398     Total SCF correction =     0.000138


     Computing stress (Cartesian axis) and pressure

          total   stress  (Ry/bohr**3)                   (kbar)     P=      -51.80
  -0.00029173   0.00000006  -0.00000019          -42.91        0.01       -0.03
   0.00000006  -0.00043030  -0.00000037            0.01      -63.30       -0.06
  -0.00000019  -0.00000037  -0.00033432           -0.03       -0.06      -49.18

     Energy error            =      2.2E-04 Ry
     Gradient error          =      5.5E-03 Ry/Bohr

     number of scf cycles    =   2
     number of bfgs steps    =   1

     energy             old  =   -4345.7116796988 Ry
     energy             new  =   -4345.7119010400 Ry

     CASE: energy            _new < energy            _old

     new trust radius        =       0.0078545121 bohr
     new conv_thr            =       0.0000000002 Ry


ATOMIC_POSITIONS (angstrom)
Li              -0.0000083539       -0.0000001267       15.2246517658
Li               4.3311669909        2.0417159992       16.3548301479
Li               1.4437227590        2.0417147617       16.3547922139
Li               2.8874361897       -0.0000001562       15.2246576056
F                4.3310965513       -0.0000001787       16.4344020785
F                0.0000075238        2.0417126925       15.0835642808
F                2.8874035593        2.0417124202       15.0835558427
F                1.4436985417       -0.0000001939       16.4344474651
Li               2.8874986996        8.1668564287       17.9587662047
Li               1.4437722171        2.0417205998       19.3061279343
Li               4.3313138099        2.0417370738       19.3063301385
Li              11.5496366455        8.1668566115       17.9587345678
F                1.4436567185        0.0000004749       19.3296326456
F                2.8873478366        2.0417067089       17.9172760752
F                0.0000346774        2.0417091991       17.9173174403
F                4.3309725285        0.0000008799       19.3294021557
Li              11.5494891598        8.1668557965       20.8018542515
Li               4.3319972276        2.0419171626       22.1499464599
Li               1.4439862488        2.0417291882       22.1489411877
Li               2.8877824626        8.1668536405       20.8019877208
F                4.3304087602        0.0000096937       22.1860857373
F               11.5498446857        2.0416900613       20.7744072048
F                2.8870778559        2.0416633434       20.7742327406
F                1.4434756774        0.0000080342       22.1871007019
Li               2.8889924112       -0.0000220200       23.7524949326
Li               1.4442396830        2.0413605733       24.8796541137
Li               4.3344645757        2.0437109789       24.8855530641
Li              11.5488020219       -0.0000028893       23.7520851133
F                1.4432103788        0.0000617477       25.0235227218
F                2.8858031663        2.0413620324       23.6701137509
F                0.0008423395        2.0416589761       23.6706464590
F                4.3288271868        0.0003483359       25.0203142380
Li              -0.0000085389        4.0834272337       15.2246527410
Li               4.3311669940        6.1251384623       16.3548303527
Li               1.4437228449        6.1251397031       16.3547923275
Li               2.8874368570        4.0834272504       15.2246590057
F                4.3310959969        4.0834270105       16.4343943213
F                0.0000075046        6.1251417626       15.0835643894
F                2.8874035588        6.1251420278       15.0835559213
F                1.4436981407        4.0834270335       16.4344452886
Li               2.8875073834        4.0834275193       17.9587796864
Li               1.4437732075        6.1251338435       19.3061296293
Li               4.3313138730        6.1251174324       19.3063328411
Li              11.5496339532        4.0834273321       17.9587425431
F                1.4436523618        4.0834263759       19.3296279519
F                2.8873477773        6.1251478629       17.9172751697
F                0.0000346179        6.1251453744       17.9173171668
F                4.3309654772        4.0834260419       19.3293245888
Li              -0.0002221116        4.0834281445       20.8018925224
Li               4.3319988439        6.1249281215       22.1499862406
Li               1.4439982528        6.1251257063       22.1489561132
Li               2.8878847822        4.0834299911       20.8020832739
F                4.3303451684        4.0834018793       22.1853132500
F               11.5498439317        6.1251645157       20.7744054809
F                2.8870772699        6.1251906660       20.7742246889
F                1.4434203968        4.0834203572       22.1872135601
Li               2.8900345452        4.0834891259       23.7527302223
Li               1.4442514410        6.1255603145       24.8796631930
Li               4.3346128008        6.1236500109       24.8858098439
Li              -0.0013332991        4.0834365867       23.7520992428
F                1.4432760344        4.0834686606       25.0251491338
F                2.8857336492        6.1255815942       23.6700554365
F               11.5505143411        6.1252080119       23.6706345585
F                4.3251802020        4.0850776847       25.0127737051
Li               5.7748464292       -0.0000001532       15.2246746995
Li              10.1059282390        2.0417151259       16.3548107039
Li               7.2185343250        2.0417161555       16.3548485054
Li               8.6622399880       -0.0000001336       15.2246688205
F               10.1059986308       -0.0000002378       16.4344248464
F                5.7748306139        2.0417119963       15.0835320254
F                8.6622725988        2.0417122735       15.0835402267
F                7.2185586448        8.1668566908       16.4343794805
Li               8.6621777409        8.1668566264       17.9588295152
Li               7.2184841658        2.0417383916       19.3064271334
Li              10.1057820856        2.0417257500       19.3062281120
Li               5.7748773686        8.1668564259       17.9588612972
F                7.2186007630        0.0000004530       19.3292857304
F                8.6623276027        2.0417053025       17.9171955965
F                5.7748040773        2.0417028565       17.9171538859
F               10.1061222671        8.1668569652       19.3295139386
Li               5.7750199621        8.1668534646       20.8024125507
Li              10.1051084006        2.0417974429       22.1494661695
Li               7.2182597991        2.0419287730       22.1504208616
Li               8.6618988775        8.1668559759       20.8022772128
F               10.1066824887        0.0000014309       22.1865399340
F                5.7746811145        2.0416199935       20.7736821700
F                8.6625867967        2.0416475826       20.7738663826
F                7.2187846101        0.0000054374       22.1855606343
Li               8.6607832559        8.1668584237       23.7536946188
Li               7.2175518926        2.0441567681       24.8880183323
Li              10.1031438030        2.0424605374       24.8829289992
Li               5.7756113060       -0.0000306105       23.7541798600
F                7.2192331931        0.0002008030       25.0185939478
F                8.6636809298        2.0411572290       23.6686036648
F                5.7741673907        2.0409453133       23.6679143209
F               10.1080729567        0.0000566391       25.0215046244
Li               5.7748465027        4.0834272471       15.2246767663
Li              10.1059282535        6.1251393468       16.3548107519
Li               7.2185342234        6.1251383096       16.3548486351
Li               8.6622394358        4.0834272269       15.2246704783
F               10.1059991642        4.0834270807       16.4344209790
F                5.7748306168        6.1251424548       15.0835320745
F                8.6622725976        6.1251421957       15.0835403472
F                7.2185589825        4.0834270416       16.4343712338
Li               8.6621710264        4.0834273142       17.9588461551
Li               7.2184829786        6.1251160744       19.3064287539
Li              10.1057822142        6.1251286985       19.3062287622
Li               5.7748781067        4.0834275226       17.9588834335
F                7.2186051797        4.0834264616       19.3292062580
F                8.6623276885        6.1251492607       17.9171954860
F                5.7748041511        6.1251517273       17.9171530196
F               10.1061290911        4.0834267968       19.3294838515
Li               5.7750239353        4.0834301213       20.8026021522
Li              10.1051103305        6.1250565410       22.1494688660
Li               7.2182440280        6.1249200293       22.1504362284
Li               8.6618277237        4.0834278353       20.8024107360
F               10.1067645641        4.0834250959       22.1863336060
F                5.7746818202        6.1252336328       20.7736733166
F                8.6625875453        6.1252066239       20.7738663606
F                7.2188268169        4.0834124269       22.1848413972
Li               8.6600980539        4.0834389322       23.7548383216
Li               7.2174435303        6.1232300017       24.8877617236
Li              10.1032023860        6.1245036297       24.8829249876
Li               5.7756651883        4.0834872115       23.7558019917
F                7.2199496069        4.0843307170       25.0134440810
F                8.6637167476        6.1257434258       23.6686026405
F                5.7742105771        6.1260125855       23.6678131706
F               10.1093412206        4.0835193770       25.0204264084
C                3.7961302271        4.0094433524       29.4481941846
C                5.1558795889        4.1996178424       28.8084905437
H                3.0243938450        4.2025153680       28.6945208975
H                3.6898317819        2.9818633542       29.8138102279
H                3.6654917101        4.7070080580       30.2832470991
C                6.3331340319        3.9734795371       29.7613514754
F                5.2595781471        3.3438470482       27.7310078040
H                6.2438589595        2.9613316521       30.1797005395
C                7.7482463610        4.1105749881       29.2171231295
F                5.2200167964        5.4865650921       28.2907685257
H                6.2342397554        4.6779829645       30.5986153743
F                7.9804264856        5.3651420707       28.7040916041
F                8.0038694788        3.2021622457       28.2208913316
H                8.4941267205        3.9415930262       30.0112840654



     Writing config-only to output data dir ./tmp/LiF_PVDF/LiF_PVDF.save/ :
     XML data file
     NEW-OLD atomic charge density approx. for the potential

     total cpu time spent up to now is     1140.2 secs

     per-process dynamical memory:   151.3 Mb

     Self-consistent Calculation

     iteration #  1     ecut=    60.00 Ry     beta= 0.30
     Davidson diagonalization with overlap
     ethr =  1.00E-06,  avg # of iterations =  3.8

     Threshold (ethr) on eigenvalues was too large:
     Diagonalizing with lowered threshold

     Davidson diagonalization with overlap
     ethr =  4.39E-09,  avg # of iterations =  4.0

     total cpu time spent up to now is     1223.1 secs

     total energy              =   -4345.71209442 Ry
     estimated scf accuracy    <       0.00003921 Ry

     iteration #  2     ecut=    60.00 Ry     beta= 0.30
     Davidson diagonalization with overlap
     ethr =  5.68E-09,  avg # of iterations =  2.0

     total cpu time spent up to now is     1252.5 secs

     total energy              =   -4345.71209064 Ry
     estimated scf accuracy    <       0.00001085 Ry

     iteration #  3     ecut=    60.00 Ry     beta= 0.30
     Davidson diagonalization with overlap
     ethr =  1.57E-09,  avg # of iterations =  3.1

     total cpu time spent up to now is     1290.4 secs

     total energy              =   -4345.71209273 Ry
     estimated scf accuracy    <       0.00000058 Ry

     iteration #  4     ecut=    60.00 Ry     beta= 0.30
     Davidson diagonalization with overlap
     ethr =  8.46E-11,  avg # of iterations =  4.0

     total cpu time spent up to now is     1327.4 secs

     total energy              =   -4345.71209282 Ry
     estimated scf accuracy    <       0.00000009 Ry

     iteration #  5     ecut=    60.00 Ry     beta= 0.30
     Davidson diagonalization with overlap
     ethr =  1.25E-11,  avg # of iterations =  4.0

     total cpu time spent up to now is     1363.0 secs

     total energy              =   -4345.71209286 Ry
     estimated scf accuracy    <       0.00000002 Ry

     iteration #  6     ecut=    60.00 Ry     beta= 0.30
     Davidson diagonalization with overlap
     ethr =  2.17E-12,  avg # of iterations =  2.4

     total cpu time spent up to now is     1394.8 secs

     total energy              =   -4345.71209287 Ry
     estimated scf accuracy    <          1.2E-09 Ry

     iteration #  7     ecut=    60.00 Ry     beta= 0.30
     Davidson diagonalization with overlap
     ethr =  1.78E-13,  avg # of iterations =  3.6

     total cpu time spent up to now is     1428.7 secs

     total energy              =   -4345.71209287 Ry
     estimated scf accuracy    <          2.3E-10 Ry

     iteration #  8     ecut=    60.00 Ry     beta= 0.30
     Davidson diagonalization with overlap
     ethr =  1.00E-13,  avg # of iterations =  2.0

     total cpu time spent up to now is     1458.0 secs

     End of self-consistent calculation

          k = 0.0000 0.0000 0.0000 (200173 PWs)   bands (ev):

   -46.4076 -46.4054 -46.3984 -46.3984 -46.3973 -46.3973 -46.3898 -46.3886
   -46.3738 -46.3720 -46.3303 -46.3288 -46.2957 -46.2877 -46.2602 -46.2576
   -45.8748 -45.8706 -45.8651 -45.8650 -45.8630 -45.8628 -45.8560 -45.8546
   -45.8430 -45.8394 -45.8307 -45.8285 -45.8236 -45.8207 -45.8117 -45.8098
   -45.7109 -45.7041 -45.7002 -45.6997 -45.6962 -45.6957 -45.6905 -45.6889
   -45.6873 -45.6828 -45.6821 -45.6792 -45.6780 -45.6740 -45.6716 -45.6683
   -45.4330 -45.4322 -45.4244 -45.4244 -45.4239 -45.4239 -45.4166 -45.4151
   -45.3851 -45.3825 -45.3688 -45.3506 -45.3442 -45.3298 -45.3238 -45.3022
   -28.8900 -28.6573 -27.3919 -27.1867 -24.8084 -24.7612 -24.7460 -24.7125
   -24.7125 -24.6978 -24.6965 -24.6965 -24.6473 -24.6416 -24.6309 -24.6308
   -24.6206 -24.6094 -24.5707 -24.5536 -24.5351 -24.4449 -24.4447 -24.4030
   -24.3901 -24.3261 -24.3259 -24.3137 -24.3133 -24.2898 -24.2475 -24.2355
   -24.2257 -24.2146 -24.2069 -24.1994 -24.1986 -24.1692 -24.1211 -24.1211
   -24.0840 -24.0822 -24.0587 -24.0405 -24.0398 -24.0319 -24.0218 -24.0098
   -23.9956 -23.9943 -23.9908 -23.9690 -23.4983 -23.4490 -23.4398 -23.4235
   -23.4235 -23.3953 -23.3874 -23.3874 -23.3471 -23.3463 -23.3236 -23.3234
   -23.3092 -23.2643 -23.2425 -23.1877 -17.9727 -16.3937 -14.1936 -12.9293
   -11.2722 -11.2124 -10.8325 -10.6566  -9.6948  -9.1783  -8.4723  -8.0913
    -7.6625  -7.6130  -7.6003  -7.5832  -7.3849  -7.3471  -7.3233  -7.3088
    -7.2971  -7.2653  -7.2247  -7.1592  -7.1486  -7.1486  -7.1457  -7.1351
    -7.1338  -7.1323  -7.1315  -7.0159  -7.0157  -6.9953  -6.9907  -6.9845
    -6.9837  -6.9669  -6.9415  -6.9348  -6.9302  -6.9205  -6.9043  -6.9032
    -6.9028  -6.8611  -6.8468  -6.8234  -6.8223  -6.8022  -6.7794  -6.7743
    -6.7740  -6.7544  -6.7532  -6.7473  -6.7461  -6.7388  -6.7234  -6.7155
    -6.7151  -6.7112  -6.6671  -6.6658  -6.5952  -6.5948  -6.5637  -6.5635
    -6.5467  -6.5209  -6.5163  -6.5087  -6.5046  -6.5041  -6.5030  -6.4894
    -6.3933  -6.2929  -6.2679  -6.2664  -6.2649  -6.2477  -6.2275  -6.2254
    -6.2106  -6.2103  -6.2051  -6.2019  -6.1919  -6.1882  -6.1877  -6.1574
    -6.0572  -6.0564  -6.0537  -6.0108  -6.0064  -6.0005  -5.9985  -5.9552
    -5.9105  -5.9065  -5.8301  -5.8178  -5.8090  -5.8085  -5.8034  -5.8032
    -5.7948  -5.7941  -5.7875  -5.7562  -5.7110  -5.7070  -5.7055  -5.7007
    -5.6833  -5.5775  -5.5580  -5.5577  -5.5389  -5.5384  -5.5274  -5.5265
    -5.5194  -5.5075  -5.5073  -5.5056  -5.5035  -5.4943  -5.4930  -5.4923
    -5.4904  -5.4411  -5.4365  -5.4123  -5.4015  -5.3388  -5.3024  -5.2973
    -5.2849  -5.2676  -5.2639  -5.2572  -5.2555  -5.2510  -5.2465  -5.2455
    -5.2385  -5.2381  -5.2172  -5.2163  -5.2111  -5.2101  -5.2051  -5.2043
    -5.1805  -5.1739  -5.1628  -5.1619  -5.1603  -5.1499  -5.1485  -5.1481
    -5.1408  -5.1077  -5.1076  -5.0880  -5.0383  -5.0356  -5.0298  -5.0215
    -5.0205  -5.0045  -5.0044  -4.9997  -4.9861  -4.9497  -4.9330  -4.9330
    -4.9322  -4.9244  -4.8978  -4.8638  -4.8611  -4.8606  -4.8590  -4.8485
    -4.8348  -4.8314  -4.8311  -4.8237  -4.7953  -4.7835  -4.7468  -4.7323
    -4.6949  -4.6919  -4.6750  -4.6640  -4.6464  -4.6217  -4.6217  -4.6181
    -4.6093  -4.5826  -4.5442  -4.5085  -4.4848  -4.2761  -4.2374  -4.1900
    -4.1436

          k = 0.0000 0.3536 0.0000 (200366 PWs)   bands (ev):

   -46.4073 -46.4058 -46.3983 -46.3983 -46.3974 -46.3974 -46.3896 -46.3891
   -46.3737 -46.3723 -46.3301 -46.3291 -46.2958 -46.2878 -46.2602 -46.2578
   -45.8742 -45.8714 -45.8650 -45.8648 -45.8633 -45.8631 -45.8558 -45.8551
   -45.8425 -45.8400 -45.8305 -45.8289 -45.8233 -45.8212 -45.8114 -45.8102
   -45.7102 -45.7057 -45.6998 -45.6993 -45.6970 -45.6965 -45.6889 -45.6886
   -45.6879 -45.6836 -45.6814 -45.6784 -45.6784 -45.6745 -45.6718 -45.6684
   -45.4329 -45.4324 -45.4245 -45.4245 -45.4240 -45.4240 -45.4163 -45.4157
   -45.3851 -45.3826 -45.3689 -45.3507 -45.3443 -45.3298 -45.3239 -45.3023
   -28.8900 -28.6573 -27.3919 -27.1867 -24.8016 -24.7682 -24.7393 -24.7102
   -24.7102 -24.7050 -24.6989 -24.6989 -24.6449 -24.6387 -24.6332 -24.6278
   -24.6238 -24.6125 -24.5614 -24.5511 -24.5379 -24.4738 -24.4381 -24.4379
   -24.3757 -24.3756 -24.3303 -24.2932 -24.2626 -24.2622 -24.2443 -24.2322
   -24.2289 -24.2179 -24.2048 -24.2040 -24.1879 -24.1434 -24.1146 -24.1143
   -24.0767 -24.0677 -24.0659 -24.0551 -24.0540 -24.0417 -24.0288 -24.0131
   -24.0064 -24.0027 -23.9913 -23.9730 -23.4912 -23.4564 -23.4333 -23.4183
   -23.4183 -23.4018 -23.3928 -23.3928 -23.3431 -23.3428 -23.3270 -23.3203
   -23.3137 -23.2676 -23.2410 -23.1894 -17.9728 -16.3938 -14.1936 -12.9292
   -11.2724 -11.2123 -10.8327 -10.6567  -9.6949  -9.1782  -8.4732  -8.0922
    -7.6625  -7.5518  -7.5306  -7.5052  -7.3825  -7.3165  -7.2955  -7.2829
    -7.2825  -7.2656  -7.2247  -7.1568  -7.1547  -7.1439  -7.1279  -7.1278
    -7.1225  -7.1218  -7.0949  -7.0924  -7.0564  -7.0524  -7.0473  -6.9873
    -6.9769  -6.9664  -6.9659  -6.9655  -6.9616  -6.9613  -6.9552  -6.9207
    -6.9198  -6.9081  -6.9018  -6.9016  -6.8908  -6.8578  -6.8297  -6.8275
    -6.8026  -6.7871  -6.7857  -6.7671  -6.7437  -6.7394  -6.7241  -6.7059
    -6.7046  -6.6914  -6.6358  -6.6038  -6.5875  -6.5870  -6.5865  -6.5861
    -6.5465  -6.5249  -6.5246  -6.5179  -6.5166  -6.4993  -6.4454  -6.4416
    -6.4416  -6.4311  -6.2969  -6.2966  -6.2836  -6.2834  -6.2426  -6.1697
    -6.1693  -6.1410  -6.1267  -6.0826  -6.0719  -6.0693  -6.0691  -6.0542
    -6.0381  -6.0350  -6.0256  -5.9799  -5.9521  -5.9316  -5.9308  -5.8876
    -5.8758  -5.8704  -5.8589  -5.8164  -5.8161  -5.8108  -5.7927  -5.7896
    -5.7792  -5.7753  -5.7741  -5.7324  -5.7073  -5.6977  -5.6708  -5.6704
    -5.6570  -5.5678  -5.5677  -5.5662  -5.5654  -5.5598  -5.5541  -5.5472
    -5.5425  -5.5397  -5.5252  -5.5163  -5.5144  -5.4893  -5.4874  -5.4865
    -5.4584  -5.4570  -5.4534  -5.4461  -5.4427  -5.4333  -5.4298  -5.4121
    -5.3897  -5.3889  -5.3419  -5.2714  -5.2662  -5.2570  -5.2509  -5.2475
    -5.2465  -5.2390  -5.2339  -5.2332  -5.2012  -5.1896  -5.1877  -5.1833
    -5.1789  -5.1788  -5.1713  -5.1707  -5.1537  -5.1491  -5.1084  -5.0965
    -5.0838  -5.0832  -5.0778  -5.0767  -5.0486  -5.0361  -5.0360  -5.0297
    -5.0119  -5.0064  -5.0050  -5.0006  -4.9943  -4.9689  -4.9586  -4.9567
    -4.9125  -4.9078  -4.9077  -4.8864  -4.8847  -4.8754  -4.8579  -4.8573
    -4.8510  -4.8263  -4.8198  -4.7889  -4.7776  -4.7691  -4.7556  -4.7258
    -4.6908  -4.6891  -4.6711  -4.6617  -4.6458  -4.6352  -4.6352  -4.6169
    -4.6033  -4.5845  -4.5480  -4.5187  -4.4886  -4.2702  -4.2430  -4.1855
    -4.1478

          k = 0.0000-0.7071 0.0000 (200506 PWs)   bands (ev):

   -46.4067 -46.4066 -46.3980 -46.3980 -46.3979 -46.3979 -46.3894 -46.3894
   -46.3735 -46.3726 -46.3299 -46.3294 -46.2958 -46.2879 -46.2602 -46.2579
   -45.8730 -45.8727 -45.8643 -45.8642 -45.8640 -45.8638 -45.8557 -45.8553
   -45.8416 -45.8411 -45.8299 -45.8296 -45.8227 -45.8219 -45.8112 -45.8106
   -45.7085 -45.7082 -45.6987 -45.6984 -45.6982 -45.6979 -45.6884 -45.6883
   -45.6864 -45.6854 -45.6806 -45.6789 -45.6776 -45.6752 -45.6719 -45.6685
   -45.4327 -45.4327 -45.4243 -45.4243 -45.4243 -45.4243 -45.4160 -45.4160
   -45.3852 -45.3827 -45.3689 -45.3508 -45.3443 -45.3299 -45.3239 -45.3024
   -28.8900 -28.6573 -27.3920 -27.1867 -24.7851 -24.7850 -24.7230 -24.7217
   -24.7046 -24.7046 -24.7045 -24.7045 -24.6399 -24.6382 -24.6321 -24.6307
   -24.6202 -24.6201 -24.5455 -24.5437 -24.5309 -24.5304 -24.4161 -24.4160
   -24.4156 -24.4154 -24.3037 -24.3030 -24.2372 -24.2362 -24.2276 -24.2274
   -24.2234 -24.2230 -24.2208 -24.2205 -24.1284 -24.1282 -24.0949 -24.0930
   -24.0879 -24.0871 -24.0862 -24.0842 -24.0364 -24.0349 -24.0334 -24.0301
   -24.0209 -24.0209 -23.9854 -23.9795 -23.4739 -23.4739 -23.4189 -23.4162
   -23.4056 -23.4056 -23.4056 -23.4056 -23.3362 -23.3350 -23.3350 -23.3205
   -23.3168 -23.2713 -23.2393 -23.1912 -17.9728 -16.3938 -14.1935 -12.9290
   -11.2726 -11.2122 -10.8330 -10.6567  -9.6949  -9.1780  -8.4740  -8.0930
    -7.6624  -7.4374  -7.4371  -7.3944  -7.3931  -7.2664  -7.2551  -7.2541
    -7.2479  -7.2473  -7.2244  -7.2191  -7.2186  -7.1363  -7.1353  -7.0972
    -7.0970  -7.0967  -7.0959  -7.0684  -7.0682  -7.0557  -7.0550  -7.0543
    -7.0540  -7.0528  -7.0519  -7.0514  -7.0510  -7.0068  -6.9988  -6.9618
    -6.9271  -6.9270  -6.9260  -6.9252  -6.8651  -6.8644  -6.8642  -6.8634
    -6.8186  -6.8177  -6.8166  -6.8155  -6.8007  -6.7721  -6.7713  -6.7250
    -6.6282  -6.6282  -6.6262  -6.6258  -6.6241  -6.6232  -6.5652  -6.5635
    -6.5576  -6.5566  -6.5558  -6.5529  -6.5392  -6.3823  -6.3819  -6.3818
    -6.3815  -6.3292  -6.3288  -6.3285  -6.3275  -6.2846  -6.2839  -6.0604
    -6.0574  -6.0518  -6.0354  -6.0352  -6.0080  -6.0079  -6.0077  -6.0074
    -5.9720  -5.9705  -5.9507  -5.9480  -5.9437  -5.9430  -5.9288  -5.9286
    -5.9283  -5.9278  -5.8345  -5.8344  -5.7805  -5.7793  -5.7665  -5.7658
    -5.7644  -5.7632  -5.7603  -5.7585  -5.6546  -5.6539  -5.6465  -5.6458
    -5.6261  -5.6250  -5.5945  -5.5936  -5.5738  -5.5736  -5.5731  -5.5729
    -5.5362  -5.5350  -5.5346  -5.5328  -5.5050  -5.5045  -5.4976  -5.4967
    -5.4955  -5.4938  -5.4532  -5.4493  -5.4463  -5.4452  -5.3907  -5.3906
    -5.3898  -5.3896  -5.3758  -5.3755  -5.3740  -5.3731  -5.2645  -5.2643
    -5.2588  -5.2581  -5.2559  -5.2548  -5.2519  -5.2516  -5.2070  -5.1967
    -5.1657  -5.1650  -5.1561  -5.1535  -5.1507  -5.1139  -5.1132  -5.0925
    -5.0922  -5.0903  -5.0894  -5.0641  -5.0630  -5.0569  -5.0567  -5.0488
    -5.0463  -4.9928  -4.9902  -4.9816  -4.9637  -4.9618  -4.9570  -4.9562
    -4.9517  -4.9014  -4.8979  -4.8829  -4.8722  -4.8640  -4.8638  -4.8636
    -4.8623  -4.7873  -4.7851  -4.7834  -4.7734  -4.7720  -4.7708  -4.7105
    -4.6876  -4.6671  -4.6666  -4.6665  -4.6655  -4.6486  -4.6485  -4.6136
    -4.6035  -4.5882  -4.5514  -4.5316  -4.4920  -4.2571  -4.2571  -4.1804
    -4.1539

          k = 0.2500 0.0000 0.0000 (200254 PWs)   bands (ev):

   -46.4068 -46.4048 -46.4019 -46.4005 -46.3950 -46.3941 -46.3904 -46.3895
   -46.3738 -46.3721 -46.3302 -46.3289 -46.2957 -46.2878 -46.2602 -46.2577
   -45.8740 -45.8701 -45.8687 -45.8658 -45.8616 -45.8600 -45.8566 -45.8555
   -45.8428 -45.8394 -45.8313 -45.8288 -45.8230 -45.8204 -45.8117 -45.8100
   -45.7102 -45.7037 -45.7037 -45.6988 -45.6961 -45.6931 -45.6903 -45.6897
   -45.6881 -45.6833 -45.6827 -45.6783 -45.6779 -45.6739 -45.6718 -45.6684
   -45.4323 -45.4316 -45.4277 -45.4272 -45.4214 -45.4207 -45.4171 -45.4160
   -45.3851 -45.3825 -45.3689 -45.3507 -45.3442 -45.3298 -45.3238 -45.3023
   -28.8900 -28.6573 -27.3919 -27.1867 -24.8013 -24.7563 -24.7501 -24.7397
   -24.7214 -24.6945 -24.6805 -24.6740 -24.6715 -24.6482 -24.6359 -24.6175
   -24.6072 -24.6030 -24.5619 -24.5571 -24.5425 -24.4957 -24.3972 -24.3870
   -24.3844 -24.3556 -24.3427 -24.2962 -24.2840 -24.2828 -24.2701 -24.2535
   -24.2415 -24.2325 -24.2005 -24.1823 -24.1723 -24.1632 -24.1543 -24.1152
   -24.0874 -24.0559 -24.0506 -24.0425 -24.0389 -24.0387 -24.0217 -24.0175
   -24.0035 -24.0007 -23.9822 -23.9676 -23.4927 -23.4524 -23.4444 -23.4382
   -23.4112 -23.3943 -23.3942 -23.3633 -23.3586 -23.3523 -23.3286 -23.3163
   -23.3079 -23.2601 -23.2451 -23.1889 -17.9728 -16.3937 -14.1936 -12.9294
   -11.2722 -11.2124 -10.8325 -10.6567  -9.6949  -9.1783  -8.4724  -8.0914
    -7.6624  -7.5815  -7.5666  -7.5345  -7.3443  -7.3435  -7.3188  -7.3128
    -7.2824  -7.2730  -7.2657  -7.2551  -7.2263  -7.2136  -7.1477  -7.1335
    -7.1066  -7.0960  -7.0935  -7.0664  -7.0560  -7.0439  -6.9987  -6.9889
    -6.9814  -6.9664  -6.9572  -6.9171  -6.9144  -6.9041  -6.8903  -6.8870
    -6.8733  -6.8651  -6.8489  -6.8347  -6.8102  -6.8040  -6.8013  -6.7937
    -6.7850  -6.7687  -6.7603  -6.7531  -6.7444  -6.7395  -6.7349  -6.7318
    -6.7229  -6.6994  -6.6841  -6.6342  -6.6327  -6.5807  -6.5636  -6.5467
    -6.5270  -6.5079  -6.4960  -6.4881  -6.4538  -6.4416  -6.4356  -6.4160
    -6.4012  -6.3413  -6.3379  -6.3338  -6.3296  -6.2911  -6.2757  -6.2585
    -6.2529  -6.2094  -6.1524  -6.1496  -6.1425  -6.1373  -6.1198  -6.0960
    -6.0689  -6.0544  -6.0541  -6.0261  -6.0072  -5.9888  -5.9816  -5.9730
    -5.9465  -5.9438  -5.9177  -5.8863  -5.8752  -5.8655  -5.7835  -5.7801
    -5.7751  -5.7201  -5.7171  -5.7088  -5.6956  -5.6818  -5.6779  -5.6675
    -5.6604  -5.6476  -5.6121  -5.5993  -5.5852  -5.5820  -5.5556  -5.5442
    -5.5255  -5.5147  -5.4998  -5.4931  -5.4348  -5.4306  -5.4175  -5.4150
    -5.4116  -5.4070  -5.4048  -5.3743  -5.3731  -5.3692  -5.3681  -5.3329
    -5.3212  -5.2883  -5.2703  -5.2630  -5.2490  -5.2489  -5.2457  -5.2430
    -5.2408  -5.2249  -5.2174  -5.2100  -5.2089  -5.1992  -5.1976  -5.1950
    -5.1861  -5.1855  -5.1811  -5.1700  -5.1568  -5.1480  -5.1452  -5.1433
    -5.1068  -5.1034  -5.1009  -5.0894  -5.0853  -5.0743  -5.0612  -5.0312
    -5.0278  -5.0140  -5.0125  -4.9989  -4.9944  -4.9836  -4.9638  -4.9594
    -4.9577  -4.9335  -4.9276  -4.9263  -4.8936  -4.8926  -4.8871  -4.8410
    -4.8307  -4.8276  -4.8041  -4.7767  -4.7467  -4.7417  -4.7217  -4.6973
    -4.6809  -4.6705  -4.6515  -4.6476  -4.6417  -4.6222  -4.6104  -4.5851
    -4.5623  -4.5555  -4.5289  -4.5048  -4.4501  -4.3211  -4.2929  -4.2352
    -4.1965

          k = 0.2500 0.3536 0.0000 (200411 PWs)   bands (ev):

   -46.4066 -46.4053 -46.4017 -46.4007 -46.3950 -46.3942 -46.3903 -46.3897
   -46.3737 -46.3723 -46.3301 -46.3291 -46.2958 -46.2879 -46.2602 -46.2578
   -45.8735 -45.8709 -45.8683 -45.8663 -45.8615 -45.8602 -45.8565 -45.8557
   -45.8423 -45.8400 -45.8310 -45.8293 -45.8228 -45.8209 -45.8116 -45.8103
   -45.7095 -45.7053 -45.7032 -45.6999 -45.6957 -45.6937 -45.6895 -45.6889
   -45.6884 -45.6835 -45.6824 -45.6786 -45.6776 -45.6743 -45.6719 -45.6685
   -45.4322 -45.4319 -45.4276 -45.4273 -45.4213 -45.4208 -45.4169 -45.4162
   -45.3851 -45.3826 -45.3689 -45.3507 -45.3443 -45.3299 -45.3239 -45.3023
   -28.8900 -28.6573 -27.3919 -27.1867 -24.7948 -24.7630 -24.7459 -24.7334
   -24.7256 -24.7013 -24.6760 -24.6736 -24.6719 -24.6530 -24.6333 -24.6202
   -24.6067 -24.6036 -24.5552 -24.5528 -24.5446 -24.4878 -24.4668 -24.4145
   -24.3818 -24.3342 -24.3247 -24.2864 -24.2862 -24.2701 -24.2625 -24.2414
   -24.2368 -24.2265 -24.1887 -24.1827 -24.1795 -24.1445 -24.1372 -24.0949
   -24.0835 -24.0738 -24.0598 -24.0488 -24.0407 -24.0385 -24.0354 -24.0215
   -24.0175 -23.9964 -23.9909 -23.9727 -23.4857 -23.4516 -23.4465 -23.4318
   -23.4173 -23.4005 -23.3898 -23.3679 -23.3542 -23.3489 -23.3321 -23.3191
   -23.3069 -23.2631 -23.2435 -23.1907 -17.9728 -16.3938 -14.1936 -12.9292
   -11.2724 -11.2124 -10.8327 -10.6567  -9.6949  -9.1781  -8.4733  -8.0923
    -7.6623  -7.5180  -7.4854  -7.4778  -7.3411  -7.2779  -7.2765  -7.2760
    -7.2664  -7.2625  -7.2550  -7.2380  -7.2226  -7.1739  -7.1474  -7.1313
    -7.1010  -7.0878  -7.0826  -7.0813  -7.0658  -7.0527  -7.0481  -7.0141
    -7.0133  -6.9968  -6.9955  -6.9889  -6.9804  -6.9766  -6.9663  -6.9569
    -6.9318  -6.9139  -6.8975  -6.8778  -6.8681  -6.8617  -6.8562  -6.8535
    -6.8456  -6.8029  -6.8004  -6.7692  -6.7468  -6.7266  -6.7237  -6.7124
    -6.7045  -6.6855  -6.6380  -6.6267  -6.6158  -6.5808  -6.5768  -6.5561
    -6.5467  -6.5073  -6.4754  -6.4721  -6.4582  -6.4550  -6.4394  -6.4390
    -6.4011  -6.3600  -6.2898  -6.2862  -6.2564  -6.2496  -6.2007  -6.1908
    -6.1783  -6.1533  -6.1470  -6.1151  -6.0804  -6.0724  -6.0548  -6.0449
    -6.0337  -6.0098  -5.9990  -5.9923  -5.9857  -5.9696  -5.9592  -5.9574
    -5.9217  -5.9189  -5.9155  -5.8723  -5.8703  -5.8285  -5.7857  -5.7663
    -5.7587  -5.7530  -5.7389  -5.7115  -5.6751  -5.6745  -5.6626  -5.6516
    -5.6513  -5.6467  -5.6167  -5.5963  -5.5895  -5.5847  -5.5623  -5.4983
    -5.4849  -5.4810  -5.4796  -5.4774  -5.4722  -5.4665  -5.4628  -5.4484
    -5.4458  -5.4383  -5.4296  -5.4264  -5.4246  -5.4112  -5.3919  -5.3903
    -5.3422  -5.3412  -5.3248  -5.3197  -5.2925  -5.2848  -5.2840  -5.2735
    -5.2654  -5.2587  -5.2387  -5.2320  -5.2195  -5.2189  -5.2062  -5.1952
    -5.1862  -5.1701  -5.1632  -5.1572  -5.1502  -5.1215  -5.1087  -5.1038
    -5.1023  -5.0976  -5.0832  -5.0760  -5.0677  -5.0650  -5.0573  -5.0431
    -5.0164  -5.0163  -5.0106  -5.0022  -4.9985  -4.9962  -4.9816  -4.9754
    -4.9536  -4.9416  -4.9406  -4.9209  -4.9111  -4.9007  -4.8836  -4.8591
    -4.8412  -4.7984  -4.7856  -4.7737  -4.7494  -4.7414  -4.7220  -4.6937
    -4.6807  -4.6653  -4.6588  -4.6514  -4.6427  -4.6141  -4.6080  -4.5804
    -4.5651  -4.5634  -4.5251  -4.5062  -4.4585  -4.3176  -4.2964  -4.2331
    -4.1988

          k = 0.2500-0.7071 0.0000 (200442 PWs)   bands (ev):

   -46.4060 -46.4059 -46.4013 -46.4012 -46.3946 -46.3945 -46.3901 -46.3900
   -46.3735 -46.3725 -46.3299 -46.3294 -46.2958 -46.2879 -46.2601 -46.2579
   -45.8724 -45.8721 -45.8675 -45.8671 -45.8610 -45.8606 -45.8563 -45.8559
   -45.8414 -45.8409 -45.8303 -45.8300 -45.8222 -45.8214 -45.8113 -45.8106
   -45.7079 -45.7076 -45.7019 -45.7016 -45.6948 -45.6946 -45.6891 -45.6890
   -45.6863 -45.6853 -45.6812 -45.6793 -45.6770 -45.6748 -45.6720 -45.6686
   -45.4321 -45.4321 -45.4275 -45.4275 -45.4210 -45.4210 -45.4166 -45.4166
   -45.3851 -45.3826 -45.3689 -45.3508 -45.3443 -45.3299 -45.3239 -45.3023
   -28.8900 -28.6573 -27.3919 -27.1867 -24.7791 -24.7790 -24.7359 -24.7358
   -24.7182 -24.7170 -24.6728 -24.6727 -24.6654 -24.6638 -24.6268 -24.6267
   -24.6058 -24.6044 -24.5510 -24.5492 -24.5228 -24.5222 -24.4621 -24.4616
   -24.3651 -24.3646 -24.2971 -24.2964 -24.2688 -24.2682 -24.2515 -24.2509
   -24.2061 -24.2056 -24.2021 -24.2017 -24.1253 -24.1251 -24.1040 -24.1035
   -24.0895 -24.0867 -24.0683 -24.0673 -24.0567 -24.0524 -24.0287 -24.0283
   -24.0150 -24.0114 -23.9877 -23.9818 -23.4688 -23.4688 -23.4320 -23.4320
   -23.4181 -23.4143 -23.3788 -23.3788 -23.3481 -23.3405 -23.3405 -23.3245
   -23.3044 -23.2666 -23.2418 -23.1925 -17.9728 -16.3938 -14.1935 -12.9290
   -11.2725 -11.2123 -10.8328 -10.6566  -9.6948  -9.1780  -8.4740  -8.0930
    -7.6623  -7.3985  -7.3982  -7.3546  -7.3535  -7.2663  -7.2320  -7.2317
    -7.2255  -7.2027  -7.2022  -7.2018  -7.2016  -7.1812  -7.1799  -7.1203
    -7.1195  -7.0962  -7.0960  -7.0910  -7.0905  -7.0902  -7.0899  -7.0613
    -7.0606  -7.0384  -7.0382  -7.0342  -7.0336  -6.9999  -6.9910  -6.9735
    -6.9727  -6.9630  -6.9558  -6.9549  -6.9382  -6.9341  -6.9328  -6.9328
    -6.9027  -6.8999  -6.8028  -6.7897  -6.7890  -6.7699  -6.7691  -6.7248
    -6.6552  -6.6541  -6.6195  -6.6194  -6.5630  -6.5623  -6.5544  -6.5500
    -6.5388  -6.5071  -6.5066  -6.4407  -6.4393  -6.4238  -6.4229  -6.3836
    -6.3824  -6.2891  -6.2883  -6.2716  -6.2711  -6.1890  -6.1887  -6.1827
    -6.1815  -6.0684  -6.0675  -6.0546  -6.0199  -6.0186  -6.0066  -6.0060
    -5.9937  -5.9931  -5.9580  -5.9573  -5.9405  -5.9399  -5.9014  -5.8999
    -5.8823  -5.8819  -5.8764  -5.8749  -5.8281  -5.8272  -5.7684  -5.7679
    -5.7504  -5.7482  -5.7024  -5.7020  -5.6959  -5.6955  -5.6747  -5.6738
    -5.6371  -5.6365  -5.6263  -5.6244  -5.6242  -5.6232  -5.6151  -5.6143
    -5.5264  -5.5260  -5.4933  -5.4928  -5.4733  -5.4725  -5.4621  -5.4598
    -5.4349  -5.4335  -5.4238  -5.4209  -5.4044  -5.4032  -5.3915  -5.3907
    -5.3544  -5.3543  -5.3511  -5.3504  -5.3359  -5.3333  -5.3200  -5.3178
    -5.3013  -5.3007  -5.2399  -5.2386  -5.2064  -5.2056  -5.1974  -5.1967
    -5.1757  -5.1708  -5.1641  -5.1637  -5.1592  -5.1563  -5.1476  -5.1336
    -5.1334  -5.1080  -5.1076  -5.0730  -5.0685  -5.0404  -5.0394  -5.0161
    -5.0047  -5.0023  -5.0021  -4.9932  -4.9919  -4.9744  -4.9744  -4.9668
    -4.9645  -4.9607  -4.9580  -4.9297  -4.9180  -4.8933  -4.8928  -4.8641
    -4.8471  -4.7826  -4.7812  -4.7656  -4.7656  -4.7293  -4.7272  -4.6893
    -4.6770  -4.6759  -4.6556  -4.6551  -4.6431  -4.6071  -4.5900  -4.5900
    -4.5766  -4.5634  -4.5130  -4.5101  -4.4700  -4.3068  -4.3067  -4.2294
    -4.2020

          k =-0.5000 0.0000 0.0000 (200370 PWs)   bands (ev):

   -46.4050 -46.4046 -46.4034 -46.4030 -46.3925 -46.3921 -46.3916 -46.3912
   -46.3738 -46.3721 -46.3303 -46.3289 -46.2958 -46.2878 -46.2602 -46.2577
   -45.8725 -45.8712 -45.8692 -45.8678 -45.8593 -45.8580 -45.8580 -45.8566
   -45.8426 -45.8394 -45.8318 -45.8292 -45.8226 -45.8202 -45.8119 -45.8101
   -45.7092 -45.7057 -45.7030 -45.7005 -45.6933 -45.6915 -45.6915 -45.6901
   -45.6889 -45.6843 -45.6827 -45.6784 -45.6771 -45.6738 -45.6721 -45.6685
   -45.4307 -45.4302 -45.4302 -45.4297 -45.4190 -45.4185 -45.4182 -45.4177
   -45.3851 -45.3826 -45.3689 -45.3507 -45.3442 -45.3299 -45.3238 -45.3023
   -28.8900 -28.6573 -27.3919 -27.1867 -24.7815 -24.7804 -24.7427 -24.7420
   -24.7297 -24.7012 -24.6900 -24.6592 -24.6505 -24.6499 -24.6407 -24.6402
   -24.5918 -24.5840 -24.5621 -24.5555 -24.5392 -24.5323 -24.3822 -24.3790
   -24.3709 -24.3645 -24.3280 -24.3264 -24.2724 -24.2690 -24.2657 -24.2618
   -24.2592 -24.2555 -24.1829 -24.1813 -24.1659 -24.1635 -24.1515 -24.1361
   -24.0593 -24.0576 -24.0499 -24.0479 -24.0325 -24.0306 -24.0284 -24.0208
   -24.0137 -24.0075 -23.9776 -23.9666 -23.4768 -23.4765 -23.4365 -23.4314
   -23.4310 -23.3927 -23.3694 -23.3690 -23.3669 -23.3427 -23.3424 -23.3183
   -23.3005 -23.2562 -23.2482 -23.1902 -17.9728 -16.3937 -14.1936 -12.9295
   -11.2723 -11.2126 -10.8326 -10.6568  -9.6948  -9.1783  -8.4724  -8.0915
    -7.6622  -7.4943  -7.4862  -7.4683  -7.4649  -7.4116  -7.4027  -7.2663
    -7.2472  -7.2301  -7.2258  -7.2220  -7.2211  -7.1742  -7.1647  -7.1594
    -7.1485  -7.1373  -7.1355  -7.1177  -7.1125  -7.1036  -7.0918  -6.9864
    -6.9814  -6.9801  -6.9744  -6.9691  -6.8470  -6.8461  -6.8405  -6.8323
    -6.8310  -6.8306  -6.8278  -6.8231  -6.8206  -6.8184  -6.8107  -6.8089
    -6.8067  -6.7996  -6.7853  -6.7570  -6.7566  -6.7564  -6.7429  -6.7235
    -6.6625  -6.6609  -6.6542  -6.6477  -6.5933  -6.5817  -6.5653  -6.5588
    -6.5458  -6.5276  -6.5234  -6.5200  -6.5163  -6.5071  -6.4908  -6.3378
    -6.3308  -6.3282  -6.3254  -6.2903  -6.2827  -6.2568  -6.2562  -6.2144
    -6.2066  -6.2064  -6.2012  -6.1477  -6.1391  -6.1013  -6.1004  -6.0965
    -6.0862  -6.0563  -6.0547  -6.0394  -6.0388  -6.0364  -6.0282  -6.0227
    -6.0072  -5.9753  -5.9049  -5.9029  -5.8710  -5.8704  -5.8283  -5.8193
    -5.7263  -5.7261  -5.6922  -5.6917  -5.6510  -5.6475  -5.6409  -5.6374
    -5.6067  -5.6014  -5.5945  -5.5927  -5.5922  -5.5847  -5.5537  -5.5498
    -5.5147  -5.5098  -5.5090  -5.5075  -5.5068  -5.5004  -5.4627  -5.4588
    -5.3447  -5.3400  -5.3393  -5.3338  -5.3328  -5.3309  -5.3303  -5.3270
    -5.3250  -5.3236  -5.3055  -5.3049  -5.2985  -5.2956  -5.2483  -5.2481
    -5.2108  -5.2082  -5.2067  -5.2066  -5.2010  -5.1894  -5.1869  -5.1856
    -5.1766  -5.1755  -5.1664  -5.1654  -5.1625  -5.1509  -5.1458  -5.1232
    -5.1087  -5.0953  -5.0938  -5.0931  -5.0865  -5.0851  -5.0846  -5.0529
    -5.0509  -5.0323  -5.0251  -5.0151  -5.0086  -5.0084  -4.9864  -4.9779
    -4.9744  -4.9659  -4.9649  -4.9441  -4.9297  -4.9075  -4.8910  -4.8619
    -4.8349  -4.8134  -4.8004  -4.7430  -4.7425  -4.7354  -4.7036  -4.6844
    -4.6643  -4.6625  -4.6607  -4.6604  -4.6302  -4.6057  -4.5635  -4.5616
    -4.5060  -4.4419  -4.4416  -4.4353  -4.4351  -4.3822  -4.3611  -4.3429
    -4.3044

          k =-0.5000 0.3536 0.0000 (200424 PWs)   bands (ev):

   -46.4048 -46.4044 -46.4036 -46.4032 -46.3923 -46.3919 -46.3918 -46.3914
   -46.3737 -46.3723 -46.3301 -46.3291 -46.2958 -46.2879 -46.2602 -46.2578
   -45.8721 -45.8707 -45.8697 -45.8683 -45.8591 -45.8582 -45.8578 -45.8569
   -45.8422 -45.8399 -45.8315 -45.8296 -45.8223 -45.8206 -45.8117 -45.8104
   -45.7086 -45.7052 -45.7044 -45.7015 -45.6931 -45.6919 -45.6911 -45.6894
   -45.6885 -45.6834 -45.6831 -45.6788 -45.6770 -45.6741 -45.6721 -45.6686
   -45.4306 -45.4303 -45.4301 -45.4298 -45.4189 -45.4184 -45.4184 -45.4178
   -45.3851 -45.3826 -45.3690 -45.3508 -45.3442 -45.3299 -45.3239 -45.3023
   -28.8900 -28.6573 -27.3919 -27.1867 -24.7759 -24.7749 -24.7484 -24.7478
   -24.7242 -24.6961 -24.6951 -24.6654 -24.6491 -24.6485 -24.6421 -24.6416
   -24.5908 -24.5852 -24.5612 -24.5561 -24.5306 -24.5239 -24.4487 -24.4436
   -24.3249 -24.3235 -24.3115 -24.3064 -24.2950 -24.2944 -24.2693 -24.2630
   -24.2300 -24.2275 -24.1741 -24.1717 -24.1689 -24.1661 -24.1273 -24.1134
   -24.0678 -24.0661 -24.0559 -24.0552 -24.0411 -24.0364 -24.0342 -24.0247
   -24.0197 -24.0066 -23.9845 -23.9731 -23.4703 -23.4699 -23.4381 -23.4377
   -23.4302 -23.3990 -23.3655 -23.3651 -23.3622 -23.3467 -23.3463 -23.3224
   -23.2984 -23.2591 -23.2465 -23.1920 -17.9728 -16.3938 -14.1935 -12.9292
   -11.2724 -11.2124 -10.8327 -10.6567  -9.6948  -9.1781  -8.4734  -8.0924
    -7.6622  -7.4216  -7.4186  -7.4031  -7.3954  -7.3651  -7.3560  -7.2663
    -7.2291  -7.2286  -7.2257  -7.1887  -7.1798  -7.1727  -7.1615  -7.1566
    -7.1543  -7.1234  -7.1199  -7.1187  -7.1158  -7.0493  -7.0408  -7.0365
    -7.0322  -7.0236  -7.0224  -6.9805  -6.9785  -6.9715  -6.9701  -6.9639
    -6.9242  -6.9189  -6.9039  -6.8998  -6.8935  -6.8830  -6.8744  -6.8624
    -6.8467  -6.8351  -6.8019  -6.7700  -6.7499  -6.7241  -6.7011  -6.6961
    -6.6666  -6.6665  -6.6625  -6.6491  -6.6179  -6.5996  -6.5594  -6.5583
    -6.5469  -6.5132  -6.5007  -6.4404  -6.4260  -6.4160  -6.4099  -6.3640
    -6.3602  -6.3077  -6.3027  -6.2452  -6.2436  -6.2234  -6.2232  -6.1361
    -6.1268  -6.1247  -6.1232  -6.0896  -6.0865  -6.0744  -6.0690  -6.0649
    -6.0643  -6.0546  -6.0210  -6.0103  -6.0026  -5.9983  -5.9807  -5.9768
    -5.9508  -5.9339  -5.9335  -5.9322  -5.9316  -5.9283  -5.7687  -5.7635
    -5.7167  -5.7146  -5.7103  -5.7085  -5.7040  -5.7028  -5.6636  -5.6585
    -5.6413  -5.6411  -5.6299  -5.6254  -5.5591  -5.5582  -5.5421  -5.5390
    -5.4719  -5.4668  -5.4603  -5.4592  -5.4485  -5.4413  -5.4292  -5.4267
    -5.4117  -5.4111  -5.3700  -5.3645  -5.3639  -5.3605  -5.3565  -5.3531
    -5.3491  -5.3475  -5.3228  -5.3180  -5.3033  -5.2985  -5.2962  -5.2928
    -5.2652  -5.2640  -5.2502  -5.2461  -5.2323  -5.2306  -5.2230  -5.2205
    -5.1781  -5.1758  -5.1701  -5.1645  -5.1612  -5.1608  -5.1501  -5.1053
    -5.1025  -5.0961  -5.0889  -5.0791  -5.0741  -5.0725  -5.0685  -5.0576
    -5.0553  -5.0487  -5.0412  -5.0298  -5.0135  -4.9883  -4.9867  -4.9826
    -4.9823  -4.9551  -4.9438  -4.9353  -4.9204  -4.8993  -4.8891  -4.8660
    -4.8500  -4.7942  -4.7824  -4.7473  -4.7463  -4.7330  -4.7095  -4.6819
    -4.6678  -4.6666  -4.6637  -4.6625  -4.6307  -4.6046  -4.5624  -4.5609
    -4.5053  -4.4406  -4.4403  -4.4357  -4.4355  -4.3809  -4.3624  -4.3424
    -4.3040

          k =-0.5000-0.7071 0.0000 (200236 PWs)   bands (ev):

   -46.4043 -46.4042 -46.4039 -46.4038 -46.3919 -46.3919 -46.3915 -46.3915
   -46.3734 -46.3725 -46.3298 -46.3293 -46.2957 -46.2878 -46.2600 -46.2578
   -45.8710 -45.8708 -45.8698 -45.8693 -45.8587 -45.8584 -45.8574 -45.8570
   -45.8413 -45.8408 -45.8307 -45.8303 -45.8218 -45.8210 -45.8112 -45.8106
   -45.7071 -45.7068 -45.7039 -45.7035 -45.6924 -45.6923 -45.6903 -45.6901
   -45.6860 -45.6851 -45.6815 -45.6796 -45.6765 -45.6743 -45.6719 -45.6684
   -45.4305 -45.4305 -45.4299 -45.4299 -45.4185 -45.4185 -45.4180 -45.4180
   -45.3851 -45.3826 -45.3689 -45.3507 -45.3442 -45.3298 -45.3238 -45.3022
   -28.8900 -28.6573 -27.3919 -27.1867 -24.7623 -24.7622 -24.7615 -24.7614
   -24.7109 -24.7099 -24.6814 -24.6795 -24.6456 -24.6455 -24.6451 -24.6450
   -24.5887 -24.5873 -24.5595 -24.5576 -24.5019 -24.5015 -24.4961 -24.4954
   -24.3151 -24.3143 -24.3138 -24.3134 -24.2810 -24.2806 -24.2755 -24.2747
   -24.1972 -24.1967 -24.1947 -24.1945 -24.1176 -24.1174 -24.1154 -24.1150
   -24.0824 -24.0806 -24.0703 -24.0649 -24.0471 -24.0466 -24.0463 -24.0458
   -24.0029 -24.0001 -23.9927 -23.9862 -23.4543 -23.4543 -23.4539 -23.4539
   -23.4173 -23.4120 -23.3561 -23.3561 -23.3561 -23.3557 -23.3557 -23.3281
   -23.2957 -23.2624 -23.2447 -23.1939 -17.9728 -16.3937 -14.1934 -12.9289
   -11.2724 -11.2121 -10.8327 -10.6565  -9.6945  -9.1778  -8.4739  -8.0929
    -7.6620  -7.2986  -7.2983  -7.2971  -7.2966  -7.2665  -7.2466  -7.2460
    -7.2360  -7.2341  -7.2200  -7.1572  -7.1569  -7.1519  -7.1512  -7.1387
    -7.1380  -7.1349  -7.1339  -7.1172  -7.1169  -7.1070  -7.1060  -7.0858
    -7.0852  -7.0751  -7.0740  -7.0486  -7.0478  -7.0411  -7.0395  -6.9974
    -6.9973  -6.9946  -6.9945  -6.9822  -6.9680  -6.9655  -6.9432  -6.9296
    -6.8024  -6.7904  -6.7903  -6.7872  -6.7868  -6.7828  -6.7823  -6.7694
    -6.7687  -6.7246  -6.6128  -6.6123  -6.6093  -6.6088  -6.5485  -6.5227
    -6.5203  -6.5031  -6.4984  -6.3427  -6.3427  -6.3419  -6.3416  -6.3132
    -6.3126  -6.3009  -6.2998  -6.1694  -6.1693  -6.1670  -6.1668  -6.1223
    -6.1203  -6.1166  -6.1156  -6.0666  -6.0635  -6.0618  -6.0614  -6.0518
    -6.0284  -6.0263  -6.0238  -6.0226  -5.9889  -5.9888  -5.9834  -5.9819
    -5.8580  -5.8577  -5.8511  -5.8497  -5.7461  -5.7459  -5.7429  -5.7413
    -5.7258  -5.7257  -5.7254  -5.7248  -5.6964  -5.6946  -5.6941  -5.6884
    -5.6647  -5.6641  -5.6603  -5.6600  -5.6537  -5.6532  -5.6460  -5.6450
    -5.4491  -5.4490  -5.4480  -5.4470  -5.4421  -5.4420  -5.4416  -5.4415
    -5.4249  -5.4246  -5.4236  -5.4212  -5.4087  -5.4077  -5.3975  -5.3967
    -5.3706  -5.3687  -5.3650  -5.3588  -5.2735  -5.2731  -5.2724  -5.2714
    -5.2609  -5.2603  -5.2590  -5.2580  -5.2058  -5.2051  -5.1969  -5.1935
    -5.1893  -5.1889  -5.1864  -5.1848  -5.1547  -5.1407  -5.1393  -5.1386
    -5.1377  -5.1194  -5.1190  -5.1060  -5.0914  -5.0677  -5.0677  -5.0675
    -5.0674  -5.0178  -5.0089  -5.0002  -4.9964  -4.9923  -4.9900  -4.9778
    -4.9727  -4.9691  -4.9665  -4.9645  -4.9469  -4.9031  -4.8939  -4.8739
    -4.8523  -4.7599  -4.7599  -4.7584  -4.7581  -4.7269  -4.7236  -4.6795
    -4.6692  -4.6678  -4.6641  -4.6636  -4.6322  -4.6030  -4.5610  -4.5593
    -4.5041  -4.4376  -4.4376  -4.4373  -4.4373  -4.3791  -4.3639  -4.3418
    -4.3035

          k =-0.2500 0.3536 0.0000 (200411 PWs)   bands (ev):

   -46.4066 -46.4053 -46.4017 -46.4007 -46.3950 -46.3942 -46.3903 -46.3897
   -46.3737 -46.3723 -46.3301 -46.3291 -46.2958 -46.2879 -46.2602 -46.2578
   -45.8735 -45.8709 -45.8683 -45.8663 -45.8615 -45.8602 -45.8565 -45.8557
   -45.8423 -45.8400 -45.8310 -45.8293 -45.8228 -45.8209 -45.8116 -45.8103
   -45.7095 -45.7053 -45.7032 -45.6999 -45.6957 -45.6937 -45.6895 -45.6889
   -45.6884 -45.6835 -45.6824 -45.6786 -45.6776 -45.6743 -45.6719 -45.6685
   -45.4322 -45.4319 -45.4276 -45.4273 -45.4213 -45.4208 -45.4169 -45.4162
   -45.3851 -45.3826 -45.3689 -45.3507 -45.3443 -45.3299 -45.3239 -45.3023
   -28.8900 -28.6573 -27.3919 -27.1867 -24.7948 -24.7630 -24.7459 -24.7334
   -24.7256 -24.7013 -24.6760 -24.6736 -24.6719 -24.6530 -24.6333 -24.6202
   -24.6067 -24.6036 -24.5552 -24.5528 -24.5446 -24.4878 -24.4668 -24.4145
   -24.3818 -24.3342 -24.3247 -24.2864 -24.2862 -24.2701 -24.2625 -24.2414
   -24.2368 -24.2265 -24.1887 -24.1827 -24.1795 -24.1445 -24.1372 -24.0949
   -24.0835 -24.0738 -24.0598 -24.0488 -24.0407 -24.0385 -24.0354 -24.0215
   -24.0175 -23.9964 -23.9909 -23.9727 -23.4857 -23.4516 -23.4465 -23.4318
   -23.4173 -23.4005 -23.3898 -23.3679 -23.3542 -23.3489 -23.3321 -23.3191
   -23.3069 -23.2631 -23.2435 -23.1907 -17.9728 -16.3938 -14.1935 -12.9292
   -11.2724 -11.2123 -10.8327 -10.6567  -9.6948  -9.1782  -8.4733  -8.0923
    -7.6623  -7.5180  -7.4854  -7.4778  -7.3411  -7.2778  -7.2766  -7.2760
    -7.2664  -7.2623  -7.2550  -7.2382  -7.2226  -7.1739  -7.1474  -7.1313
    -7.1010  -7.0879  -7.0826  -7.0813  -7.0659  -7.0527  -7.0481  -7.0141
    -7.0133  -6.9968  -6.9956  -6.9888  -6.9801  -6.9766  -6.9666  -6.9570
    -6.9318  -6.9139  -6.8974  -6.8778  -6.8681  -6.8617  -6.8562  -6.8534
    -6.8457  -6.8027  -6.8008  -6.7692  -6.7467  -6.7264  -6.7239  -6.7124
    -6.7045  -6.6855  -6.6380  -6.6267  -6.6158  -6.5809  -6.5769  -6.5560
    -6.5467  -6.5074  -6.4754  -6.4721  -6.4583  -6.4551  -6.4394  -6.4389
    -6.4012  -6.3601  -6.2898  -6.2863  -6.2564  -6.2496  -6.2007  -6.1908
    -6.1783  -6.1533  -6.1470  -6.1151  -6.0805  -6.0724  -6.0550  -6.0449
    -6.0337  -6.0097  -5.9990  -5.9923  -5.9857  -5.9696  -5.9592  -5.9574
    -5.9218  -5.9189  -5.9155  -5.8723  -5.8703  -5.8285  -5.7857  -5.7663
    -5.7587  -5.7530  -5.7389  -5.7115  -5.6751  -5.6745  -5.6625  -5.6516
    -5.6513  -5.6467  -5.6167  -5.5963  -5.5895  -5.5847  -5.5623  -5.4983
    -5.4849  -5.4810  -5.4795  -5.4774  -5.4722  -5.4665  -5.4628  -5.4484
    -5.4458  -5.4383  -5.4297  -5.4264  -5.4246  -5.4113  -5.3919  -5.3903
    -5.3422  -5.3412  -5.3249  -5.3197  -5.2925  -5.2848  -5.2840  -5.2735
    -5.2654  -5.2587  -5.2387  -5.2320  -5.2195  -5.2189  -5.2062  -5.1955
    -5.1862  -5.1701  -5.1632  -5.1563  -5.1508  -5.1213  -5.1092  -5.1038
    -5.1023  -5.0976  -5.0831  -5.0758  -5.0677  -5.0649  -5.0573  -5.0431
    -5.0165  -5.0163  -5.0106  -5.0022  -4.9985  -4.9962  -4.9815  -4.9754
    -4.9536  -4.9416  -4.9406  -4.9209  -4.9113  -4.9008  -4.8834  -4.8588
    -4.8414  -4.7985  -4.7856  -4.7737  -4.7494  -4.7415  -4.7218  -4.6936
    -4.6806  -4.6653  -4.6588  -4.6514  -4.6427  -4.6141  -4.6080  -4.5805
    -4.5651  -4.5634  -4.5251  -4.5060  -4.4585  -4.3176  -4.2964  -4.2330
    -4.1988

     highest occupied level (ev):    -4.1436

!    total energy              =   -4345.71209287 Ry
     estimated scf accuracy    <          3.8E-11 Ry

     The total energy is the sum of the following terms:
     one-electron contribution = -103133.25531247 Ry
     hartree contribution      =   51710.65431872 Ry
     xc contribution           =    -998.21733247 Ry
     ewald contribution        =   48075.10623335 Ry

     convergence has been achieved in   8 iterations

     Forces acting on atoms (cartesian axes, Ry/au):

     atom    1 type  1   force =    -0.00000050   -0.00000006    0.00047769
     atom    2 type  1   force =     0.00001056    0.00000129    0.00024452
     atom    3 type  1   force =     0.00000431    0.00000061    0.00023532
     atom    4 type  1   force =     0.00000175   -0.00000008    0.00047924
     atom    5 type  2   force =    -0.00000676    0.00000006   -0.00019584
     atom    6 type  2   force =     0.00000104   -0.00000050   -0.00030356
     atom    7 type  2   force =    -0.00000286   -0.00000072   -0.00030675
     atom    8 type  2   force =    -0.00000292    0.00000004   -0.00018321
     atom    9 type  1   force =     0.00001970   -0.00000039    0.00006965
     atom   10 type  1   force =     0.00002008    0.00000327    0.00013392
     atom   11 type  1   force =     0.00004982    0.00001080    0.00019494
     atom   12 type  1   force =    -0.00000844   -0.00000024    0.00005974
     atom   13 type  2   force =    -0.00001613    0.00000072   -0.00023564
     atom   14 type  2   force =    -0.00001813   -0.00000349   -0.00046648
     atom   15 type  2   force =     0.00000738   -0.00000192   -0.00045114
     atom   16 type  2   force =    -0.00003925    0.00000114   -0.00031432
     atom   17 type  1   force =    -0.00004718   -0.00000114    0.00025045
     atom   18 type  1   force =     0.00024506    0.00007440    0.00057861
     atom   19 type  1   force =     0.00009777    0.00000651    0.00021848
     atom   20 type  1   force =     0.00010152   -0.00000319    0.00029468
     atom   21 type  2   force =    -0.00020663    0.00001123   -0.00014435
     atom   22 type  2   force =     0.00003721   -0.00000754   -0.00009308
     atom   23 type  2   force =    -0.00008915   -0.00002139   -0.00015298
     atom   24 type  2   force =    -0.00008734    0.00000946    0.00022452
     atom   25 type  1   force =     0.00041735   -0.00001341   -0.00004829
     atom   26 type  1   force =     0.00010770   -0.00017909   -0.00137227
     atom   27 type  1   force =     0.00085600    0.00079387    0.00073605
     atom   28 type  1   force =    -0.00022241   -0.00000006   -0.00017509
     atom   29 type  2   force =    -0.00012139    0.00003351    0.00094538
     atom   30 type  2   force =    -0.00020393   -0.00014668    0.00005364
     atom   31 type  2   force =     0.00007553   -0.00000385    0.00016758
     atom   32 type  2   force =    -0.00049179    0.00017642   -0.00010948
     atom   33 type  1   force =    -0.00000053    0.00000010    0.00047805
     atom   34 type  1   force =     0.00001057   -0.00000113    0.00024482
     atom   35 type  1   force =     0.00000439   -0.00000046    0.00023553
     atom   36 type  1   force =     0.00000197    0.00000012    0.00047981
     atom   37 type  2   force =    -0.00000692   -0.00000010   -0.00020074
     atom   38 type  2   force =     0.00000103    0.00000063   -0.00030358
     atom   39 type  2   force =    -0.00000286    0.00000083   -0.00030683
     atom   40 type  2   force =    -0.00000308   -0.00000007   -0.00018403
     atom   41 type  1   force =     0.00002366    0.00000042    0.00007561
     atom   42 type  1   force =     0.00002094   -0.00000314    0.00013572
     atom   43 type  1   force =     0.00004992   -0.00001060    0.00019784
     atom   44 type  1   force =    -0.00000930    0.00000025    0.00006276
     atom   45 type  2   force =    -0.00001740   -0.00000079   -0.00023155
     atom   46 type  2   force =    -0.00001818    0.00000366   -0.00046750
     atom   47 type  2   force =     0.00000736    0.00000208   -0.00045150
     atom   48 type  2   force =    -0.00004050   -0.00000111   -0.00036000
     atom   49 type  1   force =    -0.00005653    0.00000118    0.00025926
     atom   50 type  1   force =     0.00024612   -0.00008090    0.00061641
     atom   51 type  1   force =     0.00010950   -0.00000454    0.00023219
     atom   52 type  1   force =     0.00013962    0.00000251    0.00032222
     atom   53 type  2   force =    -0.00020800   -0.00002013   -0.00057860
     atom   54 type  2   force =     0.00003707    0.00000779   -0.00009436
     atom   55 type  2   force =    -0.00008902    0.00002043   -0.00016017
     atom   56 type  2   force =    -0.00010173   -0.00000525    0.00031261
     atom   57 type  1   force =     0.00046292    0.00006547   -0.00024283
     atom   58 type  1   force =     0.00012951    0.00020586   -0.00136806
     atom   59 type  1   force =     0.00091855   -0.00056206    0.00085285
     atom   60 type  1   force =    -0.00026309    0.00000840   -0.00021141
     atom   61 type  2   force =    -0.00007457    0.00000694    0.00163856
     atom   62 type  2   force =    -0.00025885    0.00025555    0.00000022
     atom   63 type  2   force =     0.00007597    0.00001776    0.00016316
     atom   64 type  2   force =    -0.00168378    0.00070603   -0.00305496
     atom   65 type  1   force =     0.00000047   -0.00000008    0.00048292
     atom   66 type  1   force =    -0.00001060    0.00000075    0.00023908
     atom   67 type  1   force =    -0.00000432    0.00000128    0.00024819
     atom   68 type  1   force =    -0.00000176   -0.00000006    0.00048136
     atom   69 type  2   force =     0.00000675    0.00000001   -0.00018886
     atom   70 type  2   force =    -0.00000103   -0.00000097   -0.00031490
     atom   71 type  2   force =     0.00000283   -0.00000076   -0.00031171
     atom   72 type  2   force =     0.00000290    0.00000004   -0.00020142
     atom   73 type  1   force =    -0.00001964   -0.00000026    0.00008540
     atom   74 type  1   force =    -0.00001978    0.00001027    0.00022042
     atom   75 type  1   force =    -0.00005018    0.00000491    0.00016101
     atom   76 type  1   force =     0.00000833   -0.00000041    0.00009528
     atom   77 type  2   force =     0.00001598    0.00000082   -0.00035170
     atom   78 type  2   force =     0.00001767   -0.00000392   -0.00049141
     atom   79 type  2   force =    -0.00000699   -0.00000547   -0.00050687
     atom   80 type  2   force =     0.00003935    0.00000046   -0.00027402
     atom   81 type  1   force =     0.00004521   -0.00000348    0.00041416
     atom   82 type  1   force =    -0.00025819    0.00002572    0.00040015
     atom   83 type  1   force =    -0.00008532    0.00006838    0.00073671
     atom   84 type  1   force =    -0.00009962   -0.00000167    0.00037216
     atom   85 type  2   force =     0.00021765    0.00000423    0.00002323
     atom   86 type  2   force =    -0.00003116   -0.00004041   -0.00031837
     atom   87 type  2   force =     0.00008309   -0.00002488   -0.00025914
     atom   88 type  2   force =     0.00007531    0.00000847   -0.00033162
     atom   89 type  1   force =    -0.00036947    0.00000241    0.00030644
     atom   90 type  1   force =    -0.00023602    0.00096605    0.00168502
     atom   91 type  1   force =    -0.00071534    0.00027914   -0.00016524
     atom   92 type  1   force =     0.00017394   -0.00000790    0.00045674
     atom   93 type  2   force =     0.00014310    0.00010316   -0.00070468
     atom   94 type  2   force =     0.00014093   -0.00013373   -0.00026789
     atom   95 type  2   force =    -0.00003901   -0.00016395   -0.00039200
     atom   96 type  2   force =     0.00046707    0.00003010    0.00024386
     atom   97 type  1   force =     0.00000045    0.00000012    0.00048376
     atom   98 type  1   force =    -0.00001060   -0.00000060    0.00023923
     atom   99 type  1   force =    -0.00000440   -0.00000113    0.00024843
     atom  100 type  1   force =    -0.00000193    0.00000010    0.00048198
     atom  101 type  2   force =     0.00000690   -0.00000004   -0.00019083
     atom  102 type  2   force =    -0.00000103    0.00000110   -0.00031500
     atom  103 type  2   force =     0.00000284    0.00000090   -0.00031174
     atom  104 type  2   force =     0.00000304   -0.00000007   -0.00020619
     atom  105 type  1   force =    -0.00002243    0.00000028    0.00009208
     atom  106 type  1   force =    -0.00002060   -0.00001011    0.00022242
     atom  107 type  1   force =    -0.00005033   -0.00000477    0.00016208
     atom  108 type  1   force =     0.00000801    0.00000043    0.00010489
     atom  109 type  2   force =     0.00001731   -0.00000082   -0.00039154
     atom  110 type  2   force =     0.00001772    0.00000409   -0.00049179
     atom  111 type  2   force =    -0.00000696    0.00000565   -0.00050798
     atom  112 type  2   force =     0.00004046   -0.00000049   -0.00028545
     atom  113 type  1   force =     0.00003951    0.00000251    0.00047372
     atom  114 type  1   force =    -0.00026072   -0.00002527    0.00040580
     atom  115 type  1   force =    -0.00009583   -0.00007205    0.00075146
     atom  116 type  1   force =    -0.00012249    0.00000131    0.00041104
     atom  117 type  2   force =     0.00022992   -0.00000283   -0.00004505
     atom  118 type  2   force =    -0.00003118    0.00003877   -0.00032712
     atom  119 type  2   force =     0.00008316    0.00002437   -0.00026115
     atom  120 type  2   force =     0.00008421   -0.00001223   -0.00064597
     atom  121 type  1   force =    -0.00042277    0.00002893    0.00048164
     atom  122 type  1   force =    -0.00028710   -0.00071483    0.00157390
     atom  123 type  1   force =    -0.00070198   -0.00022968   -0.00016531
     atom  124 type  1   force =     0.00011243    0.00007514    0.00068892
     atom  125 type  2   force =     0.00028308    0.00038569   -0.00272518
     atom  126 type  2   force =     0.00017840    0.00019785   -0.00029390
     atom  127 type  2   force =    -0.00001444    0.00031324   -0.00049489
     atom  128 type  2   force =     0.00082688    0.00003294   -0.00017836
     atom  129 type  3   force =    -0.00087236    0.00010413    0.00040667
     atom  130 type  3   force =     0.00062521    0.00016561   -0.00333867
     atom  131 type  4   force =     0.00016696   -0.00028700   -0.00010890
     atom  132 type  4   force =    -0.00011292    0.00005056    0.00014684
     atom  133 type  4   force =    -0.00008295   -0.00007738    0.00012639
     atom  134 type  3   force =    -0.00061202    0.00001388    0.00168902
     atom  135 type  2   force =     0.00069111   -0.00080069    0.00281791
     atom  136 type  4   force =    -0.00027163   -0.00004899   -0.00059558
     atom  137 type  3   force =     0.00068715    0.00038082   -0.00403505
     atom  138 type  2   force =     0.00016545   -0.00153555    0.00005421
     atom  139 type  4   force =    -0.00009409    0.00036573   -0.00028496
     atom  140 type  2   force =    -0.00027463   -0.00115986    0.00083088
     atom  141 type  2   force =    -0.00022696    0.00037453    0.00205474
     atom  142 type  4   force =     0.00094723   -0.00005788    0.00077686

     Total force =     0.010449     Total SCF correction =     0.000008


     Computing stress (Cartesian axis) and pressure

          total   stress  (Ry/bohr**3)                   (kbar)     P=      -51.76
  -0.00029167   0.00000008  -0.00000026          -42.91        0.01       -0.04
   0.00000008  -0.00042991  -0.00000033            0.01      -63.24       -0.05
  -0.00000026  -0.00000033  -0.00033400           -0.04       -0.05      -49.13

     Energy error            =      1.9E-04 Ry
     Gradient error          =      4.0E-03 Ry/Bohr

     number of scf cycles    =   3
     number of bfgs steps    =   2

     energy             old  =   -4345.7119010401 Ry
     energy             new  =   -4345.7120928736 Ry

     CASE: energy            _new < energy            _old

     new trust radius        =       0.0086399633 bohr
     new conv_thr            =       0.0000000002 Ry


ATOMIC_POSITIONS (angstrom)
Li              -0.0000101950       -0.0000001930       15.2253352810
Li               4.3311817777        2.0417174023       16.3552554275
Li               1.4437283551        2.0417154495       16.3552037955
Li               2.8874405186       -0.0000002430       15.2253433244
F                4.3310858048       -0.0000001615       16.4340125177
F                0.0000096250        2.0417121525       15.0831055963
F                2.8873986925        2.0417116726       15.0830932389
F                1.4436944072       -0.0000002011       16.4340754684
Li               2.8875277924        8.1668560419       17.9589550925
Li               1.4437985997        2.0417244071       19.3063910292
Li               4.3313846351        2.0417494347       19.3066756069
Li              11.5496231976        8.1668563782       17.9589103044
F                1.4436350869        0.0000011164       19.3292492358
F                2.8873214960        2.0417028311       17.9166210313
F                0.0000464251        2.0417069330       17.9166813819
F                4.3309149245        0.0000019236       19.3289180784
Li              11.5494197790        8.1668547125       20.8022481816
Li               4.3323392919        2.0420100763       22.1507448915
Li               1.4441098186        2.0417372734       22.1492869295
Li               2.8879245265        8.1668505863       20.8024391201
F                4.3301220574        0.0000200911       22.1858056119
F               11.5499030232        2.0416799309       20.7741911619
F                2.8869494888        2.0416380850       20.7739400230
F                1.4433675341        0.0000166361       22.1872824935
Li               2.8895931296       -0.0000368847       23.7524640194
Li               1.4444159093        2.0411599245       24.8779901831
Li               4.3357163883        2.0446671769       24.8865493508
Li              11.5484751292       -0.0000037146       23.7518836509
F                1.4430281536        0.0000993080       25.0246706828
F                2.8853566065        2.0411887919       23.6701358752
F                0.0010531950        2.0416466147       23.6708505903
F                4.3280351531        0.0005504308       25.0200768034
Li              -0.0000104325        4.0834273295       15.2253367061
Li               4.3311817898        6.1251372020       16.3552558999
Li               1.4437285170        6.1251391598       16.3552040915
Li               2.8874414689        4.0834273602       15.2253454140
F                4.3310850339        4.0834269075       16.4339997244
F                0.0000095972        6.1251424234       15.0831056932
F                2.8873986873        6.1251428903       15.0830932664
F                1.4436938139        4.0834269599       16.4340722574
Li               2.8875409719        4.0834279026       17.9589755357
Li               1.4438004397        6.1251301543       19.3063944192
Li               4.3313848131        6.1251052640       19.3066810481
Li              11.5496193962        4.0834275559       17.9589220482
F                1.4436289967        4.0834256288       19.3292465523
F                2.8873213857        6.1251519167       17.9166191809
F                0.0000463371        6.1251478121       17.9166807773
F                4.3309056939        4.0834249760       19.3287925067
Li              -0.0003047265        4.0834292333       20.8023002153
Li               4.3323423683        6.1248285834       22.1508210351
Li               1.4441330229        6.1251191199       22.1493152150
Li               2.8880738252        4.0834324773       20.8025732666
F                4.3300462297        4.0833817050       22.1845687142
F               11.5499020146        6.1251748738       20.7741880645
F                2.8869488149        6.1252151752       20.7739249026
F                1.4432910452        4.0834149658       22.1874820567
Li               2.8908638080        4.0835499414       23.7525966197
Li               1.4444476957        6.1257932963       24.8780060352
Li               4.3359437162        6.1229599986       24.8869575849
Li              -0.0017762424        4.0834448151       23.7518710646
F                1.4431429708        4.0834803900       25.0271195892
F                2.8852319231        6.1258520845       23.6700248920
F               11.5507247449        6.1252330647       23.6708323858
F                4.3228210793        4.0859050314       25.0089456668
Li               5.7748482564       -0.0000002401       15.2253662432
Li              10.1059134448        2.0417159796       16.3552284196
Li               7.2185287286        2.0417175826       16.3552798383
Li               8.6622356657       -0.0000002037       15.2253581339
F               10.1060093843       -0.0000002730       16.4340445737
F                5.7748285301        2.0417109866       15.0830590894
F                8.6622774572        2.0417114697       15.0830711283
F                7.2185627876        8.1668566827       16.4339816948
Li               8.6621487539        8.1668563735       17.9590417031
Li               7.2184579245        2.0417505945       19.3068093230
Li              10.1057110900        2.0417316828       19.3065296971
Li               5.7748906847        8.1668560217       17.9590866310
F                7.2186223232        0.0000011828       19.3287525442
F                8.6623534871        2.0417008634       17.9165073055
F                5.7747927403        2.0416968309       17.9164464997
F               10.1061799197        8.1668573333       19.3290802705
Li               5.7750869244        8.1668501120       20.8030311576
Li              10.1047582743        2.0418321225       22.1500438459
Li               7.2181437053        2.0420191763       22.1514242359
Li               8.6617591972        8.1668544919       20.8028397115
F               10.1069767705        0.0000049192       22.1864682716
F                5.7746293115        2.0415728492       20.7731649017
F                8.6627086446        2.0416169475       20.7734270012
F                7.2188842683        0.0000129796       22.1850442012
Li               8.6602366063        8.1668597008       23.7541514751
Li               7.2171955823        2.0453246807       24.8901823042
Li              10.1020902638        2.0428052866       24.8827737693
Li               5.7758834450       -0.0000439795       23.7548386965
F                7.2194663575        0.0003202022       25.0175921932
F                8.6640450942        2.0409557783       23.6681041870
F                5.7740157200        2.0406828021       23.6671961016
F               10.1088101848        0.0000911949       25.0217533674
Li               5.7748483203        4.0834273570       15.2253693128
Li              10.1059134555        6.1251386405       16.3552285942
Li               7.2185285472        6.1251370276       16.3552801769
Li               8.6622348897        4.0834273188       15.2253605667
F               10.1060101207        4.0834270380       16.4340385424
F                5.7748285380        6.1251435895       15.0830590626
F                8.6622774589        6.1251431333       15.0830712462
F                7.2185632900        4.0834269659       16.4339684069
Li               8.6621387580        4.0834275576       17.9590663997
Li               7.2184558782        6.1251040251       19.3068128092
Li              10.1057111110        6.1251228981       19.3065313061
Li               5.7748913227        4.0834279253       17.9591200092
F                7.2186285280        4.0834256884       19.3286289422
F                8.6623536357        6.1251538725       17.9165068697
F                5.7747928514        6.1251579393       17.9164446191
F               10.1061887784        4.0834263504       19.3290361144
Li               5.7750872869        4.0834326970       20.8033003531
Li              10.1047584651        6.1250220914       22.1500515912
Li               7.2181167798        6.1248257621       22.1514543547
Li               8.6616580568        4.0834290185       20.8030269169
F               10.1070829299        4.0834224358       22.1861736759
F                5.7746301483        6.1252794747       20.7731475468
F                8.6627096553        6.1252368768       20.7734252992
F                7.2189408299        4.0834001154       22.1839598434
Li               8.6593849491        4.0834632189       23.7556369382
Li               7.2170247677        6.1223480155       24.8898080883
Li              10.1021678181        6.1242161581       24.8827724815
Li               5.7759019920        4.0835556597       23.7569325779
F                7.2204178422        4.0847814264       25.0099878711
F                8.6641165245        6.1260009381       23.6680816002
F                5.7740855416        6.1264048478       23.6669951670
F               10.1105809180        4.0835595196       25.0201635420
C                3.7957596311        4.0095632609       29.4480624302
C                5.1560212082        4.1995081666       28.8086003450
H                3.0242110902        4.2021621846       28.6943573654
H                3.6897492667        2.9821539372       29.8138912012
H                3.6655712882        4.7067934031       30.2832441731
C                6.3327949642        3.9736305773       29.7615652041
F                5.2606069936        3.3426239347       27.7332568228
H                6.2435787057        2.9614929177       30.1787833648
C                7.7483932452        4.1104874403       29.2169064767
F                5.2203245409        5.4853273032       28.2901398641
H                6.2341187641        4.6783329344       30.5979119090
F                7.9803859513        5.3644958034       28.7042982471
F                8.0039625612        3.2019829662       28.2219149209
H                8.4945706331        3.9417979996       30.0108318530



     Writing config-only to output data dir ./tmp/LiF_PVDF/LiF_PVDF.save/ :
     XML data file
     NEW-OLD atomic charge density approx. for the potential

     total cpu time spent up to now is     1501.6 secs

     per-process dynamical memory:   151.3 Mb

     Self-consistent Calculation

     iteration #  1     ecut=    60.00 Ry     beta= 0.30
     Davidson diagonalization with overlap
     ethr =  1.00E-06,  avg # of iterations =  4.0

     Threshold (ethr) on eigenvalues was too large:
     Diagonalizing with lowered threshold

     Davidson diagonalization with overlap
     ethr =  4.49E-09,  avg # of iterations =  4.0

     total cpu time spent up to now is     1584.2 secs

     total energy              =   -4345.71222915 Ry
     estimated scf accuracy    <       0.00003828 Ry

     iteration #  2     ecut=    60.00 Ry     beta= 0.30
     Davidson diagonalization with overlap
     ethr =  5.55E-09,  avg # of iterations =  2.0

     total cpu time spent up to now is     1613.8 secs

     total energy              =   -4345.71222521 Ry
     estimated scf accuracy    <       0.00001088 Ry

     iteration #  3     ecut=    60.00 Ry     beta= 0.30
     Davidson diagonalization with overlap
     ethr =  1.58E-09,  avg # of iterations =  4.0

     total cpu time spent up to now is     1652.4 secs

     total energy              =   -4345.71222731 Ry
     estimated scf accuracy    <       0.00000054 Ry

     iteration #  4     ecut=    60.00 Ry     beta= 0.30
     Davidson diagonalization with overlap
     ethr =  7.79E-11,  avg # of iterations =  4.0

     total cpu time spent up to now is     1690.5 secs

     total energy              =   -4345.71222741 Ry
     estimated scf accuracy    <       0.00000007 Ry

     iteration #  5     ecut=    60.00 Ry     beta= 0.30
     Davidson diagonalization with overlap
     ethr =  9.98E-12,  avg # of iterations =  4.0

     total cpu time spent up to now is     1727.4 secs

     total energy              =   -4345.71222744 Ry
     estimated scf accuracy    <       0.00000001 Ry

     iteration #  6     ecut=    60.00 Ry     beta= 0.30
     Davidson diagonalization with overlap
     ethr =  1.67E-12,  avg # of iterations =  3.0

     total cpu time spent up to now is     1760.5 secs

     total energy              =   -4345.71222745 Ry
     estimated scf accuracy    <          1.3E-09 Ry

     iteration #  7     ecut=    60.00 Ry     beta= 0.30
     Davidson diagonalization with overlap
     ethr =  1.83E-13,  avg # of iterations =  3.0

     total cpu time spent up to now is     1793.6 secs

     total energy              =   -4345.71222745 Ry
     estimated scf accuracy    <          2.4E-10 Ry

     iteration #  8     ecut=    60.00 Ry     beta= 0.30
     Davidson diagonalization with overlap
     ethr =  1.00E-13,  avg # of iterations =  2.0

     total cpu time spent up to now is     1823.0 secs

     End of self-consistent calculation

          k = 0.0000 0.0000 0.0000 (200173 PWs)   bands (ev):

   -46.3882 -46.3859 -46.3789 -46.3789 -46.3778 -46.3778 -46.3773 -46.3754
   -46.3703 -46.3691 -46.3454 -46.3439 -46.3217 -46.3121 -46.2952 -46.2912
   -45.8673 -45.8630 -45.8576 -45.8575 -45.8554 -45.8553 -45.8502 -45.8485
   -45.8471 -45.8465 -45.8392 -45.8371 -45.8340 -45.8312 -45.8233 -45.8215
   -45.7104 -45.7021 -45.6995 -45.6991 -45.6943 -45.6939 -45.6935 -45.6872
   -45.6856 -45.6852 -45.6842 -45.6833 -45.6803 -45.6773 -45.6758 -45.6726
   -45.4193 -45.4185 -45.4107 -45.4107 -45.4102 -45.4102 -45.4029 -45.4014
   -45.3942 -45.3923 -45.3788 -45.3604 -45.3601 -45.3477 -45.3433 -45.3248
   -28.9231 -28.6923 -27.4224 -27.2192 -24.7973 -24.7573 -24.7485 -24.7102
   -24.7008 -24.7007 -24.6840 -24.6840 -24.6601 -24.6562 -24.6438 -24.6375
   -24.6185 -24.5970 -24.5715 -24.5709 -24.5512 -24.4453 -24.4452 -24.4007
   -24.3928 -24.3239 -24.3238 -24.3162 -24.3160 -24.2904 -24.2455 -24.2381
   -24.2237 -24.2167 -24.2000 -24.1996 -24.1996 -24.1781 -24.1140 -24.1140
   -24.0931 -24.0917 -24.0541 -24.0367 -24.0353 -24.0264 -24.0251 -24.0040
   -24.0030 -24.0012 -23.9981 -23.9794 -23.4784 -23.4487 -23.4292 -23.4035
   -23.4035 -23.4033 -23.3675 -23.3675 -23.3619 -23.3441 -23.3263 -23.3256
   -23.3036 -23.2958 -23.2657 -23.2257 -17.9906 -16.4106 -14.2162 -12.9553
   -11.3007 -11.2375 -10.8620 -10.6811  -9.7209  -9.2028  -8.4990  -8.1122
    -7.6853  -7.6123  -7.5965  -7.5861  -7.3732  -7.3484  -7.3365  -7.3081
    -7.3011  -7.2909  -7.2467  -7.1560  -7.1480  -7.1477  -7.1475  -7.1349
    -7.1341  -7.1317  -7.1308  -7.0104  -7.0097  -7.0021  -6.9905  -6.9904
    -6.9895  -6.9805  -6.9412  -6.9365  -6.9263  -6.9237  -6.9109  -6.9041
    -6.9038  -6.8596  -6.8507  -6.8287  -6.8248  -6.8243  -6.7726  -6.7707
    -6.7697  -6.7580  -6.7571  -6.7506  -6.7490  -6.7473  -6.7456  -6.7098
    -6.7073  -6.7072  -6.6787  -6.6771  -6.5967  -6.5959  -6.5737  -6.5547
    -6.5544  -6.5298  -6.5284  -6.5109  -6.5068  -6.5059  -6.5049  -6.4944
    -6.3938  -6.2809  -6.2685  -6.2670  -6.2656  -6.2393  -6.2360  -6.2142
    -6.2072  -6.2068  -6.2057  -6.2029  -6.2009  -6.1965  -6.1933  -6.1719
    -6.0733  -6.0574  -6.0571  -6.0120  -6.0053  -6.0001  -5.9905  -5.9664
    -5.9073  -5.9032  -5.8394  -5.8125  -5.8066  -5.8063  -5.8022  -5.8021
    -5.7983  -5.7977  -5.7954  -5.7444  -5.7094  -5.7092  -5.7082  -5.7028
    -5.6981  -5.5782  -5.5547  -5.5544  -5.5326  -5.5319  -5.5268  -5.5250
    -5.5221  -5.5130  -5.5115  -5.5091  -5.5088  -5.4978  -5.4970  -5.4925
    -5.4911  -5.4399  -5.4373  -5.4085  -5.4033  -5.3391  -5.2953  -5.2871
    -5.2827  -5.2653  -5.2638  -5.2585  -5.2519  -5.2483  -5.2447  -5.2438
    -5.2410  -5.2402  -5.2323  -5.2242  -5.2132  -5.2106  -5.2070  -5.2057
    -5.1787  -5.1746  -5.1689  -5.1654  -5.1606  -5.1601  -5.1524  -5.1521
    -5.1401  -5.0911  -5.0911  -5.0788  -5.0504  -5.0458  -5.0397  -5.0286
    -5.0092  -5.0083  -4.9934  -4.9875  -4.9875  -4.9467  -4.9314  -4.9259
    -4.9148  -4.9135  -4.9135  -4.8707  -4.8652  -4.8583  -4.8577  -4.8453
    -4.8450  -4.8392  -4.8374  -4.8337  -4.8100  -4.8013  -4.7383  -4.7283
    -4.6884  -4.6825  -4.6719  -4.6583  -4.6291  -4.6263  -4.6224  -4.6035
    -4.6035  -4.5972  -4.5648  -4.5324  -4.5168  -4.2555  -4.2170  -4.2100
    -4.1687

          k = 0.0000 0.3536 0.0000 (200366 PWs)   bands (ev):

   -46.3878 -46.3864 -46.3789 -46.3788 -46.3779 -46.3779 -46.3772 -46.3757
   -46.3701 -46.3696 -46.3453 -46.3441 -46.3217 -46.3122 -46.2952 -46.2914
   -45.8667 -45.8638 -45.8574 -45.8573 -45.8557 -45.8556 -45.8497 -45.8483
   -45.8476 -45.8471 -45.8390 -45.8375 -45.8337 -45.8316 -45.8231 -45.8219
   -45.7096 -45.7043 -45.6990 -45.6986 -45.6954 -45.6951 -45.6911 -45.6869
   -45.6863 -45.6850 -45.6840 -45.6822 -45.6807 -45.6780 -45.6761 -45.6728
   -45.4191 -45.4187 -45.4108 -45.4108 -45.4103 -45.4103 -45.4026 -45.4020
   -45.3942 -45.3924 -45.3789 -45.3604 -45.3602 -45.3478 -45.3434 -45.3249
   -28.9232 -28.6923 -27.4224 -27.2192 -24.7901 -24.7556 -24.7509 -24.7174
   -24.6983 -24.6983 -24.6864 -24.6864 -24.6578 -24.6537 -24.6462 -24.6404
   -24.6154 -24.6001 -24.5682 -24.5620 -24.5541 -24.4739 -24.4384 -24.4383
   -24.3757 -24.3757 -24.3309 -24.2937 -24.2630 -24.2628 -24.2424 -24.2348
   -24.2269 -24.2200 -24.2055 -24.2050 -24.1826 -24.1502 -24.1098 -24.1095
   -24.0744 -24.0732 -24.0709 -24.0535 -24.0497 -24.0458 -24.0220 -24.0122
   -24.0098 -24.0062 -24.0007 -23.9832 -23.4713 -23.4421 -23.4365 -23.4099
   -23.3983 -23.3983 -23.3728 -23.3728 -23.3572 -23.3403 -23.3305 -23.3230
   -23.3069 -23.2998 -23.2637 -23.2279 -17.9906 -16.4106 -14.2162 -12.9551
   -11.3008 -11.2374 -10.8623 -10.6811  -9.7210  -9.2027  -8.4999  -8.1131
    -7.6854  -7.5471  -7.5343  -7.5043  -7.3701  -7.3308  -7.2946  -7.2922
    -7.2862  -7.2838  -7.2466  -7.1559  -7.1527  -7.1463  -7.1265  -7.1263
    -7.1225  -7.1216  -7.0943  -7.0847  -7.0616  -7.0508  -7.0498  -6.9985
    -6.9824  -6.9675  -6.9668  -6.9654  -6.9631  -6.9620  -6.9588  -6.9225
    -6.9220  -6.9094  -6.9011  -6.9010  -6.8910  -6.8579  -6.8320  -6.8303
    -6.8283  -6.7866  -6.7853  -6.7686  -6.7511  -6.7463  -6.7433  -6.7074
    -6.7061  -6.6808  -6.6474  -6.6052  -6.5887  -6.5877  -6.5858  -6.5853
    -6.5719  -6.5273  -6.5265  -6.5219  -6.5213  -6.4866  -6.4471  -6.4464
    -6.4435  -6.4424  -6.2978  -6.2975  -6.2846  -6.2842  -6.2422  -6.1693
    -6.1687  -6.1426  -6.1179  -6.0843  -6.0735  -6.0726  -6.0700  -6.0695
    -6.0430  -6.0357  -6.0325  -5.9805  -5.9520  -5.9320  -5.9316  -5.8794
    -5.8769  -5.8684  -5.8618  -5.8215  -5.8103  -5.8102  -5.7923  -5.7906
    -5.7828  -5.7818  -5.7678  -5.7262  -5.7215  -5.7059  -5.6713  -5.6710
    -5.6584  -5.5665  -5.5661  -5.5646  -5.5643  -5.5603  -5.5530  -5.5486
    -5.5418  -5.5407  -5.5233  -5.5197  -5.5185  -5.4897  -5.4886  -5.4878
    -5.4589  -5.4569  -5.4542  -5.4455  -5.4432  -5.4318  -5.4305  -5.4122
    -5.3921  -5.3913  -5.3415  -5.2691  -5.2605  -5.2588  -5.2485  -5.2479
    -5.2455  -5.2397  -5.2350  -5.2341  -5.2000  -5.1900  -5.1881  -5.1833
    -5.1795  -5.1792  -5.1714  -5.1705  -5.1626  -5.1582  -5.1224  -5.0963
    -5.0787  -5.0777  -5.0688  -5.0687  -5.0495  -5.0273  -5.0262  -5.0193
    -5.0191  -5.0185  -5.0058  -4.9882  -4.9880  -4.9723  -4.9633  -4.9629
    -4.9314  -4.9096  -4.8893  -4.8892  -4.8875  -4.8808  -4.8586  -4.8469
    -4.8458  -4.8433  -4.8375  -4.7906  -4.7852  -4.7781  -4.7376  -4.7351
    -4.6923  -4.6779  -4.6714  -4.6450  -4.6286  -4.6248  -4.6173  -4.6173
    -4.6170  -4.5993  -4.5687  -4.5434  -4.5212  -4.2496  -4.2226  -4.2046
    -4.1737

          k = 0.0000-0.7071 0.0000 (200506 PWs)   bands (ev):

   -46.3872 -46.3871 -46.3785 -46.3785 -46.3784 -46.3784 -46.3770 -46.3759
   -46.3699 -46.3699 -46.3451 -46.3444 -46.3217 -46.3123 -46.2952 -46.2915
   -45.8655 -45.8651 -45.8568 -45.8567 -45.8564 -45.8563 -45.8488 -45.8482
   -45.8482 -45.8478 -45.8385 -45.8381 -45.8332 -45.8322 -45.8229 -45.8222
   -45.7078 -45.7073 -45.6977 -45.6974 -45.6973 -45.6969 -45.6880 -45.6873
   -45.6866 -45.6865 -45.6828 -45.6814 -45.6809 -45.6788 -45.6763 -45.6729
   -45.4190 -45.4190 -45.4106 -45.4106 -45.4106 -45.4106 -45.4023 -45.4023
   -45.3942 -45.3925 -45.3789 -45.3604 -45.3603 -45.3478 -45.3434 -45.3249
   -28.9232 -28.6923 -27.4225 -27.2192 -24.7729 -24.7728 -24.7353 -24.7337
   -24.6924 -24.6924 -24.6923 -24.6923 -24.6531 -24.6511 -24.6482 -24.6463
   -24.6079 -24.6077 -24.5624 -24.5602 -24.5312 -24.5307 -24.4163 -24.4163
   -24.4158 -24.4157 -24.3042 -24.3036 -24.2351 -24.2343 -24.2287 -24.2285
   -24.2241 -24.2237 -24.2228 -24.2224 -24.1223 -24.1221 -24.1011 -24.0990
   -24.0839 -24.0832 -24.0829 -24.0818 -24.0416 -24.0408 -24.0396 -24.0373
   -24.0141 -24.0141 -23.9946 -23.9898 -23.4540 -23.4540 -23.4267 -23.4253
   -23.3856 -23.3856 -23.3856 -23.3856 -23.3491 -23.3387 -23.3355 -23.3150
   -23.3150 -23.3048 -23.2613 -23.2304 -17.9907 -16.4107 -14.2162 -12.9550
   -11.3011 -11.2374 -10.8626 -10.6812  -9.7210  -9.2026  -8.5007  -8.1138
    -7.6853  -7.4282  -7.4279  -7.4025  -7.4011  -7.2922  -7.2553  -7.2549
    -7.2513  -7.2503  -7.2448  -7.2164  -7.2158  -7.1388  -7.1380  -7.0963
    -7.0958  -7.0954  -7.0947  -7.0664  -7.0663  -7.0581  -7.0568  -7.0540
    -7.0536  -7.0534  -7.0531  -7.0487  -7.0480  -7.0148  -7.0040  -6.9790
    -6.9270  -6.9268  -6.9259  -6.9254  -6.8664  -6.8661  -6.8660  -6.8655
    -6.8312  -6.8195  -6.8179  -6.8177  -6.8152  -6.7748  -6.7745  -6.7504
    -6.6267  -6.6266  -6.6253  -6.6245  -6.6153  -6.6152  -6.5822  -6.5763
    -6.5678  -6.5587  -6.5583  -6.5572  -6.5546  -6.3831  -6.3828  -6.3827
    -6.3824  -6.3306  -6.3302  -6.3300  -6.3292  -6.2859  -6.2851  -6.0753
    -6.0517  -6.0501  -6.0380  -6.0377  -6.0084  -6.0083  -6.0082  -6.0080
    -5.9702  -5.9691  -5.9572  -5.9555  -5.9435  -5.9427  -5.9282  -5.9280
    -5.9279  -5.9275  -5.8245  -5.8243  -5.7814  -5.7802  -5.7757  -5.7741
    -5.7665  -5.7656  -5.7655  -5.7649  -5.6529  -5.6522  -5.6482  -5.6475
    -5.6254  -5.6242  -5.5956  -5.5953  -5.5706  -5.5704  -5.5700  -5.5697
    -5.5392  -5.5384  -5.5382  -5.5367  -5.5055  -5.5049  -5.4982  -5.4975
    -5.4968  -5.4958  -5.4517  -5.4487  -5.4469  -5.4464  -5.3911  -5.3910
    -5.3904  -5.3902  -5.3775  -5.3772  -5.3761  -5.3754  -5.2641  -5.2640
    -5.2594  -5.2585  -5.2570  -5.2561  -5.2414  -5.2412  -5.2161  -5.2091
    -5.1698  -5.1662  -5.1656  -5.1538  -5.1525  -5.0974  -5.0972  -5.0892
    -5.0880  -5.0843  -5.0834  -5.0643  -5.0631  -5.0472  -5.0471  -5.0461
    -5.0452  -5.0063  -5.0050  -4.9994  -4.9851  -4.9583  -4.9544  -4.9540
    -4.9531  -4.9060  -4.9035  -4.8930  -4.8874  -4.8492  -4.8488  -4.8486
    -4.8470  -4.8011  -4.7994  -4.7977  -4.7902  -4.7563  -4.7560  -4.7229
    -4.7042  -4.6517  -4.6509  -4.6507  -4.6491  -4.6315  -4.6314  -4.6225
    -4.6174  -4.6023  -4.5725  -4.5574  -4.5249  -4.2366  -4.2366  -4.1971
    -4.1823

          k = 0.2500 0.0000 0.0000 (200254 PWs)   bands (ev):

   -46.3874 -46.3853 -46.3824 -46.3810 -46.3773 -46.3755 -46.3755 -46.3746
   -46.3709 -46.3700 -46.3454 -46.3439 -46.3217 -46.3121 -46.2952 -46.2913
   -45.8665 -45.8625 -45.8612 -45.8583 -45.8541 -45.8523 -45.8499 -45.8491
   -45.8479 -45.8464 -45.8402 -45.8376 -45.8331 -45.8307 -45.8234 -45.8218
   -45.7096 -45.7032 -45.7016 -45.6970 -45.6951 -45.6932 -45.6912 -45.6882
   -45.6869 -45.6864 -45.6840 -45.6817 -45.6804 -45.6773 -45.6761 -45.6728
   -45.4185 -45.4179 -45.4140 -45.4135 -45.4077 -45.4070 -45.4034 -45.4023
   -45.3941 -45.3923 -45.3789 -45.3603 -45.3602 -45.3478 -45.3433 -45.3249
   -28.9231 -28.6923 -27.4224 -27.2192 -24.7901 -24.7511 -24.7436 -24.7382
   -24.7088 -24.7064 -24.6946 -24.6638 -24.6620 -24.6590 -24.6236 -24.6207
   -24.6171 -24.6052 -24.5750 -24.5627 -24.5588 -24.4964 -24.3949 -24.3873
   -24.3871 -24.3534 -24.3455 -24.2941 -24.2866 -24.2833 -24.2701 -24.2515
   -24.2440 -24.2332 -24.1932 -24.1828 -24.1730 -24.1720 -24.1472 -24.1247
   -24.0804 -24.0596 -24.0508 -24.0369 -24.0355 -24.0321 -24.0266 -24.0143
   -24.0113 -24.0093 -23.9875 -23.9763 -23.4727 -23.4465 -23.4325 -23.4246
   -23.4018 -23.3913 -23.3767 -23.3743 -23.3433 -23.3349 -23.3323 -23.3260
   -23.3085 -23.2885 -23.2690 -23.2275 -17.9906 -16.4106 -14.2162 -12.9553
   -11.3007 -11.2375 -10.8621 -10.6812  -9.7211  -9.2028  -8.4991  -8.1123
    -7.6853  -7.5808  -7.5647  -7.5355  -7.3433  -7.3319  -7.3203  -7.3119
    -7.2956  -7.2915  -7.2736  -7.2592  -7.2443  -7.2157  -7.1444  -7.1359
    -7.1082  -7.0955  -7.0941  -7.0619  -7.0481  -7.0460  -7.0103  -6.9990
    -6.9856  -6.9746  -6.9583  -6.9160  -6.9157  -6.9050  -6.8864  -6.8838
    -6.8752  -6.8715  -6.8472  -6.8391  -6.8279  -6.8111  -6.7995  -6.7884
    -6.7861  -6.7676  -6.7601  -6.7590  -6.7522  -6.7466  -6.7381  -6.7370
    -6.7326  -6.7011  -6.6861  -6.6367  -6.6365  -6.5783  -6.5745  -6.5675
    -6.5294  -6.5059  -6.4969  -6.4933  -6.4548  -6.4428  -6.4361  -6.4106
    -6.3890  -6.3526  -6.3399  -6.3365  -6.3359  -6.2934  -6.2724  -6.2619
    -6.2535  -6.1983  -6.1641  -6.1504  -6.1388  -6.1344  -6.1214  -6.1072
    -6.0734  -6.0687  -6.0432  -6.0200  -6.0172  -5.9985  -5.9799  -5.9739
    -5.9472  -5.9421  -5.9120  -5.8933  -5.8817  -5.8663  -5.7825  -5.7733
    -5.7730  -5.7333  -5.7152  -5.7081  -5.6994  -5.6835  -5.6801  -5.6663
    -5.6623  -5.6470  -5.6070  -5.6001  -5.5917  -5.5825  -5.5541  -5.5476
    -5.5244  -5.5153  -5.5017  -5.4937  -5.4306  -5.4305  -5.4195  -5.4154
    -5.4105  -5.4080  -5.4063  -5.3760  -5.3720  -5.3686  -5.3668  -5.3329
    -5.3241  -5.2687  -5.2686  -5.2644  -5.2479  -5.2459  -5.2437  -5.2409
    -5.2396  -5.2297  -5.2289  -5.2097  -5.2093  -5.2052  -5.2009  -5.1967
    -5.1888  -5.1839  -5.1705  -5.1676  -5.1665  -5.1529  -5.1512  -5.1443
    -5.1094  -5.1072  -5.1034  -5.0850  -5.0737  -5.0706  -5.0620  -5.0445
    -5.0327  -5.0154  -4.9965  -4.9918  -4.9882  -4.9786  -4.9707  -4.9572
    -4.9411  -4.9393  -4.9278  -4.9232  -4.9109  -4.9030  -4.8989  -4.8619
    -4.8514  -4.8203  -4.7892  -4.7600  -4.7489  -4.7326  -4.7236  -4.7107
    -4.6719  -4.6580  -4.6539  -4.6354  -4.6303  -4.6200  -4.6061  -4.6031
    -4.5801  -4.5485  -4.5362  -4.5326  -4.4749  -4.3006  -4.2725  -4.2547
    -4.2229

          k = 0.2500 0.3536 0.0000 (200411 PWs)   bands (ev):

   -46.3871 -46.3858 -46.3822 -46.3812 -46.3772 -46.3757 -46.3755 -46.3747
   -46.3708 -46.3702 -46.3453 -46.3442 -46.3217 -46.3122 -46.2952 -46.2914
   -45.8660 -45.8633 -45.8608 -45.8587 -45.8539 -45.8526 -45.8494 -45.8489
   -45.8481 -45.8471 -45.8398 -45.8381 -45.8329 -45.8311 -45.8233 -45.8220
   -45.7089 -45.7039 -45.7026 -45.6985 -45.6947 -45.6920 -45.6910 -45.6880
   -45.6869 -45.6854 -45.6848 -45.6811 -45.6808 -45.6778 -45.6762 -45.6729
   -45.4184 -45.4182 -45.4139 -45.4136 -45.4076 -45.4071 -45.4032 -45.4025
   -45.3941 -45.3924 -45.3790 -45.3604 -45.3603 -45.3478 -45.3434 -45.3249
   -28.9232 -28.6923 -27.4224 -27.2192 -24.7833 -24.7504 -24.7450 -24.7339
   -24.7135 -24.7128 -24.6904 -24.6685 -24.6616 -24.6595 -24.6209 -24.6204
   -24.6175 -24.6079 -24.5728 -24.5612 -24.5533 -24.4884 -24.4668 -24.4146
   -24.3821 -24.3341 -24.3253 -24.2870 -24.2867 -24.2700 -24.2620 -24.2420
   -24.2375 -24.2275 -24.1892 -24.1802 -24.1775 -24.1453 -24.1381 -24.1023
   -24.0785 -24.0678 -24.0547 -24.0492 -24.0459 -24.0422 -24.0294 -24.0267
   -24.0155 -24.0054 -23.9961 -23.9814 -23.4658 -23.4400 -23.4317 -23.4265
   -23.4083 -23.3974 -23.3718 -23.3698 -23.3479 -23.3387 -23.3288 -23.3237
   -23.3120 -23.2922 -23.2669 -23.2298 -17.9907 -16.4106 -14.2162 -12.9551
   -11.3009 -11.2375 -10.8623 -10.6812  -9.7210  -9.2027  -8.5000  -8.1131
    -7.6852  -7.5153  -7.4869  -7.4769  -7.3291  -7.2927  -7.2895  -7.2769
    -7.2749  -7.2643  -7.2566  -7.2484  -7.2357  -7.1736  -7.1465  -7.1307
    -7.1017  -7.0819  -7.0806  -7.0799  -7.0675  -7.0549  -7.0459  -7.0225
    -7.0087  -7.0004  -6.9971  -6.9954  -6.9852  -6.9816  -6.9714  -6.9610
    -6.9290  -6.9185  -6.8991  -6.8776  -6.8683  -6.8627  -6.8576  -6.8558
    -6.8464  -6.8285  -6.7946  -6.7725  -6.7582  -6.7486  -6.7280  -6.7127
    -6.7036  -6.6758  -6.6437  -6.6324  -6.6175  -6.5839  -6.5774  -6.5726
    -6.5581  -6.4959  -6.4751  -6.4738  -6.4612  -6.4539  -6.4522  -6.4409
    -6.4029  -6.3541  -6.2992  -6.2859  -6.2586  -6.2490  -6.2015  -6.1915
    -6.1789  -6.1510  -6.1484  -6.1150  -6.0804  -6.0738  -6.0672  -6.0455
    -6.0335  -6.0164  -6.0000  -5.9958  -5.9842  -5.9631  -5.9594  -5.9556
    -5.9288  -5.9256  -5.9164  -5.8729  -5.8678  -5.8294  -5.7915  -5.7667
    -5.7611  -5.7503  -5.7417  -5.7093  -5.6788  -5.6763  -5.6630  -5.6518
    -5.6505  -5.6443  -5.6175  -5.6006  -5.5901  -5.5860  -5.5613  -5.4989
    -5.4851  -5.4820  -5.4800  -5.4779  -5.4729  -5.4668  -5.4588  -5.4481
    -5.4471  -5.4382  -5.4297  -5.4291  -5.4251  -5.4125  -5.3927  -5.3894
    -5.3420  -5.3408  -5.3272  -5.3206  -5.2927  -5.2861  -5.2856  -5.2742
    -5.2652  -5.2499  -5.2397  -5.2278  -5.2203  -5.2193  -5.2068  -5.1956
    -5.1882  -5.1718  -5.1628  -5.1547  -5.1518  -5.1223  -5.1105  -5.1037
    -5.1026  -5.0974  -5.0937  -5.0834  -5.0758  -5.0496  -5.0439  -5.0410
    -5.0155  -5.0137  -5.0034  -4.9969  -4.9958  -4.9882  -4.9830  -4.9715
    -4.9677  -4.9492  -4.9323  -4.9287  -4.9240  -4.9076  -4.8956  -4.8706
    -4.8629  -4.7874  -4.7759  -4.7576  -4.7442  -4.7333  -4.7304  -4.7073
    -4.6731  -4.6611  -4.6488  -4.6414  -4.6348  -4.6159  -4.5992  -4.5963
    -4.5815  -4.5461  -4.5460  -4.5323  -4.4839  -4.2971  -4.2760  -4.2518
    -4.2258

          k = 0.2500-0.7071 0.0000 (200442 PWs)   bands (ev):

   -46.3865 -46.3865 -46.3818 -46.3817 -46.3770 -46.3759 -46.3751 -46.3750
   -46.3706 -46.3705 -46.3451 -46.3444 -46.3217 -46.3122 -46.2952 -46.2915
   -45.8648 -45.8645 -45.8600 -45.8596 -45.8534 -45.8530 -45.8488 -45.8486
   -45.8484 -45.8480 -45.8392 -45.8387 -45.8325 -45.8315 -45.8231 -45.8223
   -45.7071 -45.7066 -45.7012 -45.7007 -45.6936 -45.6932 -45.6879 -45.6876
   -45.6874 -45.6869 -45.6835 -45.6819 -45.6802 -45.6783 -45.6763 -45.6730
   -45.4183 -45.4183 -45.4138 -45.4137 -45.4073 -45.4073 -45.4029 -45.4029
   -45.3941 -45.3925 -45.3790 -45.3603 -45.3603 -45.3478 -45.3434 -45.3249
   -28.9232 -28.6923 -27.4225 -27.2192 -24.7669 -24.7668 -24.7302 -24.7287
   -24.7235 -24.7234 -24.6807 -24.6787 -24.6605 -24.6604 -24.6199 -24.6180
   -24.6144 -24.6143 -24.5682 -24.5660 -24.5230 -24.5225 -24.4624 -24.4619
   -24.3653 -24.3647 -24.2975 -24.2970 -24.2686 -24.2680 -24.2521 -24.2516
   -24.2065 -24.2060 -24.2029 -24.2026 -24.1194 -24.1191 -24.1003 -24.0997
   -24.0954 -24.0929 -24.0647 -24.0636 -24.0631 -24.0600 -24.0239 -24.0233
   -24.0194 -24.0170 -23.9956 -23.9913 -23.4489 -23.4489 -23.4255 -23.4227
   -23.4120 -23.4120 -23.3644 -23.3589 -23.3588 -23.3458 -23.3205 -23.3205
   -23.3196 -23.2970 -23.2645 -23.2324 -17.9907 -16.4107 -14.2162 -12.9549
   -11.3009 -11.2374 -10.8624 -10.6811  -9.7209  -9.2026  -8.5007  -8.1138
    -7.6852  -7.3907  -7.3903  -7.3609  -7.3598  -7.2921  -7.2480  -7.2332
    -7.2321  -7.2045  -7.2038  -7.1994  -7.1989  -7.1798  -7.1788  -7.1227
    -7.1220  -7.0942  -7.0939  -7.0912  -7.0910  -7.0881  -7.0879  -7.0630
    -7.0622  -7.0356  -7.0355  -7.0316  -7.0313  -7.0100  -6.9966  -6.9802
    -6.9782  -6.9757  -6.9571  -6.9564  -6.9404  -6.9377  -6.9277  -6.9276
    -6.9097  -6.9070  -6.8289  -6.7909  -6.7905  -6.7741  -6.7738  -6.7501
    -6.6544  -6.6536  -6.6085  -6.6084  -6.5778  -6.5623  -6.5617  -6.5612
    -6.5556  -6.5107  -6.5101  -6.4361  -6.4346  -6.4256  -6.4250  -6.3889
    -6.3877  -6.2895  -6.2886  -6.2737  -6.2731  -6.1882  -6.1880  -6.1841
    -6.1831  -6.0759  -6.0681  -6.0663  -6.0204  -6.0194  -6.0061  -6.0056
    -5.9921  -5.9914  -5.9565  -5.9559  -5.9367  -5.9361  -5.9048  -5.9037
    -5.8860  -5.8849  -5.8806  -5.8802  -5.8304  -5.8296  -5.7674  -5.7670
    -5.7495  -5.7477  -5.7038  -5.7033  -5.6983  -5.6980  -5.6718  -5.6710
    -5.6369  -5.6363  -5.6280  -5.6263  -5.6261  -5.6251  -5.6174  -5.6169
    -5.5267  -5.5264  -5.4891  -5.4886  -5.4737  -5.4729  -5.4616  -5.4599
    -5.4401  -5.4389  -5.4235  -5.4213  -5.4026  -5.4017  -5.3947  -5.3940
    -5.3548  -5.3544  -5.3515  -5.3514  -5.3377  -5.3357  -5.3203  -5.3189
    -5.3026  -5.3021  -5.2303  -5.2289  -5.2063  -5.2056  -5.1978  -5.1972
    -5.1824  -5.1806  -5.1691  -5.1640  -5.1635  -5.1576  -5.1568  -5.1160
    -5.1158  -5.0908  -5.0907  -5.0835  -5.0797  -5.0415  -5.0403  -5.0303
    -5.0221  -4.9974  -4.9968  -4.9844  -4.9836  -4.9718  -4.9709  -4.9593
    -4.9581  -4.9577  -4.9575  -4.9416  -4.9324  -4.9107  -4.9099  -4.8745
    -4.8659  -4.7702  -4.7686  -4.7501  -4.7500  -4.7348  -4.7329  -4.7030
    -4.6741  -4.6647  -4.6535  -4.6402  -4.6374  -4.6142  -4.5959  -4.5812
    -4.5710  -4.5710  -4.5405  -4.5270  -4.4982  -4.2863  -4.2863  -4.2463
    -4.2309

          k =-0.5000 0.0000 0.0000 (200370 PWs)   bands (ev):

   -46.3856 -46.3852 -46.3839 -46.3835 -46.3773 -46.3755 -46.3730 -46.3726
   -46.3720 -46.3717 -46.3454 -46.3440 -46.3217 -46.3121 -46.2952 -46.2913
   -45.8649 -45.8638 -45.8614 -45.8603 -45.8516 -45.8506 -45.8503 -45.8496
   -45.8492 -45.8464 -45.8410 -45.8381 -45.8324 -45.8303 -45.8237 -45.8219
   -45.7085 -45.7055 -45.7008 -45.6988 -45.6929 -45.6917 -45.6908 -45.6894
   -45.6880 -45.6874 -45.6840 -45.6807 -45.6805 -45.6772 -45.6764 -45.6728
   -45.4169 -45.4165 -45.4164 -45.4160 -45.4053 -45.4049 -45.4044 -45.4040
   -45.3941 -45.3924 -45.3790 -45.3603 -45.3602 -45.3478 -45.3433 -45.3249
   -28.9231 -28.6923 -27.4225 -27.2192 -24.7704 -24.7690 -24.7389 -24.7299
   -24.7294 -24.7169 -24.7007 -24.6762 -24.6380 -24.6376 -24.6284 -24.6281
   -24.6045 -24.5956 -24.5813 -24.5730 -24.5394 -24.5341 -24.3796 -24.3770
   -24.3729 -24.3680 -24.3279 -24.3268 -24.2700 -24.2673 -24.2656 -24.2635
   -24.2605 -24.2588 -24.1755 -24.1743 -24.1662 -24.1644 -24.1593 -24.1467
   -24.0522 -24.0509 -24.0437 -24.0419 -24.0362 -24.0311 -24.0280 -24.0258
   -24.0231 -24.0162 -23.9822 -23.9746 -23.4569 -23.4565 -23.4440 -23.4115
   -23.4112 -23.3998 -23.3867 -23.3494 -23.3490 -23.3389 -23.3227 -23.3224
   -23.3164 -23.2824 -23.2733 -23.2296 -17.9906 -16.4106 -14.2162 -12.9554
   -11.3007 -11.2377 -10.8622 -10.6813  -9.7210  -9.2029  -8.4991  -8.1124
    -7.6851  -7.4930  -7.4860  -7.4668  -7.4641  -7.4110  -7.4036  -7.2921
    -7.2480  -7.2464  -7.2335  -7.2108  -7.2101  -7.1842  -7.1654  -7.1638
    -7.1590  -7.1406  -7.1385  -7.1135  -7.1091  -7.1055  -7.0961  -6.9917
    -6.9844  -6.9820  -6.9797  -6.9756  -6.8470  -6.8463  -6.8427  -6.8340
    -6.8302  -6.8269  -6.8260  -6.8257  -6.8212  -6.8203  -6.8161  -6.8108
    -6.8079  -6.8067  -6.7919  -6.7607  -6.7596  -6.7593  -6.7510  -6.7477
    -6.6603  -6.6587  -6.6544  -6.6492  -6.5934  -6.5853  -6.5744  -6.5650
    -6.5585  -6.5296  -6.5236  -6.5199  -6.5147  -6.5109  -6.4983  -6.3370
    -6.3318  -6.3295  -6.3271  -6.2909  -6.2850  -6.2567  -6.2561  -6.2138
    -6.2033  -6.1939  -6.1938  -6.1599  -6.1555  -6.0980  -6.0931  -6.0913
    -6.0897  -6.0747  -6.0611  -6.0431  -6.0353  -6.0302  -6.0281  -6.0279
    -6.0146  -5.9886  -5.9057  -5.9038  -5.8628  -5.8622  -5.8377  -5.8307
    -5.7268  -5.7264  -5.6916  -5.6910  -5.6518  -5.6492  -5.6412  -5.6384
    -5.6036  -5.5993  -5.5954  -5.5918  -5.5898  -5.5897  -5.5577  -5.5550
    -5.5137  -5.5098  -5.5090  -5.5074  -5.5070  -5.5018  -5.4633  -5.4604
    -5.3438  -5.3394  -5.3384  -5.3335  -5.3334  -5.3311  -5.3296  -5.3260
    -5.3257  -5.3255  -5.3037  -5.3030  -5.2994  -5.2971  -5.2290  -5.2288
    -5.2098  -5.2053  -5.2033  -5.1973  -5.1945  -5.1937  -5.1861  -5.1850
    -5.1833  -5.1800  -5.1751  -5.1720  -5.1666  -5.1637  -5.1512  -5.1415
    -5.1301  -5.0944  -5.0929  -5.0927  -5.0877  -5.0871  -5.0855  -5.0393
    -5.0371  -5.0339  -5.0294  -5.0218  -4.9953  -4.9950  -4.9876  -4.9847
    -4.9672  -4.9564  -4.9513  -4.9457  -4.9441  -4.9148  -4.9075  -4.8820
    -4.8648  -4.8055  -4.7881  -4.7358  -4.7254  -4.7250  -4.7124  -4.6973
    -4.6562  -4.6476  -4.6442  -4.6439  -4.6436  -4.6149  -4.5857  -4.5820
    -4.5363  -4.4220  -4.4217  -4.4152  -4.4150  -4.3929  -4.3766  -4.3652
    -4.3424

          k =-0.5000 0.3536 0.0000 (200424 PWs)   bands (ev):

   -46.3853 -46.3850 -46.3841 -46.3838 -46.3772 -46.3757 -46.3728 -46.3724
   -46.3723 -46.3719 -46.3453 -46.3442 -46.3217 -46.3122 -46.2952 -46.2914
   -45.8645 -45.8633 -45.8620 -45.8608 -45.8514 -45.8506 -45.8504 -45.8494
   -45.8492 -45.8469 -45.8406 -45.8386 -45.8322 -45.8306 -45.8235 -45.8222
   -45.7078 -45.7049 -45.7028 -45.7004 -45.6913 -45.6907 -45.6904 -45.6898
   -45.6881 -45.6863 -45.6848 -45.6811 -45.6803 -45.6775 -45.6764 -45.6729
   -45.4168 -45.4165 -45.4164 -45.4161 -45.4052 -45.4048 -45.4046 -45.4042
   -45.3941 -45.3924 -45.3790 -45.3603 -45.3603 -45.3479 -45.3433 -45.3249
   -28.9232 -28.6923 -27.4225 -27.2192 -24.7644 -24.7633 -24.7358 -24.7353
   -24.7338 -24.7113 -24.7066 -24.6824 -24.6366 -24.6362 -24.6298 -24.6294
   -24.6033 -24.5969 -24.5802 -24.5741 -24.5305 -24.5254 -24.4482 -24.4442
   -24.3249 -24.3238 -24.3115 -24.3076 -24.2949 -24.2943 -24.2692 -24.2642
   -24.2302 -24.2286 -24.1743 -24.1726 -24.1641 -24.1608 -24.1325 -24.1222
   -24.0612 -24.0598 -24.0504 -24.0499 -24.0468 -24.0366 -24.0318 -24.0301
   -24.0258 -24.0162 -23.9891 -23.9812 -23.4503 -23.4500 -23.4376 -23.4183
   -23.4179 -23.4062 -23.3814 -23.3455 -23.3451 -23.3440 -23.3267 -23.3263
   -23.3134 -23.2859 -23.2710 -23.2319 -17.9907 -16.4106 -14.2162 -12.9552
   -11.3009 -11.2375 -10.8623 -10.6812  -9.7209  -9.2027  -8.5000  -8.1132
    -7.6851  -7.4199  -7.4176  -7.4017  -7.3950  -7.3644  -7.3568  -7.2921
    -7.2476  -7.2183  -7.2183  -7.1890  -7.1884  -7.1759  -7.1702  -7.1619
    -7.1547  -7.1230  -7.1218  -7.1212  -7.1155  -7.0482  -7.0413  -7.0346
    -7.0316  -7.0249  -7.0246  -6.9925  -6.9818  -6.9803  -6.9697  -6.9647
    -6.9187  -6.9142  -6.9075  -6.9012  -6.8969  -6.8914  -6.8746  -6.8653
    -6.8446  -6.8340  -6.8271  -6.7723  -6.7592  -6.7489  -6.7012  -6.6970
    -6.6623  -6.6615  -6.6601  -6.6530  -6.6224  -6.6101  -6.5740  -6.5501
    -6.5493  -6.5223  -6.5129  -6.4394  -6.4286  -6.4149  -6.4101  -6.3642
    -6.3615  -6.3079  -6.3042  -6.2450  -6.2437  -6.2242  -6.2240  -6.1358
    -6.1292  -6.1141  -6.1128  -6.0855  -6.0819  -6.0811  -6.0766  -6.0751
    -6.0729  -6.0676  -6.0255  -6.0132  -6.0085  -6.0008  -5.9733  -5.9700
    -5.9573  -5.9395  -5.9342  -5.9340  -5.9328  -5.9322  -5.7695  -5.7654
    -5.7170  -5.7151  -5.7092  -5.7080  -5.7043  -5.7030  -5.6641  -5.6603
    -5.6426  -5.6424  -5.6301  -5.6258  -5.5595  -5.5588  -5.5417  -5.5389
    -5.4723  -5.4684  -5.4606  -5.4602  -5.4486  -5.4423  -5.4310  -5.4291
    -5.4120  -5.4113  -5.3688  -5.3646  -5.3622  -5.3609  -5.3582  -5.3504
    -5.3489  -5.3446  -5.3222  -5.3183  -5.3060  -5.2994  -5.2986  -5.2975
    -5.2639  -5.2630  -5.2522  -5.2482  -5.2236  -5.2218  -5.2160  -5.2149
    -5.1860  -5.1750  -5.1693  -5.1635  -5.1623  -5.1576  -5.1563  -5.1115
    -5.1008  -5.0950  -5.0895  -5.0818  -5.0747  -5.0739  -5.0727  -5.0617
    -5.0614  -5.0473  -5.0405  -5.0363  -5.0250  -4.9778  -4.9767  -4.9667
    -4.9654  -4.9643  -4.9372  -4.9351  -4.9277  -4.9123  -4.9023  -4.8867
    -4.8757  -4.7858  -4.7712  -4.7342  -4.7312  -4.7294  -4.7166  -4.6950
    -4.6610  -4.6548  -4.6501  -4.6470  -4.6397  -4.6121  -4.5848  -4.5801
    -4.5357  -4.4206  -4.4203  -4.4156  -4.4154  -4.3916  -4.3778  -4.3646
    -4.3421

          k =-0.5000-0.7071 0.0000 (200236 PWs)   bands (ev):

   -46.3848 -46.3847 -46.3844 -46.3843 -46.3769 -46.3759 -46.3724 -46.3724
   -46.3720 -46.3720 -46.3450 -46.3443 -46.3216 -46.3122 -46.2951 -46.2914
   -45.8634 -45.8631 -45.8624 -45.8619 -45.8510 -45.8507 -45.8500 -45.8495
   -45.8484 -45.8478 -45.8398 -45.8393 -45.8318 -45.8309 -45.8231 -45.8223
   -45.7061 -45.7057 -45.7034 -45.7028 -45.6906 -45.6904 -45.6894 -45.6892
   -45.6874 -45.6867 -45.6840 -45.6822 -45.6795 -45.6778 -45.6761 -45.6728
   -45.4167 -45.4167 -45.4163 -45.4163 -45.4047 -45.4047 -45.4043 -45.4043
   -45.3941 -45.3924 -45.3790 -45.3603 -45.3602 -45.3477 -45.3433 -45.3248
   -28.9231 -28.6923 -27.4224 -27.2192 -24.7501 -24.7500 -24.7494 -24.7492
   -24.7213 -24.7200 -24.6983 -24.6960 -24.6333 -24.6332 -24.6328 -24.6327
   -24.6010 -24.5993 -24.5783 -24.5759 -24.5015 -24.5012 -24.4971 -24.4964
   -24.3150 -24.3143 -24.3139 -24.3135 -24.2810 -24.2807 -24.2767 -24.2759
   -24.1974 -24.1969 -24.1956 -24.1954 -24.1125 -24.1122 -24.1100 -24.1094
   -24.0875 -24.0863 -24.0786 -24.0742 -24.0436 -24.0427 -24.0420 -24.0408
   -24.0072 -24.0055 -24.0005 -23.9956 -23.4344 -23.4344 -23.4340 -23.4340
   -23.4242 -23.4197 -23.3739 -23.3513 -23.3361 -23.3361 -23.3357 -23.3357
   -23.3092 -23.2905 -23.2684 -23.2346 -17.9906 -16.4106 -14.2161 -12.9548
   -11.3008 -11.2372 -10.8623 -10.6810  -9.7207  -9.2023  -8.5005  -8.1138
    -7.6849  -7.2949  -7.2942  -7.2939  -7.2935  -7.2916  -7.2518  -7.2459
    -7.2435  -7.2356  -7.2304  -7.1545  -7.1543  -7.1493  -7.1487  -7.1394
    -7.1386  -7.1353  -7.1342  -7.1187  -7.1184  -7.1136  -7.1128  -7.0870
    -7.0866  -7.0790  -7.0781  -7.0492  -7.0485  -7.0435  -7.0423  -7.0011
    -6.9894  -6.9893  -6.9872  -6.9871  -6.9745  -6.9726  -6.9544  -6.9422
    -6.8288  -6.7902  -6.7900  -6.7880  -6.7872  -6.7845  -6.7840  -6.7745
    -6.7742  -6.7499  -6.6074  -6.6071  -6.6032  -6.6029  -6.5749  -6.5264
    -6.5251  -6.5131  -6.5105  -6.3426  -6.3424  -6.3418  -6.3415  -6.3123
    -6.3117  -6.3030  -6.3018  -6.1628  -6.1626  -6.1610  -6.1608  -6.1285
    -6.1266  -6.1227  -6.1217  -6.0770  -6.0644  -6.0625  -6.0623  -6.0607
    -6.0301  -6.0284  -6.0276  -6.0265  -5.9882  -5.9881  -5.9835  -5.9823
    -5.8593  -5.8589  -5.8535  -5.8524  -5.7463  -5.7461  -5.7436  -5.7428
    -5.7208  -5.7204  -5.7203  -5.7195  -5.7019  -5.7009  -5.6997  -5.6951
    -5.6638  -5.6632  -5.6595  -5.6591  -5.6549  -5.6545  -5.6494  -5.6483
    -5.4489  -5.4488  -5.4475  -5.4465  -5.4373  -5.4369  -5.4368  -5.4362
    -5.4253  -5.4250  -5.4239  -5.4218  -5.4138  -5.4126  -5.4050  -5.4041
    -5.3711  -5.3699  -5.3667  -5.3621  -5.2734  -5.2731  -5.2728  -5.2719
    -5.2617  -5.2611  -5.2604  -5.2595  -5.2044  -5.2036  -5.1963  -5.1934
    -5.1793  -5.1772  -5.1738  -5.1722  -5.1693  -5.1418  -5.1403  -5.1400
    -5.1393  -5.1281  -5.1268  -5.1183  -5.1070  -5.0502  -5.0502  -5.0500
    -5.0499  -5.0245  -5.0128  -5.0045  -5.0040  -4.9962  -4.9949  -4.9906
    -4.9781  -4.9656  -4.9621  -4.9598  -4.9567  -4.9087  -4.9054  -4.8870
    -4.8744  -4.7449  -4.7448  -4.7433  -4.7433  -4.7337  -4.7308  -4.6930
    -4.6657  -4.6572  -4.6509  -4.6480  -4.6398  -4.6095  -4.5837  -4.5777
    -4.5344  -4.4175  -4.4175  -4.4173  -4.4173  -4.3896  -4.3792  -4.3639
    -4.3416

          k =-0.2500 0.3536 0.0000 (200411 PWs)   bands (ev):

   -46.3871 -46.3858 -46.3822 -46.3812 -46.3772 -46.3757 -46.3755 -46.3747
   -46.3708 -46.3702 -46.3453 -46.3442 -46.3217 -46.3122 -46.2952 -46.2914
   -45.8660 -45.8633 -45.8608 -45.8587 -45.8539 -45.8526 -45.8494 -45.8489
   -45.8481 -45.8471 -45.8398 -45.8381 -45.8329 -45.8311 -45.8233 -45.8220
   -45.7089 -45.7039 -45.7026 -45.6985 -45.6947 -45.6920 -45.6910 -45.6880
   -45.6868 -45.6854 -45.6848 -45.6811 -45.6808 -45.6778 -45.6762 -45.6729
   -45.4184 -45.4182 -45.4139 -45.4136 -45.4076 -45.4071 -45.4032 -45.4025
   -45.3941 -45.3924 -45.3790 -45.3604 -45.3603 -45.3478 -45.3434 -45.3249
   -28.9232 -28.6923 -27.4225 -27.2192 -24.7833 -24.7504 -24.7450 -24.7339
   -24.7135 -24.7128 -24.6904 -24.6685 -24.6616 -24.6595 -24.6209 -24.6204
   -24.6175 -24.6079 -24.5728 -24.5612 -24.5533 -24.4884 -24.4668 -24.4146
   -24.3821 -24.3341 -24.3253 -24.2870 -24.2867 -24.2700 -24.2620 -24.2420
   -24.2375 -24.2275 -24.1892 -24.1802 -24.1775 -24.1453 -24.1381 -24.1023
   -24.0785 -24.0678 -24.0547 -24.0492 -24.0459 -24.0422 -24.0294 -24.0267
   -24.0155 -24.0054 -23.9961 -23.9814 -23.4658 -23.4400 -23.4317 -23.4265
   -23.4082 -23.3974 -23.3718 -23.3698 -23.3479 -23.3387 -23.3288 -23.3237
   -23.3120 -23.2922 -23.2669 -23.2298 -17.9906 -16.4106 -14.2162 -12.9552
   -11.3009 -11.2375 -10.8623 -10.6812  -9.7209  -9.2027  -8.5000  -8.1132
    -7.6852  -7.5153  -7.4869  -7.4769  -7.3291  -7.2928  -7.2893  -7.2770
    -7.2750  -7.2641  -7.2566  -7.2487  -7.2355  -7.1736  -7.1465  -7.1307
    -7.1017  -7.0819  -7.0806  -7.0799  -7.0675  -7.0549  -7.0459  -7.0225
    -7.0086  -7.0004  -6.9972  -6.9950  -6.9851  -6.9816  -6.9715  -6.9610
    -6.9290  -6.9185  -6.8990  -6.8775  -6.8683  -6.8627  -6.8576  -6.8557
    -6.8464  -6.8287  -6.7946  -6.7725  -6.7581  -6.7486  -6.7281  -6.7127
    -6.7036  -6.6758  -6.6438  -6.6323  -6.6175  -6.5842  -6.5777  -6.5719
    -6.5582  -6.4959  -6.4751  -6.4737  -6.4612  -6.4539  -6.4521  -6.4409
    -6.4029  -6.3541  -6.2992  -6.2859  -6.2586  -6.2490  -6.2015  -6.1915
    -6.1789  -6.1510  -6.1484  -6.1150  -6.0809  -6.0737  -6.0671  -6.0455
    -6.0335  -6.0164  -5.9999  -5.9958  -5.9842  -5.9631  -5.9594  -5.9556
    -5.9288  -5.9255  -5.9164  -5.8729  -5.8678  -5.8294  -5.7915  -5.7667
    -5.7611  -5.7503  -5.7418  -5.7093  -5.6789  -5.6763  -5.6630  -5.6518
    -5.6505  -5.6443  -5.6175  -5.6006  -5.5901  -5.5860  -5.5613  -5.4989
    -5.4851  -5.4821  -5.4799  -5.4780  -5.4729  -5.4667  -5.4588  -5.4481
    -5.4471  -5.4382  -5.4297  -5.4292  -5.4251  -5.4125  -5.3927  -5.3893
    -5.3420  -5.3408  -5.3272  -5.3206  -5.2927  -5.2861  -5.2856  -5.2742
    -5.2652  -5.2499  -5.2397  -5.2278  -5.2204  -5.2193  -5.2069  -5.1960
    -5.1880  -5.1708  -5.1634  -5.1549  -5.1518  -5.1222  -5.1109  -5.1037
    -5.1027  -5.0975  -5.0935  -5.0834  -5.0757  -5.0496  -5.0439  -5.0409
    -5.0154  -5.0139  -5.0034  -4.9969  -4.9958  -4.9882  -4.9830  -4.9715
    -4.9678  -4.9491  -4.9325  -4.9287  -4.9242  -4.9072  -4.8957  -4.8704
    -4.8630  -4.7875  -4.7758  -4.7576  -4.7442  -4.7332  -4.7303  -4.7073
    -4.6730  -4.6612  -4.6488  -4.6414  -4.6348  -4.6159  -4.5994  -4.5963
    -4.5814  -4.5461  -4.5460  -4.5321  -4.4840  -4.2971  -4.2760  -4.2518
    -4.2258

     highest occupied level (ev):    -4.1687

!    total energy              =   -4345.71222745 Ry
     estimated scf accuracy    <          2.9E-11 Ry

     The total energy is the sum of the following terms:
     one-electron contribution = -103131.85448284 Ry
     hartree contribution      =   51709.89590820 Ry
     xc contribution           =    -998.22242675 Ry
     ewald contribution        =   48074.46877394 Ry

     convergence has been achieved in   8 iterations

     Forces acting on atoms (cartesian axes, Ry/au):

     atom    1 type  1   force =     0.00000091   -0.00000004    0.00023139
     atom    2 type  1   force =     0.00000698    0.00000125    0.00001222
     atom    3 type  1   force =     0.00000331    0.00000045    0.00000767
     atom    4 type  1   force =    -0.00000098   -0.00000007    0.00023227
     atom    5 type  2   force =    -0.00000307    0.00000017    0.00005563
     atom    6 type  2   force =     0.00000007   -0.00000042   -0.00010917
     atom    7 type  2   force =    -0.00000102   -0.00000071   -0.00011200
     atom    8 type  2   force =    -0.00000183    0.00000013    0.00006394
     atom    9 type  1   force =     0.00001016   -0.00000046   -0.00009366
     atom   10 type  1   force =     0.00001375    0.00000175   -0.00004073
     atom   11 type  1   force =     0.00002826    0.00000943   -0.00000124
     atom   12 type  1   force =    -0.00000324   -0.00000028   -0.00010019
     atom   13 type  2   force =    -0.00001061    0.00000092   -0.00004572
     atom   14 type  2   force =    -0.00001046   -0.00000307   -0.00024378
     atom   15 type  2   force =     0.00000317   -0.00000115   -0.00023145
     atom   16 type  2   force =    -0.00002031    0.00000146   -0.00010529
     atom   17 type  1   force =    -0.00002297   -0.00000140    0.00007245
     atom   18 type  1   force =     0.00013501    0.00005059    0.00032589
     atom   19 type  1   force =     0.00007094   -0.00000246    0.00005043
     atom   20 type  1   force =     0.00005853   -0.00000387    0.00010247
     atom   21 type  2   force =    -0.00011293    0.00001559    0.00003550
     atom   22 type  2   force =     0.00001490   -0.00000137    0.00007425
     atom   23 type  2   force =    -0.00004918   -0.00001601    0.00003270
     atom   24 type  2   force =    -0.00006794    0.00001308    0.00031603
     atom   25 type  1   force =     0.00020515   -0.00001169   -0.00005719
     atom   26 type  1   force =     0.00001791   -0.00017662   -0.00106015
     atom   27 type  1   force =     0.00036080    0.00063197    0.00041874
     atom   28 type  1   force =    -0.00009966    0.00000130   -0.00013407
     atom   29 type  2   force =    -0.00004695    0.00003286    0.00071344
     atom   30 type  2   force =     0.00012060   -0.00011487    0.00008576
     atom   31 type  2   force =    -0.00010975    0.00001464    0.00010994
     atom   32 type  2   force =    -0.00009911    0.00016558    0.00007005
     atom   33 type  1   force =     0.00000089    0.00000014    0.00023155
     atom   34 type  1   force =     0.00000700   -0.00000105    0.00001263
     atom   35 type  1   force =     0.00000341   -0.00000025    0.00000796
     atom   36 type  1   force =    -0.00000079    0.00000017    0.00023263
     atom   37 type  2   force =    -0.00000320   -0.00000011    0.00005016
     atom   38 type  2   force =     0.00000006    0.00000058   -0.00010923
     atom   39 type  2   force =    -0.00000102    0.00000087   -0.00011214
     atom   40 type  2   force =    -0.00000197   -0.00000007    0.00006388
     atom   41 type  1   force =     0.00001426    0.00000054   -0.00008931
     atom   42 type  1   force =     0.00001472   -0.00000162   -0.00003847
     atom   43 type  1   force =     0.00002844   -0.00000919    0.00000252
     atom   44 type  1   force =    -0.00000409    0.00000035   -0.00009872
     atom   45 type  2   force =    -0.00001128   -0.00000097   -0.00003431
     atom   46 type  2   force =    -0.00001051    0.00000326   -0.00024506
     atom   47 type  2   force =     0.00000316    0.00000132   -0.00023187
     atom   48 type  2   force =    -0.00002052   -0.00000140   -0.00015542
     atom   49 type  1   force =    -0.00002963    0.00000160    0.00007029
     atom   50 type  1   force =     0.00013616   -0.00005648    0.00037113
     atom   51 type  1   force =     0.00008491    0.00000640    0.00006641
     atom   52 type  1   force =     0.00008945    0.00000278    0.00010732
     atom   53 type  2   force =    -0.00010067   -0.00002116   -0.00041150
     atom   54 type  2   force =     0.00001505    0.00000185    0.00007328
     atom   55 type  2   force =    -0.00004843    0.00001445    0.00002470
     atom   56 type  2   force =    -0.00006834   -0.00000486    0.00042771
     atom   57 type  1   force =    -0.00006452    0.00008347   -0.00045224
     atom   58 type  1   force =     0.00004523    0.00019889   -0.00105776
     atom   59 type  1   force =     0.00041037   -0.00041896    0.00050802
     atom   60 type  1   force =    -0.00002162    0.00000997   -0.00019012
     atom   61 type  2   force =     0.00000668    0.00000065    0.00128976
     atom   62 type  2   force =     0.00005727    0.00026176    0.00002010
     atom   63 type  2   force =    -0.00010711    0.00000325    0.00010817
     atom   64 type  2   force =    -0.00083739    0.00061108   -0.00220303
     atom   65 type  1   force =    -0.00000093   -0.00000007    0.00023375
     atom   66 type  1   force =    -0.00000700    0.00000061    0.00000893
     atom   67 type  1   force =    -0.00000331    0.00000120    0.00001339
     atom   68 type  1   force =     0.00000098   -0.00000005    0.00023284
     atom   69 type  2   force =     0.00000307    0.00000010    0.00006062
     atom   70 type  2   force =    -0.00000003   -0.00000109   -0.00011877
     atom   71 type  2   force =     0.00000097   -0.00000079   -0.00011591
     atom   72 type  2   force =     0.00000182    0.00000014    0.00005235
     atom   73 type  1   force =    -0.00001013   -0.00000032   -0.00008608
     atom   74 type  1   force =    -0.00001346    0.00000830    0.00001244
     atom   75 type  1   force =    -0.00002859    0.00000334   -0.00002536
     atom   76 type  1   force =     0.00000317   -0.00000049   -0.00007956
     atom   77 type  2   force =     0.00001064    0.00000109   -0.00013239
     atom   78 type  2   force =     0.00000985   -0.00000348   -0.00026098
     atom   79 type  2   force =    -0.00000261   -0.00000537   -0.00027340
     atom   80 type  2   force =     0.00002024    0.00000065   -0.00007360
     atom   81 type  1   force =     0.00002135   -0.00000439    0.00016711
     atom   82 type  1   force =    -0.00015667    0.00001160    0.00018621
     atom   83 type  1   force =    -0.00005034    0.00003984    0.00044034
     atom   84 type  1   force =    -0.00005698   -0.00000226    0.00014045
     atom   85 type  2   force =     0.00013044    0.00000675    0.00016460
     atom   86 type  2   force =    -0.00000775   -0.00003553   -0.00006492
     atom   87 type  2   force =     0.00004210   -0.00001826   -0.00002683
     atom   88 type  2   force =     0.00004873    0.00001271   -0.00010437
     atom   89 type  1   force =    -0.00015869    0.00000519    0.00013121
     atom   90 type  1   force =    -0.00008267    0.00076289    0.00114252
     atom   91 type  1   force =    -0.00029306    0.00020530   -0.00019011
     atom   92 type  1   force =     0.00005262    0.00000119    0.00022263
     atom   93 type  2   force =     0.00002670    0.00009742   -0.00031849
     atom   94 type  2   force =    -0.00016203   -0.00003712    0.00004794
     atom   95 type  2   force =     0.00011401   -0.00002084    0.00006008
     atom   96 type  2   force =     0.00011669    0.00002949    0.00025039
     atom   97 type  1   force =    -0.00000098    0.00000017    0.00023434
     atom   98 type  1   force =    -0.00000701   -0.00000042    0.00000915
     atom   99 type  1   force =    -0.00000342   -0.00000100    0.00001373
     atom  100 type  1   force =     0.00000085    0.00000014    0.00023323
     atom  101 type  2   force =     0.00000318   -0.00000003    0.00005900
     atom  102 type  2   force =    -0.00000003    0.00000125   -0.00011894
     atom  103 type  2   force =     0.00000097    0.00000096   -0.00011598
     atom  104 type  2   force =     0.00000195   -0.00000008    0.00004735
     atom  105 type  1   force =    -0.00001272    0.00000039   -0.00008130
     atom  106 type  1   force =    -0.00001438   -0.00000811    0.00001499
     atom  107 type  1   force =    -0.00002883   -0.00000317   -0.00002391
     atom  108 type  1   force =     0.00000250    0.00000058   -0.00007189
     atom  109 type  2   force =     0.00001135   -0.00000107   -0.00017122
     atom  110 type  2   force =     0.00000990    0.00000367   -0.00026150
     atom  111 type  2   force =    -0.00000259    0.00000558   -0.00027488
     atom  112 type  2   force =     0.00002035   -0.00000063   -0.00008116
     atom  113 type  1   force =     0.00001254    0.00000271    0.00019498
     atom  114 type  1   force =    -0.00016096   -0.00001015    0.00019371
     atom  115 type  1   force =    -0.00006151   -0.00004249    0.00045655
     atom  116 type  1   force =    -0.00007212    0.00000170    0.00015612
     atom  117 type  2   force =     0.00012561   -0.00000306    0.00012031
     atom  118 type  2   force =    -0.00000819    0.00003281   -0.00007556
     atom  119 type  2   force =     0.00004165    0.00001744   -0.00002969
     atom  120 type  2   force =     0.00004909   -0.00001250   -0.00038253
     atom  121 type  1   force =    -0.00002254    0.00004199    0.00003235
     atom  122 type  1   force =    -0.00012408   -0.00052777    0.00103923
     atom  123 type  1   force =    -0.00028899   -0.00016067   -0.00018967
     atom  124 type  1   force =    -0.00006312    0.00009986    0.00005637
     atom  125 type  2   force =     0.00002693    0.00033434   -0.00187017
     atom  126 type  2   force =    -0.00011559    0.00012556    0.00000739
     atom  127 type  2   force =     0.00013802    0.00022799   -0.00006842
     atom  128 type  2   force =     0.00028859    0.00002500   -0.00007245
     atom  129 type  3   force =    -0.00034247    0.00001453    0.00046757
     atom  130 type  3   force =     0.00021452   -0.00006745   -0.00207226
     atom  131 type  4   force =     0.00000873   -0.00016748   -0.00023621
     atom  132 type  4   force =    -0.00014964   -0.00010476    0.00017502
     atom  133 type  4   force =    -0.00022207    0.00011601    0.00020203
     atom  134 type  3   force =     0.00008504    0.00010073    0.00113980
     atom  135 type  2   force =     0.00060862   -0.00153795    0.00132077
     atom  136 type  4   force =    -0.00032630   -0.00041897   -0.00016762
     atom  137 type  3   force =     0.00015453    0.00029217   -0.00258536
     atom  138 type  2   force =     0.00019299   -0.00067774   -0.00043687
     atom  139 type  4   force =    -0.00011813    0.00063691    0.00036670
     atom  140 type  2   force =    -0.00013795   -0.00027997    0.00024545
     atom  141 type  2   force =    -0.00008335   -0.00031511    0.00099034
     atom  142 type  4   force =     0.00082355   -0.00009359    0.00099891

     Total force =     0.006708     Total SCF correction =     0.000010


     Computing stress (Cartesian axis) and pressure

          total   stress  (Ry/bohr**3)                   (kbar)     P=      -51.72
  -0.00029166   0.00000007  -0.00000024          -42.90        0.01       -0.04
   0.00000007  -0.00042957  -0.00000030            0.01      -63.19       -0.04
  -0.00000024  -0.00000030  -0.00033363           -0.04       -0.04      -49.08

     Energy error            =      1.3E-04 Ry
     Gradient error          =      2.6E-03 Ry/Bohr

     number of scf cycles    =   4
     number of bfgs steps    =   3

     energy             old  =   -4345.7120928736 Ry
     energy             new  =   -4345.7122274497 Ry

     CASE: energy            _new < energy            _old

     new trust radius        =       0.0129599449 bohr
     new conv_thr            =       0.0000000001 Ry


ATOMIC_POSITIONS (angstrom)
Li              -0.0000114430       -0.0000002995       15.2262513970
Li               4.3312037143        2.0417199587       16.3557104131
Li               1.4437372111        2.0417165232       16.3556402528
Li               2.8874443970       -0.0000003976       15.2262625396
F                4.3310715273        0.0000000116       16.4336531190
F                0.0000120038        2.0417112402       15.0825320422
F                2.8873925142        2.0417102843       15.0825130225
F                1.4436883928       -0.0000000892       16.4337420917
Li               2.8875675905        8.1668552308       17.9590702343
Li               1.4438383710        2.0417296206       19.3066289939
Li               4.3314842869        2.0417705434       19.3070349478
Li              11.5496060132        8.1668558839       17.9590059179
F                1.4436030151        0.0000026007       19.3288096757
F                2.8872842135        2.0416961535       17.9157237821
F                0.0000618191        2.0417036908       17.9158149316
F                4.3308360830        0.0000043176       19.3283200178
Li              11.5493264496        8.1668523331       20.8027233303
Li               4.3328157710        2.0421500635       22.1518647479
Li               1.4443010217        2.0417415212       22.1496896850
Li               2.8881254243        8.1668439641       20.8030006459
F                4.3297238554        0.0000451749       22.1855444304
F               11.5499781159        2.0416690414       20.7740310168
F                2.8867704404        2.0415982412       20.7736635409
F                1.4431947099        0.0000374720       22.1877513979
Li               2.8904021460       -0.0000623631       23.7523873139
Li               1.4446148151        2.0407928787       24.8753334367
Li               4.3373350101        2.0462165191       24.8879509296
Li              11.5480453834       -0.0000033567       23.7515615995
F                1.4427967549        0.0001678004       25.0264839927
F                2.8849957078        2.0409096068       23.6702290917
F                0.0011772829        2.0416483581       23.6711538523
F                4.3271252413        0.0009086575       25.0198925895
Li              -0.0000117640        4.0834275589       15.2262533999
Li               4.3312037551        6.1251349685       16.3557115380
Li               1.4437375386        6.1251384120       16.3556410047
Li               2.8874458218        4.0834276276       15.2262656463
F                4.3310704167        4.0834267014       16.4336301994
F                0.0000119635        6.1251436080       15.0825320791
F                2.8873925037        6.1251445506       15.0825128706
F                1.4436874739        4.0834268220       16.4337378951
Li               2.8875891975        4.0834287871       17.9591015363
Li               1.4438419509        6.1251251716       19.3066361637
Li               4.3314847738        6.1250845648       19.3070466400
Li              11.5496002394        4.0834281026       17.9590226641
F                1.4435945439        4.0834239867       19.3288201799
F                2.8872840100        6.1251589497       17.9157197991
F                0.0000616968        6.1251513887       17.9158136131
F                4.3308243355        4.0834226063       19.3280995170
Li              -0.0004182434        4.0834318129       20.8027865304
Li               4.3328215331        6.1246768152       22.1520189225
Li               1.4443482377        6.1251201971       22.1497460218
Li               2.8883513287        4.0834375088       20.8031766563
F                4.3296455264        4.0833423514       22.1834276134
F               11.5499770146        6.1251864734       20.7740257195
F                2.8867704141        6.1252528204       20.7736340571
F                1.4430972992        4.0834052806       22.1881428527
Li               2.8916589114        4.0836878735       23.7520528352
Li               1.4446916515        6.1262138083       24.8753588378
Li               4.3376894947        6.1218771018       24.8885981516
Li              -0.0022545756        4.0834622667       23.7514714061
F                1.4430113539        4.0834931667       25.0302959077
F                2.8847570510        6.1263644086       23.6700039957
F               11.5508509227        6.1252604792       23.6711276458
F                4.3196387644        4.0873061569       25.0030343761
Li               5.7748494847       -0.0000003965       15.2262929694
Li              10.1058915008        2.0417173878       16.3556725327
Li               7.2185198759        2.0417201200       16.3557423116
Li               8.6622318048       -0.0000003177       15.2262817060
F               10.1060236692       -0.0000002206       16.4336994119
F                5.7748262209        2.0417089540       15.0824619017
F                8.6622835917        2.0417099282       15.0824805295
F                7.2185688240        8.1668568005       16.4336105813
Li               8.6621091031        8.1668558262       17.9591880907
Li               7.2184184892        2.0417705335       19.3072194583
Li              10.1056110579        2.0417406346       19.3068218239
Li               5.7749076829        8.1668551593       17.9592525458
F                7.2186544315        0.0000029112       19.3280787110
F                8.6623897287        2.0416932024       17.9155598156
F                5.7747783128        2.0416857946       17.9154680353
F               10.1062586916        8.1668582972       19.3285630825
Li               5.7751762856        8.1668426568       20.8038242492
Li              10.1042544090        2.0418774234       22.1508098369
Li               7.2179782994        2.0421473880       22.1528603837
Li               8.6615621892        8.1668509173       20.8035507120
F               10.1073983670        0.0000147669       22.1865386746
F                5.7745676296        2.0414923066       20.7725684536
F                8.6628743918        2.0415692076       20.7729450953
F                7.2190311631        0.0000325687       22.1844126949
Li               8.6595254619        8.1668658508       23.7547457834
Li               7.2167526432        2.0472092535       24.8934348809
Li              10.1007366584        2.0433428884       24.8824468456
Li               5.7762140775       -0.0000563041       23.7557239023
F                7.2197324918        0.0005321131       25.0162764258
F                8.6642837234        2.0407165650       23.6676280774
F                5.7739561662        2.0403956431       23.6665060669
F               10.1096788239        0.0001538459       25.0222294779
Li               5.7748494936        4.0834276261       15.2262975856
Li              10.1058914963        6.1251375638       16.3556730436
Li               7.2185195165        6.1251348172       16.3557431753
Li               8.6622306810        4.0834275426       15.2262852663
F               10.1060247278        4.0834269648       16.4336897746
F                5.7748262297        6.1251458918       15.0824616377
F                8.6622835915        6.1251449598       15.0824805757
F                7.2185696133        4.0834268148       16.4335876138
Li               8.6620933530        4.0834281640       17.9592252263
Li               7.2184147113        6.1250844031       19.3072271782
Li              10.1056107596        6.1251142330       19.3068257298
Li               5.7749076239        4.0834288699       17.9593042293
F                7.2186631080        4.0834239157       19.3278747085
F                8.6623899855        6.1251618810       17.9155585819
F                5.7747784804        6.1251693603       17.9154637620
F               10.1062698192        4.0834253254       19.3284979623
Li               5.7751652858        4.0834377727       20.8041984572
Li              10.1042489172        6.1249784796       22.1508295408
Li               7.2179298080        6.1246915111       22.1529200905
Li               8.6614164423        4.0834317653       20.8038060414
F               10.1075250338        4.0834170561       22.1861137203
F                5.7745681621        6.1253561575       20.7725327083
F                8.6628752086        6.1252834819       20.7729390825
F                7.2191025690        4.0833765416       22.1827020659
Li               8.6586284676        4.0835263324       23.7564866397
Li               7.2164799976        6.1209701903       24.8928499979
Li              10.1008368724        6.1237778345       24.8824499946
Li               5.7760914450        4.0837167069       23.7581426770
F                7.2209245766        4.0855456002       25.0047641610
F                8.6644337231        6.1263779390       23.6675459210
F                5.7740748050        6.1270131357       23.6660854003
F               10.1121192094        4.0836230813       25.0198264080
C                3.7954206577        4.0096776500       29.4481699489
C                5.1560643123        4.1991709565       28.8085915946
H                3.0238442997        4.2016628000       28.6939202512
H                3.6895376873        2.9824230088       29.8141031855
H                3.6654883888        4.7066624634       30.2833724225
C                6.3328372949        3.9739467253       29.7620967329
F                5.2622978413        3.3396713269       27.7360838457
H                6.2429887759        2.9612930986       30.1776793671
C                7.7482455821        4.1104646540       29.2162345265
F                5.2208683981        5.4838134017       28.2887149234
H                6.2338746364        4.6792953953       30.5975001689
F                7.9803595341        5.3640043537       28.7043377227
F                8.0041563223        3.2011357826       28.2231580720
H                8.4955538115        3.9420119707       30.0108538851



     Writing config-only to output data dir ./tmp/LiF_PVDF/LiF_PVDF.save/ :
     XML data file
     NEW-OLD atomic charge density approx. for the potential

     total cpu time spent up to now is     1865.6 secs

     per-process dynamical memory:   151.3 Mb

     Self-consistent Calculation

     iteration #  1     ecut=    60.00 Ry     beta= 0.30
     Davidson diagonalization with overlap
     ethr =  1.00E-06,  avg # of iterations =  4.0

     Threshold (ethr) on eigenvalues was too large:
     Diagonalizing with lowered threshold

     Davidson diagonalization with overlap
     ethr =  8.38E-09,  avg # of iterations =  4.0

     total cpu time spent up to now is     1947.1 secs

     total energy              =   -4345.71232200 Ry
     estimated scf accuracy    <       0.00006445 Ry

     iteration #  2     ecut=    60.00 Ry     beta= 0.30
     Davidson diagonalization with overlap
     ethr =  9.34E-09,  avg # of iterations =  2.0

     total cpu time spent up to now is     1976.4 secs

     total energy              =   -4345.71231520 Ry
     estimated scf accuracy    <       0.00001958 Ry

     iteration #  3     ecut=    60.00 Ry     beta= 0.30
     Davidson diagonalization with overlap
     ethr =  2.84E-09,  avg # of iterations =  2.6

     total cpu time spent up to now is     2012.4 secs

     total energy              =   -4345.71231858 Ry
     estimated scf accuracy    <       0.00000105 Ry

     iteration #  4     ecut=    60.00 Ry     beta= 0.30
     Davidson diagonalization with overlap
     ethr =  1.52E-10,  avg # of iterations =  3.6

     total cpu time spent up to now is     2050.4 secs

     total energy              =   -4345.71231876 Ry
     estimated scf accuracy    <       0.00000011 Ry

     iteration #  5     ecut=    60.00 Ry     beta= 0.30
     Davidson diagonalization with overlap
     ethr =  1.60E-11,  avg # of iterations =  3.6

     total cpu time spent up to now is     2084.6 secs

     total energy              =   -4345.71231879 Ry
     estimated scf accuracy    <       0.00000002 Ry

     iteration #  6     ecut=    60.00 Ry     beta= 0.30
     Davidson diagonalization with overlap
     ethr =  2.98E-12,  avg # of iterations =  4.0

     total cpu time spent up to now is     2121.5 secs

     total energy              =   -4345.71231880 Ry
     estimated scf accuracy    <          2.7E-09 Ry

     iteration #  7     ecut=    60.00 Ry     beta= 0.30
     Davidson diagonalization with overlap
     ethr =  3.86E-13,  avg # of iterations =  4.0

     total cpu time spent up to now is     2162.1 secs

     total energy              =   -4345.71231880 Ry
     estimated scf accuracy    <          7.4E-10 Ry

     iteration #  8     ecut=    60.00 Ry     beta= 0.30
     Davidson diagonalization with overlap
     ethr =  1.07E-13,  avg # of iterations =  4.0

     total cpu time spent up to now is     2200.1 secs

     End of self-consistent calculation

          k = 0.0000 0.0000 0.0000 (200173 PWs)   bands (ev):

   -46.3795 -46.3774 -46.3654 -46.3631 -46.3621 -46.3604 -46.3561 -46.3561
   -46.3550 -46.3550 -46.3529 -46.3475 -46.3463 -46.3415 -46.3370 -46.3306
   -45.8600 -45.8574 -45.8553 -45.8537 -45.8496 -45.8485 -45.8478 -45.8469
   -45.8461 -45.8460 -45.8455 -45.8430 -45.8392 -45.8378 -45.8360 -45.8341
   -45.7102 -45.6995 -45.6991 -45.6989 -45.6969 -45.6918 -45.6915 -45.6887
   -45.6876 -45.6851 -45.6847 -45.6833 -45.6826 -45.6799 -45.6796 -45.6767
   -45.4046 -45.4039 -45.4031 -45.4023 -45.3945 -45.3945 -45.3940 -45.3940
   -45.3899 -45.3867 -45.3852 -45.3780 -45.3712 -45.3670 -45.3658 -45.3503
   -28.9605 -28.7297 -27.4597 -27.2574 -24.7870 -24.7684 -24.7338 -24.7252
   -24.6889 -24.6884 -24.6743 -24.6711 -24.6695 -24.6695 -24.6601 -24.6556
   -24.6042 -24.5901 -24.5827 -24.5718 -24.5693 -24.4453 -24.4451 -24.3974
   -24.3955 -24.3208 -24.3207 -24.3187 -24.3186 -24.2905 -24.2427 -24.2404
   -24.2208 -24.2188 -24.2001 -24.1999 -24.1908 -24.1886 -24.1054 -24.1054
   -24.1035 -24.1024 -24.0513 -24.0353 -24.0327 -24.0286 -24.0168 -24.0145
   -24.0051 -24.0032 -23.9946 -23.9906 -23.4597 -23.4549 -23.4126 -23.4059
   -23.3800 -23.3800 -23.3795 -23.3694 -23.3441 -23.3440 -23.3440 -23.3311
   -23.3027 -23.2928 -23.2801 -23.2675 -18.0124 -16.4324 -14.2404 -12.9857
   -11.3349 -11.2643 -10.8976 -10.7093  -9.7490  -9.2315  -8.5314  -8.1388
    -7.7115  -7.6120  -7.5925  -7.5900  -7.3598  -7.3520  -7.3496  -7.3241
    -7.3073  -7.3045  -7.2723  -7.1526  -7.1511  -7.1474  -7.1470  -7.1344
    -7.1344  -7.1317  -7.1304  -7.0233  -7.0029  -7.0025  -6.9977  -6.9965
    -6.9907  -6.9862  -6.9406  -6.9379  -6.9266  -6.9210  -6.9179  -6.9046
    -6.9042  -6.8639  -6.8573  -6.8531  -6.8263  -6.8259  -6.7821  -6.7670
    -6.7664  -6.7630  -6.7625  -6.7620  -6.7560  -6.7508  -6.7487  -6.7094
    -6.6970  -6.6969  -6.6920  -6.6897  -6.6095  -6.5967  -6.5963  -6.5439
    -6.5438  -6.5424  -6.5415  -6.5123  -6.5082  -6.5071  -6.5032  -6.4992
    -6.3941  -6.2688  -6.2673  -6.2669  -6.2661  -6.2554  -6.2220  -6.2167
    -6.2063  -6.2050  -6.2023  -6.2016  -6.2013  -6.1987  -6.1984  -6.1887
    -6.0981  -6.0578  -6.0577  -6.0127  -6.0038  -6.0016  -5.9792  -5.9785
    -5.9081  -5.8983  -5.8469  -5.8057  -5.8042  -5.8035  -5.8034  -5.8023
    -5.8019  -5.8018  -5.8013  -5.7308  -5.7152  -5.7107  -5.7102  -5.7066
    -5.7050  -5.5784  -5.5530  -5.5528  -5.5263  -5.5263  -5.5252  -5.5241
    -5.5219  -5.5216  -5.5206  -5.5104  -5.5102  -5.4995  -5.4990  -5.4928
    -5.4919  -5.4387  -5.4382  -5.4061  -5.4053  -5.3392  -5.2923  -5.2890
    -5.2646  -5.2635  -5.2628  -5.2596  -5.2522  -5.2476  -5.2440  -5.2425
    -5.2423  -5.2416  -5.2377  -5.2353  -5.2129  -5.2114  -5.2093  -5.2067
    -5.1870  -5.1751  -5.1748  -5.1724  -5.1583  -5.1579  -5.1563  -5.1561
    -5.1390  -5.0718  -5.0716  -5.0664  -5.0650  -5.0637  -5.0610  -5.0200
    -5.0198  -5.0013  -4.9922  -4.9675  -4.9675  -4.9637  -4.9478  -4.9171
    -4.9099  -4.8926  -4.8910  -4.8894  -4.8888  -4.8850  -4.8503  -4.8480
    -4.8440  -4.8320  -4.8270  -4.8268  -4.8268  -4.8197  -4.7403  -4.7064
    -4.7009  -4.6759  -4.6667  -4.6397  -4.6384  -4.6257  -4.6089  -4.6082
    -4.5874  -4.5821  -4.5821  -4.5605  -4.5534  -4.2342  -4.2313  -4.1951
    -4.1931

          k = 0.0000 0.3536 0.0000 (200366 PWs)   bands (ev):

   -46.3794 -46.3777 -46.3650 -46.3636 -46.3620 -46.3606 -46.3561 -46.3560
   -46.3551 -46.3551 -46.3529 -46.3473 -46.3468 -46.3416 -46.3371 -46.3307
   -45.8595 -45.8567 -45.8561 -45.8543 -45.8494 -45.8483 -45.8477 -45.8472
   -45.8464 -45.8463 -45.8453 -45.8433 -45.8390 -45.8383 -45.8358 -45.8345
   -45.7094 -45.7034 -45.6985 -45.6983 -45.6942 -45.6940 -45.6925 -45.6866
   -45.6860 -45.6854 -45.6846 -45.6837 -45.6829 -45.6806 -45.6802 -45.6770
   -45.4046 -45.4041 -45.4029 -45.4025 -45.3946 -45.3946 -45.3941 -45.3941
   -45.3900 -45.3864 -45.3858 -45.3780 -45.3713 -45.3671 -45.3658 -45.3504
   -28.9605 -28.7297 -27.4597 -27.2574 -24.7790 -24.7628 -24.7412 -24.7323
   -24.6860 -24.6855 -24.6726 -24.6721 -24.6721 -24.6692 -24.6624 -24.6581
   -24.6011 -24.5872 -24.5859 -24.5724 -24.5621 -24.4735 -24.4383 -24.4382
   -24.3753 -24.3753 -24.3308 -24.2939 -24.2627 -24.2627 -24.2395 -24.2372
   -24.2240 -24.2220 -24.2056 -24.2053 -24.1794 -24.1548 -24.1072 -24.1067
   -24.0787 -24.0781 -24.0664 -24.0563 -24.0474 -24.0459 -24.0158 -24.0144
   -24.0136 -24.0111 -23.9979 -23.9945 -23.4529 -23.4479 -23.4195 -23.4132
   -23.3748 -23.3748 -23.3744 -23.3643 -23.3494 -23.3494 -23.3492 -23.3364
   -23.2995 -23.2896 -23.2834 -23.2709 -18.0124 -16.4324 -14.2404 -12.9856
   -11.3350 -11.2642 -10.8979 -10.7093  -9.7490  -9.2314  -8.5323  -8.1397
    -7.7116  -7.5420  -7.5391  -7.5039  -7.3559  -7.3475  -7.3243  -7.2937
    -7.2910  -7.2850  -7.2719  -7.1555  -7.1497  -7.1486  -7.1257  -7.1253
    -7.1230  -7.1216  -7.0942  -7.0756  -7.0713  -7.0507  -7.0497  -7.0211
    -6.9832  -6.9685  -6.9678  -6.9654  -6.9639  -6.9621  -6.9605  -6.9243
    -6.9238  -6.9105  -6.9008  -6.9006  -6.8917  -6.8629  -6.8575  -6.8327
    -6.8323  -6.7869  -6.7862  -6.7828  -6.7687  -6.7485  -6.7480  -6.7091
    -6.7076  -6.6685  -6.6612  -6.6110  -6.6050  -6.5886  -6.5884  -6.5851
    -6.5836  -6.5296  -6.5288  -6.5230  -6.5227  -6.4718  -6.4625  -6.4480
    -6.4447  -6.4440  -6.2986  -6.2980  -6.2852  -6.2846  -6.2421  -6.1695
    -6.1686  -6.1437  -6.1069  -6.0996  -6.0956  -6.0704  -6.0703  -6.0612
    -6.0537  -6.0359  -6.0350  -5.9808  -5.9519  -5.9325  -5.9322  -5.8778
    -5.8734  -5.8659  -5.8649  -5.8302  -5.8062  -5.8059  -5.7916  -5.7913
    -5.7881  -5.7876  -5.7554  -5.7373  -5.7184  -5.7151  -5.6718  -5.6715
    -5.6591  -5.5667  -5.5664  -5.5629  -5.5624  -5.5601  -5.5511  -5.5510
    -5.5417  -5.5416  -5.5227  -5.5218  -5.5212  -5.4899  -5.4892  -5.4887
    -5.4600  -5.4555  -5.4552  -5.4451  -5.4436  -5.4320  -5.4306  -5.4117
    -5.3936  -5.3927  -5.3410  -5.2656  -5.2645  -5.2501  -5.2492  -5.2488
    -5.2487  -5.2399  -5.2358  -5.2350  -5.1944  -5.1904  -5.1877  -5.1867
    -5.1825  -5.1797  -5.1794  -5.1762  -5.1714  -5.1422  -5.1386  -5.0959
    -5.0791  -5.0783  -5.0525  -5.0516  -5.0502  -5.0421  -5.0385  -5.0266
    -5.0135  -4.9986  -4.9980  -4.9912  -4.9734  -4.9663  -4.9659  -4.9594
    -4.9521  -4.9418  -4.8945  -4.8763  -4.8677  -4.8673  -4.8665  -4.8644
    -4.8613  -4.8373  -4.8345  -4.7971  -4.7949  -4.7707  -4.7406  -4.7165
    -4.7084  -4.6703  -4.6618  -4.6310  -4.6267  -4.6250  -4.6112  -4.6080
    -4.5962  -4.5962  -4.5910  -4.5723  -4.5593  -4.2282  -4.2255  -4.2007
    -4.1986

          k = 0.0000-0.7071 0.0000 (200506 PWs)   bands (ev):

   -46.3793 -46.3780 -46.3644 -46.3643 -46.3618 -46.3609 -46.3557 -46.3557
   -46.3556 -46.3556 -46.3529 -46.3471 -46.3470 -46.3417 -46.3371 -46.3308
   -45.8582 -45.8575 -45.8558 -45.8555 -45.8486 -45.8481 -45.8475 -45.8472
   -45.8472 -45.8469 -45.8450 -45.8438 -45.8389 -45.8385 -45.8357 -45.8347
   -45.7074 -45.7069 -45.6971 -45.6969 -45.6965 -45.6962 -45.6890 -45.6885
   -45.6847 -45.6844 -45.6843 -45.6837 -45.6830 -45.6818 -45.6804 -45.6772
   -45.4044 -45.4043 -45.4028 -45.4028 -45.3944 -45.3944 -45.3944 -45.3944
   -45.3900 -45.3861 -45.3861 -45.3781 -45.3714 -45.3671 -45.3659 -45.3505
   -28.9606 -28.7297 -27.4597 -27.2574 -24.7599 -24.7596 -24.7492 -24.7474
   -24.6790 -24.6788 -24.6787 -24.6786 -24.6687 -24.6667 -24.6652 -24.6627
   -24.5936 -24.5935 -24.5812 -24.5784 -24.5310 -24.5306 -24.4161 -24.4160
   -24.4156 -24.4155 -24.3041 -24.3038 -24.2322 -24.2315 -24.2302 -24.2299
   -24.2240 -24.2237 -24.2236 -24.2232 -24.1173 -24.1168 -24.1063 -24.1057
   -24.0819 -24.0814 -24.0811 -24.0801 -24.0444 -24.0440 -24.0438 -24.0424
   -24.0058 -24.0057 -24.0044 -24.0017 -23.4373 -23.4352 -23.4307 -23.4306
   -23.3630 -23.3622 -23.3622 -23.3621 -23.3621 -23.3608 -23.3553 -23.3456
   -23.2915 -23.2914 -23.2841 -23.2764 -18.0125 -16.4324 -14.2403 -12.9854
   -11.3353 -11.2642 -10.8982 -10.7093  -9.7491  -9.2313  -8.5331  -8.1404
    -7.7116  -7.4181  -7.4178  -7.4129  -7.4114  -7.3247  -7.2740  -7.2544
    -7.2532  -7.2529  -7.2521  -7.2148  -7.2145  -7.1403  -7.1400  -7.0964
    -7.0951  -7.0947  -7.0941  -7.0633  -7.0632  -7.0621  -7.0611  -7.0547
    -7.0534  -7.0534  -7.0532  -7.0490  -7.0458  -7.0239  -7.0075  -6.9951
    -6.9269  -6.9267  -6.9261  -6.9258  -6.8698  -6.8679  -6.8676  -6.8673
    -6.8616  -6.8204  -6.8194  -6.8189  -6.8179  -6.7846  -6.7765  -6.7750
    -6.6281  -6.6277  -6.6273  -6.6267  -6.6110  -6.6002  -6.6002  -6.5910
    -6.5875  -6.5598  -6.5596  -6.5592  -6.5586  -6.3836  -6.3833  -6.3832
    -6.3828  -6.3314  -6.3311  -6.3310  -6.3304  -6.2868  -6.2859  -6.0997
    -6.0460  -6.0452  -6.0421  -6.0416  -6.0087  -6.0087  -6.0084  -6.0080
    -5.9667  -5.9661  -5.9630  -5.9629  -5.9435  -5.9426  -5.9281  -5.9281
    -5.9278  -5.9278  -5.8160  -5.8154  -5.7870  -5.7853  -5.7819  -5.7810
    -5.7676  -5.7673  -5.7670  -5.7668  -5.6509  -5.6505  -5.6505  -5.6499
    -5.6252  -5.6240  -5.5965  -5.5958  -5.5685  -5.5683  -5.5682  -5.5678
    -5.5410  -5.5408  -5.5405  -5.5398  -5.5054  -5.5049  -5.4980  -5.4978
    -5.4977  -5.4973  -5.4496  -5.4484  -5.4482  -5.4479  -5.3914  -5.3913
    -5.3908  -5.3906  -5.3785  -5.3783  -5.3778  -5.3775  -5.2631  -5.2629
    -5.2598  -5.2588  -5.2582  -5.2574  -5.2280  -5.2279  -5.2264  -5.2247
    -5.1910  -5.1661  -5.1657  -5.1524  -5.1523  -5.0908  -5.0879  -5.0817
    -5.0813  -5.0770  -5.0769  -5.0718  -5.0712  -5.0321  -5.0316  -5.0309
    -5.0306  -5.0230  -5.0219  -5.0196  -5.0157  -4.9549  -4.9532  -4.9526
    -4.9518  -4.9082  -4.9072  -4.8993  -4.8982  -4.8381  -4.8378  -4.8371
    -4.8339  -4.8096  -4.8093  -4.8088  -4.8059  -4.7400  -4.7370  -4.7330
    -4.7225  -4.6425  -4.6423  -4.6373  -4.6309  -4.6226  -4.6225  -4.6124
    -4.6112  -4.6110  -4.5949  -4.5871  -4.5637  -4.2156  -4.2146  -4.2125
    -4.2124

          k = 0.2500 0.0000 0.0000 (200254 PWs)   bands (ev):

   -46.3795 -46.3774 -46.3646 -46.3625 -46.3622 -46.3605 -46.3596 -46.3582
   -46.3527 -46.3527 -46.3518 -46.3481 -46.3472 -46.3414 -46.3371 -46.3307
   -45.8596 -45.8566 -45.8551 -45.8532 -45.8525 -45.8500 -45.8490 -45.8479
   -45.8451 -45.8439 -45.8431 -45.8421 -45.8398 -45.8386 -45.8362 -45.8345
   -45.7094 -45.7031 -45.6990 -45.6966 -45.6946 -45.6945 -45.6908 -45.6887
   -45.6867 -45.6856 -45.6847 -45.6841 -45.6821 -45.6803 -45.6797 -45.6767
   -45.4046 -45.4039 -45.4023 -45.4017 -45.3978 -45.3973 -45.3915 -45.3908
   -45.3901 -45.3872 -45.3861 -45.3778 -45.3714 -45.3671 -45.3656 -45.3504
   -28.9605 -28.7297 -27.4597 -27.2574 -24.7798 -24.7617 -24.7289 -24.7268
   -24.7209 -24.7091 -24.6942 -24.6819 -24.6491 -24.6446 -24.6358 -24.6331
   -24.6093 -24.5947 -24.5910 -24.5771 -24.5628 -24.4965 -24.3916 -24.3897
   -24.3871 -24.3502 -24.3482 -24.2911 -24.2889 -24.2835 -24.2697 -24.2487
   -24.2464 -24.2334 -24.1844 -24.1826 -24.1824 -24.1730 -24.1384 -24.1356
   -24.0719 -24.0699 -24.0476 -24.0349 -24.0321 -24.0284 -24.0237 -24.0213
   -24.0198 -24.0093 -23.9901 -23.9827 -23.4563 -23.4493 -23.4104 -23.4090
   -23.4013 -23.3994 -23.3680 -23.3582 -23.3508 -23.3479 -23.3198 -23.3166
   -23.3087 -23.2972 -23.2850 -23.2706 -18.0124 -16.4324 -14.2404 -12.9858
   -11.3349 -11.2643 -10.8977 -10.7094  -9.7491  -9.2315  -8.5315  -8.1389
    -7.7115  -7.5805  -7.5637  -7.5362  -7.3426  -7.3245  -7.3217  -7.3186
    -7.3118  -7.3105  -7.2780  -7.2713  -7.2558  -7.2166  -7.1408  -7.1392
    -7.1097  -7.0948  -7.0947  -7.0571  -7.0533  -7.0345  -7.0240  -7.0215
    -6.9871  -6.9791  -6.9582  -6.9169  -6.9149  -6.9058  -6.8811  -6.8806
    -6.8782  -6.8779  -6.8631  -6.8447  -6.8415  -6.8116  -6.7959  -6.7929
    -6.7823  -6.7778  -6.7734  -6.7602  -6.7583  -6.7554  -6.7388  -6.7374
    -6.7335  -6.7022  -6.6877  -6.6393  -6.6375  -6.6087  -6.5746  -6.5731
    -6.5310  -6.5028  -6.4990  -6.4975  -6.4553  -6.4436  -6.4365  -6.4074
    -6.3745  -6.3697  -6.3404  -6.3394  -6.3380  -6.2950  -6.2689  -6.2662
    -6.2537  -6.1874  -6.1758  -6.1507  -6.1398  -6.1240  -6.1224  -6.1198
    -6.0978  -6.0691  -6.0301  -6.0297  -6.0125  -6.0084  -5.9790  -5.9744
    -5.9500  -5.9400  -5.9051  -5.9014  -5.8856  -5.8667  -5.7845  -5.7725
    -5.7609  -5.7486  -5.7139  -5.7074  -5.7017  -5.6855  -5.6808  -5.6647
    -5.6643  -5.6466  -5.6007  -5.6004  -5.5993  -5.5827  -5.5521  -5.5511
    -5.5234  -5.5161  -5.5031  -5.4944  -5.4308  -5.4257  -5.4251  -5.4143
    -5.4093  -5.4090  -5.4074  -5.3768  -5.3706  -5.3689  -5.3659  -5.3326
    -5.3260  -5.2669  -5.2662  -5.2467  -5.2463  -5.2461  -5.2446  -5.2435
    -5.2379  -5.2350  -5.2345  -5.2116  -5.2099  -5.2067  -5.2045  -5.1950
    -5.1923  -5.1899  -5.1850  -5.1615  -5.1592  -5.1534  -5.1472  -5.1456
    -5.1305  -5.1068  -5.1056  -5.0662  -5.0658  -5.0634  -5.0607  -5.0589
    -5.0537  -5.0046  -4.9938  -4.9802  -4.9796  -4.9772  -4.9660  -4.9623
    -4.9490  -4.9257  -4.9208  -4.9202  -4.9180  -4.9173  -4.9027  -4.8932
    -4.8598  -4.8151  -4.7769  -4.7460  -4.7447  -4.7400  -4.7235  -4.7021
    -4.6859  -4.6583  -4.6343  -4.6341  -4.6222  -4.6097  -4.6095  -4.5990
    -4.5892  -4.5724  -4.5596  -4.5136  -4.5025  -4.2784  -4.2765  -4.2502
    -4.2486

          k = 0.2500 0.3536 0.0000 (200411 PWs)   bands (ev):

   -46.3794 -46.3777 -46.3643 -46.3630 -46.3621 -46.3607 -46.3594 -46.3584
   -46.3528 -46.3527 -46.3519 -46.3480 -46.3474 -46.3415 -46.3371 -46.3308
   -45.8590 -45.8562 -45.8558 -45.8539 -45.8521 -45.8498 -45.8495 -45.8483
   -45.8449 -45.8438 -45.8433 -45.8423 -45.8397 -45.8389 -45.8361 -45.8347
   -45.7086 -45.7029 -45.7024 -45.6974 -45.6941 -45.6928 -45.6902 -45.6881
   -45.6865 -45.6857 -45.6850 -45.6835 -45.6827 -45.6805 -45.6801 -45.6770
   -45.4045 -45.4041 -45.4022 -45.4020 -45.3977 -45.3974 -45.3914 -45.3909
   -45.3901 -45.3870 -45.3864 -45.3778 -45.3715 -45.3671 -45.3657 -45.3505
   -28.9605 -28.7297 -27.4597 -27.2574 -24.7721 -24.7564 -24.7360 -24.7276
   -24.7218 -24.7057 -24.6988 -24.6863 -24.6484 -24.6452 -24.6358 -24.6333
   -24.6066 -24.5937 -24.5922 -24.5796 -24.5534 -24.4884 -24.4664 -24.4142
   -24.3819 -24.3337 -24.3252 -24.2870 -24.2868 -24.2696 -24.2613 -24.2419
   -24.2376 -24.2276 -24.1890 -24.1802 -24.1744 -24.1493 -24.1357 -24.1071
   -24.0756 -24.0624 -24.0557 -24.0502 -24.0490 -24.0417 -24.0328 -24.0238
   -24.0137 -24.0123 -23.9989 -23.9877 -23.4497 -23.4424 -23.4169 -23.4084
   -23.4030 -23.3939 -23.3740 -23.3640 -23.3463 -23.3436 -23.3244 -23.3212
   -23.3053 -23.2939 -23.2885 -23.2741 -18.0124 -16.4324 -14.2404 -12.9856
   -11.3351 -11.2643 -10.8979 -10.7093  -9.7491  -9.2314  -8.5324  -8.1397
    -7.7115  -7.5138  -7.4881  -7.4765  -7.3247  -7.3157  -7.3057  -7.2796
    -7.2742  -7.2718  -7.2630  -7.2581  -7.2392  -7.1738  -7.1461  -7.1301
    -7.1018  -7.0818  -7.0803  -7.0716  -7.0688  -7.0635  -7.0389  -7.0309
    -7.0224  -7.0042  -6.9975  -6.9962  -6.9894  -6.9841  -6.9745  -6.9624
    -6.9253  -6.9239  -6.9002  -6.8782  -6.8686  -6.8657  -6.8615  -6.8579
    -6.8558  -6.8467  -6.7889  -6.7833  -6.7752  -6.7642  -6.7295  -6.7128
    -6.7037  -6.6662  -6.6533  -6.6347  -6.6191  -6.6086  -6.5857  -6.5753
    -6.5597  -6.4849  -6.4757  -6.4744  -6.4673  -6.4608  -6.4529  -6.4427
    -6.4041  -6.3502  -6.3060  -6.2859  -6.2600  -6.2489  -6.2020  -6.1920
    -6.1793  -6.1497  -6.1495  -6.1149  -6.0990  -6.0797  -6.0647  -6.0458
    -6.0336  -6.0208  -6.0016  -5.9968  -5.9836  -5.9599  -5.9584  -5.9543
    -5.9355  -5.9291  -5.9170  -5.8733  -5.8666  -5.8302  -5.7961  -5.7669
    -5.7630  -5.7469  -5.7450  -5.7079  -5.6814  -5.6773  -5.6636  -5.6522
    -5.6499  -5.6431  -5.6180  -5.6030  -5.5901  -5.5867  -5.5605  -5.4993
    -5.4855  -5.4829  -5.4801  -5.4783  -5.4736  -5.4676  -5.4562  -5.4482
    -5.4474  -5.4382  -5.4330  -5.4289  -5.4252  -5.4127  -5.3933  -5.3891
    -5.3417  -5.3405  -5.3286  -5.3211  -5.2928  -5.2866  -5.2863  -5.2747
    -5.2659  -5.2403  -5.2400  -5.2323  -5.2210  -5.2191  -5.2071  -5.1964
    -5.1883  -5.1843  -5.1692  -5.1509  -5.1306  -5.1242  -5.1187  -5.1089
    -5.1042  -5.1025  -5.0974  -5.0837  -5.0803  -5.0445  -5.0293  -5.0278
    -5.0232  -5.0159  -5.0070  -5.0041  -4.9830  -4.9789  -4.9779  -4.9623
    -4.9607  -4.9562  -4.9493  -4.9382  -4.9339  -4.9139  -4.8884  -4.8816
    -4.8802  -4.7822  -4.7640  -4.7454  -4.7396  -4.7361  -4.7214  -4.7107
    -4.6900  -4.6584  -4.6391  -4.6252  -4.6226  -4.6145  -4.6088  -4.5982
    -4.5788  -4.5724  -4.5572  -4.5235  -4.5121  -4.2750  -4.2731  -4.2537
    -4.2521

          k = 0.2500-0.7071 0.0000 (200442 PWs)   bands (ev):

   -46.3792 -46.3779 -46.3637 -46.3637 -46.3620 -46.3609 -46.3590 -46.3589
   -46.3527 -46.3523 -46.3522 -46.3477 -46.3477 -46.3415 -46.3371 -46.3308
   -45.8578 -45.8571 -45.8552 -45.8549 -45.8510 -45.8507 -45.8493 -45.8487
   -45.8443 -45.8440 -45.8434 -45.8426 -45.8395 -45.8391 -45.8359 -45.8349
   -45.7067 -45.7062 -45.7009 -45.7001 -45.6928 -45.6922 -45.6888 -45.6883
   -45.6860 -45.6856 -45.6852 -45.6841 -45.6822 -45.6812 -45.6802 -45.6771
   -45.4044 -45.4043 -45.4022 -45.4021 -45.3976 -45.3975 -45.3911 -45.3911
   -45.3901 -45.3867 -45.3867 -45.3778 -45.3715 -45.3671 -45.3657 -45.3505
   -28.9605 -28.7298 -27.4597 -27.2574 -24.7539 -24.7536 -24.7436 -24.7419
   -24.7102 -24.7100 -24.6977 -24.6953 -24.6468 -24.6466 -24.6358 -24.6335
   -24.6002 -24.6001 -24.5874 -24.5846 -24.5228 -24.5224 -24.4622 -24.4618
   -24.3649 -24.3645 -24.2975 -24.2971 -24.2680 -24.2676 -24.2521 -24.2517
   -24.2062 -24.2058 -24.2030 -24.2027 -24.1149 -24.1145 -24.1019 -24.1016
   -24.0959 -24.0944 -24.0670 -24.0658 -24.0628 -24.0617 -24.0237 -24.0233
   -24.0187 -24.0170 -24.0007 -23.9991 -23.4349 -23.4317 -23.4255 -23.4255
   -23.3886 -23.3886 -23.3826 -23.3754 -23.3354 -23.3353 -23.3350 -23.3300
   -23.2969 -23.2969 -23.2882 -23.2799 -18.0124 -16.4324 -14.2403 -12.9854
   -11.3351 -11.2642 -10.8980 -10.7093  -9.7489  -9.2313  -8.5331  -8.1404
    -7.7114  -7.3847  -7.3841  -7.3670  -7.3660  -7.3246  -7.2737  -7.2342
    -7.2333  -7.2055  -7.2048  -7.1979  -7.1976  -7.1791  -7.1784  -7.1242
    -7.1238  -7.0938  -7.0932  -7.0910  -7.0908  -7.0875  -7.0871  -7.0647
    -7.0634  -7.0375  -7.0350  -7.0334  -7.0281  -7.0182  -7.0005  -6.9914
    -6.9821  -6.9810  -6.9576  -6.9571  -6.9422  -6.9403  -6.9218  -6.9215
    -6.9176  -6.9150  -6.8622  -6.7918  -6.7909  -6.7846  -6.7768  -6.7753
    -6.6542  -6.6539  -6.6125  -6.5993  -6.5978  -6.5705  -6.5696  -6.5618
    -6.5612  -6.5129  -6.5122  -6.4339  -6.4322  -6.4267  -6.4263  -6.3924
    -6.3914  -6.2897  -6.2888  -6.2753  -6.2746  -6.1879  -6.1878  -6.1850
    -6.1841  -6.0995  -6.0686  -6.0677  -6.0206  -6.0202  -6.0060  -6.0055
    -5.9914  -5.9906  -5.9557  -5.9552  -5.9344  -5.9335  -5.9065  -5.9064
    -5.8909  -5.8896  -5.8818  -5.8815  -5.8318  -5.8312  -5.7670  -5.7667
    -5.7490  -5.7481  -5.7049  -5.7043  -5.6996  -5.6992  -5.6697  -5.6695
    -5.6369  -5.6362  -5.6285  -5.6280  -5.6268  -5.6262  -5.6191  -5.6184
    -5.5270  -5.5269  -5.4869  -5.4864  -5.4738  -5.4731  -5.4610  -5.4602
    -5.4430  -5.4423  -5.4229  -5.4219  -5.4002  -5.3996  -5.3982  -5.3977
    -5.3551  -5.3550  -5.3518  -5.3515  -5.3388  -5.3378  -5.3202  -5.3197
    -5.3032  -5.3027  -5.2235  -5.2229  -5.2061  -5.2057  -5.1977  -5.1974
    -5.1944  -5.1852  -5.1817  -5.1639  -5.1633  -5.1589  -5.1585  -5.1004
    -5.0985  -5.0918  -5.0904  -5.0703  -5.0702  -5.0576  -5.0572  -5.0323
    -5.0315  -4.9942  -4.9933  -4.9766  -4.9758  -4.9722  -4.9719  -4.9617
    -4.9603  -4.9497  -4.9469  -4.9391  -4.9390  -4.9292  -4.9291  -4.8803
    -4.8786  -4.7628  -4.7624  -4.7355  -4.7344  -4.7295  -4.7292  -4.7169
    -4.6938  -4.6569  -4.6462  -4.6288  -4.6242  -4.6109  -4.6072  -4.5965
    -4.5729  -4.5486  -4.5486  -4.5448  -4.5311  -4.2644  -4.2639  -4.2623
    -4.2623

          k =-0.5000 0.0000 0.0000 (200370 PWs)   bands (ev):

   -46.3795 -46.3775 -46.3628 -46.3624 -46.3623 -46.3611 -46.3607 -46.3607
   -46.3526 -46.3502 -46.3497 -46.3493 -46.3488 -46.3414 -46.3371 -46.3308
   -45.8590 -45.8552 -45.8551 -45.8549 -45.8521 -45.8514 -45.8511 -45.8487
   -45.8433 -45.8423 -45.8414 -45.8411 -45.8410 -45.8399 -45.8365 -45.8348
   -45.7081 -45.7055 -45.6980 -45.6966 -45.6962 -45.6921 -45.6906 -45.6901
   -45.6868 -45.6853 -45.6849 -45.6841 -45.6821 -45.6806 -45.6797 -45.6767
   -45.4046 -45.4040 -45.4007 -45.4003 -45.4002 -45.3998 -45.3903 -45.3891
   -45.3887 -45.3882 -45.3878 -45.3777 -45.3716 -45.3672 -45.3655 -45.3505
   -28.9605 -28.7297 -27.4597 -27.2574 -24.7615 -24.7572 -24.7461 -24.7340
   -24.7153 -24.7148 -24.7134 -24.6964 -24.6237 -24.6232 -24.6190 -24.6152
   -24.6146 -24.6080 -24.6028 -24.5931 -24.5388 -24.5350 -24.3762 -24.3749
   -24.3740 -24.3713 -24.3274 -24.3267 -24.2668 -24.2652 -24.2651 -24.2646
   -24.2619 -24.2612 -24.1687 -24.1666 -24.1657 -24.1656 -24.1646 -24.1586
   -24.0453 -24.0436 -24.0426 -24.0392 -24.0366 -24.0349 -24.0333 -24.0293
   -24.0248 -24.0228 -23.9843 -23.9803 -23.4519 -23.4335 -23.4330 -23.4122
   -23.4069 -23.3882 -23.3878 -23.3665 -23.3342 -23.3259 -23.3255 -23.3065
   -23.3039 -23.2992 -23.2988 -23.2748 -18.0124 -16.4324 -14.2404 -12.9859
   -11.3349 -11.2645 -10.8978 -10.7095  -9.7490  -9.2316  -8.5315  -8.1390
    -7.7113  -7.4919  -7.4864  -7.4659  -7.4639  -7.4105  -7.4048  -7.3247
    -7.2734  -7.2461  -7.2370  -7.1980  -7.1973  -7.1959  -7.1818  -7.1657
    -7.1591  -7.1437  -7.1410  -7.1090  -7.1081  -7.1055  -7.1016  -7.0178
    -6.9830  -6.9820  -6.9788  -6.9781  -6.8641  -6.8470  -6.8444  -6.8435
    -6.8363  -6.8246  -6.8227  -6.8221  -6.8216  -6.8209  -6.8162  -6.8113
    -6.8106  -6.8061  -6.7997  -6.7809  -6.7616  -6.7610  -6.7601  -6.7550
    -6.6593  -6.6576  -6.6540  -6.6506  -6.6092  -6.5927  -6.5880  -6.5648
    -6.5605  -6.5309  -6.5265  -6.5152  -6.5147  -6.5117  -6.5056  -6.3358
    -6.3330  -6.3307  -6.3289  -6.2910  -6.2866  -6.2572  -6.2567  -6.2126
    -6.2054  -6.1792  -6.1790  -6.1750  -6.1734  -6.1005  -6.0985  -6.0929
    -6.0890  -6.0820  -6.0629  -6.0548  -6.0359  -6.0307  -6.0229  -6.0192
    -6.0177  -6.0041  -5.9062  -5.9043  -5.8530  -5.8524  -5.8487  -5.8432
    -5.7276  -5.7271  -5.6911  -5.6907  -5.6519  -5.6502  -5.6410  -5.6389
    -5.5997  -5.5989  -5.5963  -5.5955  -5.5906  -5.5881  -5.5598  -5.5583
    -5.5126  -5.5096  -5.5087  -5.5072  -5.5070  -5.5035  -5.4636  -5.4619
    -5.3427  -5.3387  -5.3375  -5.3347  -5.3332  -5.3321  -5.3282  -5.3281
    -5.3273  -5.3245  -5.3027  -5.3022  -5.3000  -5.2983  -5.2196  -5.2063
    -5.2060  -5.2023  -5.1991  -5.1975  -5.1971  -5.1916  -5.1890  -5.1861
    -5.1834  -5.1819  -5.1810  -5.1780  -5.1771  -5.1677  -5.1571  -5.1533
    -5.1477  -5.0941  -5.0925  -5.0915  -5.0890  -5.0889  -5.0857  -5.0346
    -5.0324  -5.0315  -5.0235  -5.0209  -5.0057  -4.9917  -4.9786  -4.9782
    -4.9626  -4.9620  -4.9491  -4.9318  -4.9314  -4.9305  -4.9116  -4.8993
    -4.8980  -4.8004  -4.7773  -4.7309  -4.7219  -4.7091  -4.7046  -4.7042
    -4.6729  -4.6443  -4.6326  -4.6239  -4.6236  -4.6232  -4.6036  -4.6007
    -4.5712  -4.4047  -4.3987  -4.3977  -4.3930  -4.3916  -4.3914  -4.3911
    -4.3870

          k =-0.5000 0.3536 0.0000 (200424 PWs)   bands (ev):

   -46.3793 -46.3777 -46.3626 -46.3623 -46.3621 -46.3614 -46.3609 -46.3608
   -46.3526 -46.3500 -46.3496 -46.3495 -46.3490 -46.3414 -46.3372 -46.3308
   -45.8585 -45.8556 -45.8546 -45.8546 -45.8526 -45.8517 -45.8510 -45.8491
   -45.8431 -45.8421 -45.8416 -45.8412 -45.8411 -45.8401 -45.8364 -45.8350
   -45.7075 -45.7049 -45.7017 -45.6993 -45.6923 -45.6901 -45.6897 -45.6892
   -45.6874 -45.6869 -45.6856 -45.6830 -45.6827 -45.6804 -45.6801 -45.6769
   -45.4045 -45.4041 -45.4006 -45.4003 -45.4003 -45.3999 -45.3903 -45.3890
   -45.3886 -45.3884 -45.3880 -45.3777 -45.3716 -45.3672 -45.3655 -45.3505
   -28.9605 -28.7297 -27.4597 -27.2574 -24.7547 -24.7508 -24.7417 -24.7291
   -24.7219 -24.7208 -24.7186 -24.7023 -24.6224 -24.6221 -24.6176 -24.6162
   -24.6159 -24.6096 -24.6016 -24.5944 -24.5299 -24.5262 -24.4474 -24.4443
   -24.3244 -24.3237 -24.3109 -24.3079 -24.2944 -24.2939 -24.2688 -24.2650
   -24.2297 -24.2289 -24.1738 -24.1727 -24.1621 -24.1570 -24.1349 -24.1290
   -24.0552 -24.0526 -24.0522 -24.0483 -24.0455 -24.0449 -24.0316 -24.0288
   -24.0285 -24.0242 -23.9911 -23.9871 -23.4455 -23.4269 -23.4265 -23.4135
   -23.4058 -23.3949 -23.3945 -23.3728 -23.3303 -23.3220 -23.3216 -23.3106
   -23.3032 -23.3028 -23.3002 -23.2785 -18.0124 -16.4324 -14.2403 -12.9856
   -11.3351 -11.2643 -10.8979 -10.7094  -9.7489  -9.2314  -8.5325  -8.1398
    -7.7113  -7.4188  -7.4173  -7.4006  -7.3952  -7.3639  -7.3582  -7.3247
    -7.2733  -7.2099  -7.2073  -7.1962  -7.1880  -7.1857  -7.1792  -7.1622
    -7.1559  -7.1254  -7.1233  -7.1206  -7.1160  -7.0475  -7.0429  -7.0327
    -7.0308  -7.0270  -7.0258  -7.0171  -6.9823  -6.9815  -6.9691  -6.9660
    -6.9142  -6.9096  -6.9086  -6.9016  -6.9012  -6.8990  -6.8744  -6.8680
    -6.8626  -6.8420  -6.8321  -6.7833  -6.7724  -6.7640  -6.7009  -6.6980
    -6.6616  -6.6587  -6.6565  -6.6556  -6.6245  -6.6195  -6.6081  -6.5399
    -6.5393  -6.5321  -6.5265  -6.4379  -6.4313  -6.4140  -6.4109  -6.3645
    -6.3626  -6.3079  -6.3052  -6.2454  -6.2444  -6.2248  -6.2244  -6.1352
    -6.1313  -6.1021  -6.1009  -6.1000  -6.0964  -6.0885  -6.0827  -6.0771
    -6.0755  -6.0712  -6.0270  -6.0200  -6.0080  -6.0027  -5.9666  -5.9623
    -5.9619  -5.9514  -5.9346  -5.9344  -5.9337  -5.9329  -5.7697  -5.7668
    -5.7175  -5.7155  -5.7084  -5.7076  -5.7049  -5.7036  -5.6642  -5.6617
    -5.6432  -5.6429  -5.6299  -5.6261  -5.5598  -5.5591  -5.5418  -5.5392
    -5.4722  -5.4697  -5.4610  -5.4607  -5.4487  -5.4435  -5.4319  -5.4303
    -5.4122  -5.4112  -5.3670  -5.3654  -5.3610  -5.3603  -5.3597  -5.3499
    -5.3491  -5.3428  -5.3220  -5.3189  -5.3068  -5.3032  -5.2994  -5.2981
    -5.2632  -5.2628  -5.2530  -5.2495  -5.2241  -5.2227  -5.2052  -5.2002
    -5.1927  -5.1887  -5.1837  -5.1642  -5.1629  -5.1418  -5.1387  -5.1273
    -5.1207  -5.0895  -5.0835  -5.0819  -5.0749  -5.0735  -5.0720  -5.0658
    -5.0649  -5.0461  -5.0406  -5.0381  -5.0334  -4.9756  -4.9629  -4.9624
    -4.9524  -4.9452  -4.9450  -4.9352  -4.9308  -4.9194  -4.9167  -4.9057
    -4.8953  -4.7811  -4.7596  -4.7296  -4.7271  -4.7105  -4.7085  -4.7068
    -4.6767  -4.6489  -4.6362  -4.6355  -4.6303  -4.6115  -4.6020  -4.5962
    -4.5700  -4.4025  -4.3969  -4.3969  -4.3938  -4.3921  -4.3918  -4.3908
    -4.3873

          k =-0.5000-0.7071 0.0000 (200236 PWs)   bands (ev):

   -46.3791 -46.3778 -46.3621 -46.3620 -46.3620 -46.3616 -46.3615 -46.3609
   -46.3525 -46.3496 -46.3496 -46.3492 -46.3491 -46.3414 -46.3370 -46.3307
   -45.8574 -45.8566 -45.8538 -45.8536 -45.8534 -45.8529 -45.8505 -45.8497
   -45.8428 -45.8418 -45.8417 -45.8414 -45.8407 -45.8402 -45.8361 -45.8351
   -45.7055 -45.7052 -45.7033 -45.7023 -45.6891 -45.6890 -45.6888 -45.6883
   -45.6881 -45.6875 -45.6859 -45.6844 -45.6815 -45.6806 -45.6798 -45.6768
   -45.4043 -45.4042 -45.4005 -45.4005 -45.4001 -45.4001 -45.3902 -45.3885
   -45.3885 -45.3882 -45.3881 -45.3776 -45.3716 -45.3671 -45.3654 -45.3504
   -28.9605 -28.7297 -27.4597 -27.2574 -24.7386 -24.7380 -24.7357 -24.7355
   -24.7311 -24.7301 -24.7177 -24.7149 -24.6194 -24.6191 -24.6190 -24.6190
   -24.6144 -24.6126 -24.5996 -24.5964 -24.5007 -24.5005 -24.4975 -24.4969
   -24.3144 -24.3138 -24.3137 -24.3134 -24.2805 -24.2803 -24.2772 -24.2766
   -24.1969 -24.1964 -24.1958 -24.1956 -24.1097 -24.1097 -24.1058 -24.1046
   -24.0897 -24.0896 -24.0848 -24.0825 -24.0421 -24.0417 -24.0393 -24.0376
   -24.0086 -24.0084 -24.0056 -24.0031 -23.4320 -23.4271 -23.4110 -23.4110
   -23.4106 -23.4106 -23.3942 -23.3845 -23.3220 -23.3190 -23.3126 -23.3126
   -23.3122 -23.3121 -23.2943 -23.2845 -18.0124 -16.4324 -14.2402 -12.9853
   -11.3350 -11.2641 -10.8979 -10.7091  -9.7487  -9.2310  -8.5330  -8.1404
    -7.7111  -7.3250  -7.2945  -7.2921  -7.2916  -7.2913  -7.2719  -7.2456
    -7.2448  -7.2382  -7.2352  -7.1529  -7.1527  -7.1480  -7.1476  -7.1397
    -7.1390  -7.1363  -7.1352  -7.1191  -7.1189  -7.1177  -7.1171  -7.0873
    -7.0870  -7.0821  -7.0813  -7.0491  -7.0487  -7.0456  -7.0452  -7.0246
    -6.9825  -6.9816  -6.9792  -6.9787  -6.9786  -6.9784  -6.9677  -6.9563
    -6.8623  -6.7894  -6.7892  -6.7883  -6.7871  -6.7853  -6.7852  -6.7843
    -6.7786  -6.7768  -6.6122  -6.6041  -6.6028  -6.5996  -6.5987  -6.5275
    -6.5271  -6.5207  -6.5203  -6.3427  -6.3423  -6.3417  -6.3415  -6.3111
    -6.3105  -6.3056  -6.3040  -6.1579  -6.1571  -6.1568  -6.1567  -6.1330
    -6.1317  -6.1289  -6.1277  -6.0999  -6.0651  -6.0633  -6.0629  -6.0628
    -6.0312  -6.0302  -6.0298  -6.0291  -5.9878  -5.9874  -5.9840  -5.9830
    -5.8598  -5.8598  -5.8551  -5.8546  -5.7461  -5.7457  -5.7444  -5.7440
    -5.7166  -5.7162  -5.7160  -5.7156  -5.7059  -5.7054  -5.7033  -5.7014
    -5.6632  -5.6626  -5.6593  -5.6587  -5.6554  -5.6551  -5.6520  -5.6508
    -5.4491  -5.4489  -5.4472  -5.4462  -5.4346  -5.4342  -5.4323  -5.4318
    -5.4254  -5.4251  -5.4237  -5.4222  -5.4161  -5.4152  -5.4116  -5.4107
    -5.3708  -5.3705  -5.3677  -5.3654  -5.2731  -5.2731  -5.2730  -5.2724
    -5.2620  -5.2615  -5.2608  -5.2601  -5.2036  -5.2027  -5.1977  -5.1946
    -5.1906  -5.1703  -5.1694  -5.1640  -5.1601  -5.1423  -5.1412  -5.1410
    -5.1403  -5.1303  -5.1295  -5.1267  -5.1221  -5.0376  -5.0319  -5.0293
    -5.0292  -5.0283  -5.0268  -5.0155  -5.0121  -5.0015  -4.9999  -4.9953
    -4.9941  -4.9632  -4.9627  -4.9549  -4.9527  -4.9099  -4.9095  -4.8970
    -4.8938  -4.7435  -4.7403  -4.7254  -4.7248  -4.7246  -4.7244  -4.7097
    -4.6823  -4.6516  -4.6384  -4.6377  -4.6317  -4.6070  -4.6005  -4.5927
    -4.5684  -4.3997  -4.3956  -4.3940  -4.3939  -4.3937  -4.3937  -4.3888
    -4.3884

          k =-0.2500 0.3536 0.0000 (200411 PWs)   bands (ev):

   -46.3794 -46.3777 -46.3643 -46.3630 -46.3621 -46.3607 -46.3594 -46.3584
   -46.3528 -46.3527 -46.3519 -46.3480 -46.3474 -46.3415 -46.3371 -46.3308
   -45.8590 -45.8562 -45.8558 -45.8539 -45.8521 -45.8498 -45.8495 -45.8483
   -45.8449 -45.8438 -45.8433 -45.8423 -45.8397 -45.8389 -45.8361 -45.8347
   -45.7086 -45.7029 -45.7024 -45.6974 -45.6941 -45.6928 -45.6902 -45.6881
   -45.6865 -45.6857 -45.6850 -45.6835 -45.6827 -45.6805 -45.6801 -45.6770
   -45.4045 -45.4041 -45.4022 -45.4020 -45.3977 -45.3974 -45.3914 -45.3909
   -45.3901 -45.3870 -45.3864 -45.3778 -45.3715 -45.3671 -45.3657 -45.3505
   -28.9605 -28.7297 -27.4597 -27.2574 -24.7721 -24.7564 -24.7360 -24.7276
   -24.7218 -24.7057 -24.6988 -24.6863 -24.6484 -24.6452 -24.6358 -24.6333
   -24.6066 -24.5937 -24.5922 -24.5796 -24.5534 -24.4884 -24.4664 -24.4142
   -24.3819 -24.3337 -24.3252 -24.2869 -24.2868 -24.2696 -24.2613 -24.2419
   -24.2376 -24.2276 -24.1890 -24.1802 -24.1744 -24.1493 -24.1357 -24.1071
   -24.0756 -24.0624 -24.0557 -24.0502 -24.0490 -24.0417 -24.0328 -24.0238
   -24.0137 -24.0123 -23.9989 -23.9877 -23.4497 -23.4424 -23.4169 -23.4084
   -23.4030 -23.3939 -23.3740 -23.3640 -23.3463 -23.3436 -23.3244 -23.3212
   -23.3053 -23.2939 -23.2885 -23.2741 -18.0124 -16.4324 -14.2403 -12.9856
   -11.3351 -11.2643 -10.8979 -10.7094  -9.7490  -9.2314  -8.5324  -8.1398
    -7.7114  -7.5138  -7.4881  -7.4765  -7.3247  -7.3157  -7.3056  -7.2797
    -7.2742  -7.2715  -7.2632  -7.2581  -7.2391  -7.1738  -7.1461  -7.1301
    -7.1018  -7.0818  -7.0802  -7.0716  -7.0689  -7.0636  -7.0389  -7.0309
    -7.0222  -7.0043  -6.9976  -6.9962  -6.9894  -6.9840  -6.9745  -6.9624
    -6.9253  -6.9239  -6.9002  -6.8780  -6.8688  -6.8658  -6.8610  -6.8580
    -6.8562  -6.8467  -6.7891  -6.7830  -6.7751  -6.7642  -6.7295  -6.7128
    -6.7037  -6.6662  -6.6534  -6.6344  -6.6193  -6.6088  -6.5856  -6.5752
    -6.5597  -6.4849  -6.4757  -6.4744  -6.4672  -6.4608  -6.4529  -6.4427
    -6.4041  -6.3503  -6.3060  -6.2859  -6.2600  -6.2490  -6.2020  -6.1920
    -6.1793  -6.1497  -6.1495  -6.1149  -6.0995  -6.0795  -6.0647  -6.0458
    -6.0336  -6.0208  -6.0016  -5.9968  -5.9836  -5.9598  -5.9584  -5.9543
    -5.9355  -5.9291  -5.9170  -5.8733  -5.8666  -5.8301  -5.7961  -5.7669
    -5.7630  -5.7469  -5.7450  -5.7079  -5.6814  -5.6773  -5.6636  -5.6522
    -5.6499  -5.6431  -5.6180  -5.6030  -5.5901  -5.5867  -5.5605  -5.4993
    -5.4855  -5.4829  -5.4801  -5.4783  -5.4736  -5.4675  -5.4562  -5.4482
    -5.4475  -5.4383  -5.4330  -5.4290  -5.4252  -5.4127  -5.3933  -5.3890
    -5.3417  -5.3405  -5.3286  -5.3211  -5.2928  -5.2866  -5.2863  -5.2747
    -5.2659  -5.2404  -5.2402  -5.2322  -5.2211  -5.2191  -5.2071  -5.1957
    -5.1890  -5.1837  -5.1694  -5.1510  -5.1306  -5.1242  -5.1187  -5.1088
    -5.1042  -5.1025  -5.0974  -5.0837  -5.0803  -5.0445  -5.0293  -5.0278
    -5.0232  -5.0159  -5.0070  -5.0042  -4.9831  -4.9788  -4.9779  -4.9623
    -4.9607  -4.9562  -4.9496  -4.9378  -4.9340  -4.9139  -4.8885  -4.8816
    -4.8802  -4.7824  -4.7639  -4.7452  -4.7397  -4.7360  -4.7214  -4.7107
    -4.6901  -4.6584  -4.6392  -4.6252  -4.6227  -4.6145  -4.6088  -4.5982
    -4.5789  -4.5724  -4.5571  -4.5235  -4.5122  -4.2749  -4.2731  -4.2537
    -4.2521

     highest occupied level (ev):    -4.1931

!    total energy              =   -4345.71231880 Ry
     estimated scf accuracy    <          5.3E-11 Ry

     The total energy is the sum of the following terms:
     one-electron contribution = -103130.32156545 Ry
     hartree contribution      =   51709.06578239 Ry
     xc contribution           =    -998.22511382 Ry
     ewald contribution        =   48073.76857808 Ry

     convergence has been achieved in   8 iterations

     Forces acting on atoms (cartesian axes, Ry/au):

     atom    1 type  1   force =     0.00000174   -0.00000003   -0.00007446
     atom    2 type  1   force =     0.00000466    0.00000111   -0.00025287
     atom    3 type  1   force =     0.00000259   -0.00000003   -0.00025309
     atom    4 type  1   force =    -0.00000281   -0.00000006   -0.00007427
     atom    5 type  2   force =    -0.00000081    0.00000032    0.00033082
     atom    6 type  2   force =    -0.00000038   -0.00000018    0.00012697
     atom    7 type  2   force =    -0.00000005   -0.00000066    0.00012422
     atom    8 type  2   force =    -0.00000106    0.00000025    0.00033623
     atom    9 type  1   force =     0.00000162   -0.00000053   -0.00026686
     atom   10 type  1   force =     0.00000646   -0.00000222   -0.00024089
     atom   11 type  1   force =     0.00000722    0.00000666   -0.00022394
     atom   12 type  1   force =     0.00000109   -0.00000033   -0.00026945
     atom   13 type  2   force =    -0.00000464    0.00000106    0.00018094
     atom   14 type  2   force =    -0.00000469   -0.00000194    0.00003475
     atom   15 type  2   force =     0.00000024    0.00000074    0.00004374
     atom   16 type  2   force =    -0.00000252    0.00000181    0.00013952
     atom   17 type  1   force =     0.00000159   -0.00000159   -0.00013443
     atom   18 type  1   force =     0.00000501    0.00001082    0.00001336
     atom   19 type  1   force =     0.00003448   -0.00002748   -0.00016649
     atom   20 type  1   force =     0.00001293   -0.00000449   -0.00012277
     atom   21 type  2   force =     0.00000608    0.00002349    0.00023685
     atom   22 type  2   force =    -0.00000451    0.00001199    0.00025968
     atom   23 type  2   force =    -0.00001211   -0.00000515    0.00024309
     atom   24 type  2   force =    -0.00004227    0.00001909    0.00040520
     atom   25 type  1   force =    -0.00003818   -0.00000527   -0.00002467
     atom   26 type  1   force =    -0.00008874   -0.00017409   -0.00054982
     atom   27 type  1   force =    -0.00026162    0.00039661    0.00000085
     atom   28 type  1   force =     0.00003934    0.00000384   -0.00003894
     atom   29 type  2   force =     0.00004190    0.00003155    0.00032554
     atom   30 type  2   force =     0.00047713   -0.00005659    0.00007962
     atom   31 type  2   force =    -0.00031126    0.00004405   -0.00000705
     atom   32 type  2   force =     0.00037948    0.00014462    0.00029412
     atom   33 type  1   force =     0.00000168    0.00000021   -0.00007477
     atom   34 type  1   force =     0.00000471   -0.00000084   -0.00025229
     atom   35 type  1   force =     0.00000272    0.00000029   -0.00025268
     atom   36 type  1   force =    -0.00000262    0.00000024   -0.00007443
     atom   37 type  2   force =    -0.00000092   -0.00000012    0.00032431
     atom   38 type  2   force =    -0.00000037    0.00000040    0.00012689
     atom   39 type  2   force =    -0.00000005    0.00000088    0.00012398
     atom   40 type  2   force =    -0.00000117   -0.00000005    0.00033806
     atom   41 type  1   force =     0.00000651    0.00000071   -0.00026638
     atom   42 type  1   force =     0.00000750    0.00000231   -0.00023811
     atom   43 type  1   force =     0.00000762   -0.00000643   -0.00021893
     atom   44 type  1   force =    -0.00000017    0.00000047   -0.00027134
     atom   45 type  2   force =    -0.00000434   -0.00000114    0.00020708
     atom   46 type  2   force =    -0.00000473    0.00000218    0.00003318
     atom   47 type  2   force =     0.00000026   -0.00000055    0.00004334
     atom   48 type  2   force =    -0.00000165   -0.00000182    0.00008042
     atom   49 type  1   force =    -0.00000553    0.00000223   -0.00015749
     atom   50 type  1   force =     0.00000667   -0.00001280    0.00006498
     atom   51 type  1   force =     0.00005022    0.00003588   -0.00014904
     atom   52 type  1   force =     0.00003701    0.00000277   -0.00016395
     atom   53 type  2   force =     0.00002879   -0.00001785   -0.00021730
     atom   54 type  2   force =    -0.00000378   -0.00001071    0.00025990
     atom   55 type  2   force =    -0.00001007    0.00000288    0.00023511
     atom   56 type  2   force =    -0.00001430   -0.00000212    0.00055776
     atom   57 type  1   force =    -0.00075011    0.00010592   -0.00069716
     atom   58 type  1   force =    -0.00005769    0.00019072   -0.00054925
     atom   59 type  1   force =    -0.00023237   -0.00021024    0.00004220
     atom   60 type  1   force =     0.00027406    0.00001150   -0.00010755
     atom   61 type  2   force =     0.00010414   -0.00000532    0.00070611
     atom   62 type  2   force =     0.00040489    0.00025629   -0.00000321
     atom   63 type  2   force =    -0.00030496   -0.00002115   -0.00000335
     atom   64 type  2   force =     0.00029011    0.00046529   -0.00094749
     atom   65 type  1   force =    -0.00000172   -0.00000007   -0.00007486
     atom   66 type  1   force =    -0.00000463    0.00000025   -0.00025395
     atom   67 type  1   force =    -0.00000261    0.00000099   -0.00025386
     atom   68 type  1   force =     0.00000281   -0.00000004   -0.00007507
     atom   69 type  2   force =     0.00000080    0.00000021    0.00033428
     atom   70 type  2   force =     0.00000048   -0.00000127    0.00011780
     atom   71 type  2   force =    -0.00000003   -0.00000079    0.00012063
     atom   72 type  2   force =     0.00000109    0.00000028    0.00032884
     atom   73 type  1   force =    -0.00000162   -0.00000037   -0.00026766
     atom   74 type  1   force =    -0.00000676    0.00000483   -0.00022168
     atom   75 type  1   force =    -0.00000693    0.00000013   -0.00023672
     atom   76 type  1   force =    -0.00000108   -0.00000060   -0.00026496
     atom   77 type  2   force =     0.00000538    0.00000132    0.00012099
     atom   78 type  2   force =     0.00000367   -0.00000255    0.00002470
     atom   79 type  2   force =     0.00000076   -0.00000519    0.00001554
     atom   80 type  2   force =     0.00000178    0.00000081    0.00016225
     atom   81 type  1   force =    -0.00000291   -0.00000559   -0.00012451
     atom   82 type  1   force =    -0.00003444   -0.00001250   -0.00007829
     atom   83 type  1   force =    -0.00000706   -0.00000233    0.00008396
     atom   84 type  1   force =    -0.00001169   -0.00000286   -0.00013237
     atom   85 type  2   force =     0.00001820    0.00001109    0.00031595
     atom   86 type  2   force =     0.00001477   -0.00002920    0.00023175
     atom   87 type  2   force =     0.00000209   -0.00000806    0.00024160
     atom   88 type  2   force =     0.00001479    0.00002065    0.00015576
     atom   89 type  1   force =     0.00008387    0.00001179   -0.00006140
     atom   90 type  1   force =     0.00010597    0.00046728    0.00039397
     atom   91 type  1   force =     0.00023095    0.00009725   -0.00018341
     atom   92 type  1   force =    -0.00008596    0.00001917   -0.00004554
     atom   93 type  2   force =    -0.00011308    0.00008572    0.00021722
     atom   94 type  2   force =    -0.00049118    0.00009559    0.00042268
     atom   95 type  2   force =     0.00027197    0.00017232    0.00060916
     atom   96 type  2   force =    -0.00031118    0.00002796    0.00022120
     atom   97 type  1   force =    -0.00000181    0.00000025   -0.00007489
     atom   98 type  1   force =    -0.00000466    0.00000001   -0.00025363
     atom   99 type  1   force =    -0.00000276   -0.00000072   -0.00025338
     atom  100 type  1   force =     0.00000276    0.00000021   -0.00007527
     atom  101 type  2   force =     0.00000089   -0.00000001    0.00033352
     atom  102 type  2   force =     0.00000047    0.00000149    0.00011752
     atom  103 type  2   force =    -0.00000004    0.00000102    0.00012052
     atom  104 type  2   force =     0.00000120   -0.00000008    0.00032349
     atom  105 type  1   force =    -0.00000418    0.00000054   -0.00026666
     atom  106 type  1   force =    -0.00000788   -0.00000469   -0.00021850
     atom  107 type  1   force =    -0.00000724    0.00000007   -0.00023485
     atom  108 type  1   force =    -0.00000217    0.00000080   -0.00026148
     atom  109 type  2   force =     0.00000501   -0.00000140    0.00008297
     atom  110 type  2   force =     0.00000371    0.00000277    0.00002407
     atom  111 type  2   force =     0.00000076    0.00000546    0.00001352
     atom  112 type  2   force =     0.00000090   -0.00000072    0.00016145
     atom  113 type  1   force =    -0.00001351    0.00000260   -0.00015358
     atom  114 type  1   force =    -0.00004073    0.00001645   -0.00006911
     atom  115 type  1   force =    -0.00001861    0.00000388    0.00009868
     atom  116 type  1   force =    -0.00001742    0.00000202   -0.00015618
     atom  117 type  2   force =    -0.00000870   -0.00000211    0.00030385
     atom  118 type  2   force =     0.00001353    0.00002484    0.00021875
     atom  119 type  2   force =     0.00000053    0.00000700    0.00023784
     atom  120 type  2   force =     0.00000189   -0.00000917   -0.00007520
     atom  121 type  1   force =     0.00048014    0.00005927   -0.00055524
     atom  122 type  1   force =     0.00008189   -0.00025574    0.00030152
     atom  123 type  1   force =     0.00022331   -0.00005954   -0.00018216
     atom  124 type  1   force =    -0.00027110    0.00013311   -0.00079274
     atom  125 type  2   force =    -0.00029926    0.00025711   -0.00060817
     atom  126 type  2   force =    -0.00043451    0.00002681    0.00036168
     atom  127 type  2   force =     0.00029333    0.00011549    0.00044733
     atom  128 type  2   force =    -0.00039967    0.00001497    0.00004994
     atom  129 type  3   force =    -0.00020632    0.00000593   -0.00017715
     atom  130 type  3   force =     0.00038273   -0.00038501   -0.00056797
     atom  131 type  4   force =     0.00019803   -0.00012601    0.00007099
     atom  132 type  4   force =    -0.00015254   -0.00025187    0.00022294
     atom  133 type  4   force =    -0.00031193    0.00031904    0.00023666
     atom  134 type  3   force =    -0.00019033    0.00008207    0.00040539
     atom  135 type  2   force =     0.00029411   -0.00174580    0.00011047
     atom  136 type  4   force =    -0.00019827   -0.00032853    0.00022825
     atom  137 type  3   force =     0.00116943   -0.00008679    0.00034181
     atom  138 type  2   force =     0.00010636   -0.00032914   -0.00094517
     atom  139 type  4   force =     0.00000936    0.00058523    0.00073741
     atom  140 type  2   force =    -0.00010690    0.00037610   -0.00051903
     atom  141 type  2   force =    -0.00009109   -0.00071281   -0.00011983
     atom  142 type  4   force =    -0.00023522    0.00010193    0.00019156

     Total force =     0.004768     Total SCF correction =     0.000017


     Computing stress (Cartesian axis) and pressure

          total   stress  (Ry/bohr**3)                   (kbar)     P=      -51.71
  -0.00029170   0.00000009  -0.00000028          -42.91        0.01       -0.04
   0.00000009  -0.00042939  -0.00000030            0.01      -63.17       -0.04
  -0.00000028  -0.00000030  -0.00033340           -0.04       -0.04      -49.04

     Energy error            =      9.1E-05 Ry
     Gradient error          =      1.7E-03 Ry/Bohr

     number of scf cycles    =   5
     number of bfgs steps    =   4

     energy             old  =   -4345.7122274496 Ry
     energy             new  =   -4345.7123188004 Ry

     CASE: energy            _new < energy            _old

     new trust radius        =       0.0046217593 bohr
     new conv_thr            =            1.0E-10 Ry


ATOMIC_POSITIONS (angstrom)
Li              -0.0000109229       -0.0000003446       15.2264750946
Li               4.3312129651        2.0417213162       16.3557018678
Li               1.4437413107        2.0417167886       16.3556260458
Li               2.8874441101       -0.0000004783       15.2264872633
F                4.3310666689        0.0000002450       16.4337320211
F                0.0000125697        2.0417108902       15.0824369155
F                2.8873905528        2.0417095166       15.0824143621
F                1.4436859910        0.0000000879       16.4338318818
Li               2.8875804317        8.1668547000       17.9589557783
Li               1.4438536376        2.0417296569       19.3065635048
Li               4.3315179521        2.0417803214       19.3070147416
Li              11.5496014022        8.1668555574       17.9588843040
F                1.4435909922        0.0000036217       19.3287835488
F                2.8872703313        2.0416931787       17.9154833862
F                0.0000666837        2.0417032682       17.9155886020
F                4.3308111487        0.0000060296       19.3282238692
Li              11.5492996401        8.1668507591       20.8027866235
Li               4.3329576966        2.0421957120       22.1521973947
Li               1.4443756782        2.0417257495       22.1497114409
Li               2.8881919257        8.1668395232       20.8030955255
F                4.3296119847        0.0000660126       22.1856003650
F               11.5499982653        2.0416732594       20.7741291431
F                2.8867102831        2.0415841986       20.7737187749
F                1.4431208329        0.0000544778       22.1881142556
Li               2.8906175131       -0.0000723030       23.7523556650
Li               1.4446228070        2.0405877632       24.8742643462
Li               4.3376560942        2.0468865842       24.8883552809
Li              11.5479414347       -0.0000009963       23.7514507861
F                1.4427530037        0.0002054918       25.0271839700
F                2.8851559381        2.0407985199       23.6702963382
F                0.0010403559        2.0416744764       23.6712329754
F                4.3270751594        0.0010937467       25.0200056658
Li              -0.0000113026        4.0834277446       15.2264770673
Li               4.3312130412        6.1251338538       16.3557035143
Li               1.4437417592        6.1251383916       16.3556271628
Li               2.8874457831        4.0834278446       15.2264905485
F                4.3310653983        4.0834265717       16.4337024533
F                0.0000125335        6.1251441664       15.0824368893
F                2.8873905424        6.1251455223       15.0824140241
F                1.4436849117        4.0834267526       16.4338285365
Li               2.8876073202        4.0834294453       17.9589903082
Li               1.4438582990        6.1251252514       19.3065733383
Li               4.3315187629        6.1250750248       19.3070311052
Li              11.5495942953        4.0834285307       17.9589012825
F                1.4435820261        4.0834228716       19.3288132891
F                2.8872700778        6.1251621641       17.9154778955
F                0.0000665636        6.1251520175       17.9155868580
F                4.3307991334        4.0834208834       19.3279420349
Li              -0.0004553449        4.0834338378       20.8028392365
Li               4.3329652241        6.1246269514       22.1524031367
Li               1.4444386620        6.1251424694       22.1497856536
Li               2.8884538942        4.0834404969       20.8032585098
F                4.3295451330        4.0833212873       22.1829721801
F               11.5499975691        6.1251832329       20.7741234108
F                2.8867116539        6.1252649379       20.7736807161
F                1.4430343020        4.0834014971       22.1886489739
Li               2.8914618041        4.0837878294       23.7515018732
Li               1.4447299669        6.1264438407       24.8742929190
Li               4.3380637051        6.1214474712       24.8890941023
Li              -0.0022388366        4.0834737930       23.7513003963
F                1.4430318096        4.0834940207       25.0316013673
F                2.8848434753        6.1266567265       23.6699910070
F               11.5507182777        6.1252557834       23.6712067517
F                4.3188878015        4.0879729162       25.0008043356
Li               5.7748489821       -0.0000004842       15.2265196240
Li              10.1058822791        2.0417179206       16.3556601745
Li               7.2185157751        2.0417214032       16.3557354950
Li               8.6622321040       -0.0000003713       15.2265073099
F               10.1060285280       -0.0000000838       16.4337845050
F                5.7748257437        2.0417076392       15.0823545496
F                8.6622855045        2.0417090384       15.0823767179
F                7.2185712621        8.1668569929       16.4336847819
Li               8.6620963104        8.1668554571       17.9590824658
Li               7.2184031011        2.0417789530       19.3072156462
Li              10.1055775222        2.0417431718       19.3067747936
Li               5.7749122529        8.1668545713       17.9591541545
F                7.2186669472        0.0000041519       19.3279496321
F                8.6624027200        2.0416895738       17.9152988880
F                5.7747743259        2.0416796625       17.9151928999
F               10.1062831435        8.1668590292       19.3285034344
Li               5.7752011980        8.1668373247       20.8039856019
Li              10.1040881938        2.0418828082       22.1509879518
Li               7.2179263076        2.0421825742       22.1533259198
Li               8.6614975388        8.1668482761       20.8036837624
F               10.1075306481        0.0000240313       22.1867353428
F                5.7745573604        2.0414524389       20.7725246136
F                8.6629248682        2.0415510024       20.7729398295
F                7.2190820647        0.0000502186       22.1843151724
Li               8.6593644625        8.1668746041       23.7548861361
Li               7.2166839473        2.0480157890       24.8945935132
Li              10.1004742712        2.0435521375       24.8822521300
Li               5.7762627630       -0.0000483709       23.7559573683
F                7.2197460956        0.0006417620       25.0160233207
F                8.6640801252        2.0407025697       23.6677272278
F                5.7740892230        2.0404114966       23.6666494268
F               10.1097554360        0.0001878116       25.0224888534
Li               5.7748489255        4.0834278492       15.2265246424
Li              10.1058822547        6.1251372774       16.3556609593
Li               7.2185152794        6.1251337795       16.3557367812
Li               8.6622308494        4.0834277310       15.2265110558
F               10.1060297373        4.0834269381       16.4337734428
F                5.7748257485        6.1251474104       15.0823540556
F                8.6622854983        6.1251460646       15.0823766870
F                7.2185722000        4.0834267287       16.4336559828
Li               8.6620774185        4.0834286480       17.9591236319
Li               7.2183981828        6.1250761506       19.3072263857
Li              10.1055769581        6.1251118896       19.3067804200
Li               5.7749113825        4.0834295988       17.9592129379
F                7.2186761002        4.0834226038       19.3277007634
F                8.6624030260        6.1251657382       17.9152970672
F                5.7747745103        6.1251757590       17.9151867823
F               10.1062944646        4.0834246272       19.3284319934
Li               5.7751811316        4.0834406809       20.8043720089
Li              10.1040775079        6.1249759493       22.1510162692
Li               7.2178650653        6.1246557502       22.1534022164
Li               8.6613355885        4.0834336870       20.8039442895
F               10.1076479624        4.0834144214       22.1862659735
F                5.7745570713        6.1253923995       20.7724761664
F                8.6629247003        6.1253007728       20.7729304524
F                7.2191501931        4.0833648739       22.1822924013
Li               8.6586812498        4.0835783086       23.7564158541
Li               7.2163686511        6.1204299618       24.8938958017
Li              10.1005766510        6.1236186241       24.8822574171
Li               5.7759942830        4.0838390271       23.7580384663
F                7.2209010632        4.0859111389       25.0029252691
F                8.6642849136        6.1265015632       23.6675929469
F                5.7742338959        6.1272542404       23.6660731724
F               10.1123373081        4.0836499183       25.0197558421
C                3.7951793024        4.0097131414       29.4481127101
C                5.1563624918        4.1988565834       28.8083164541
H                3.0238529033        4.2014439934       28.6938466695
H                3.6893965655        2.9823909339       29.8142777957
H                3.6653022654        4.7067757229       30.2835004137
C                6.3327201789        3.9740694848       29.7625621724
F                5.2629339499        3.3378749605       27.7369837686
H                6.2427186220        2.9611354783       30.1774583681
C                7.7487799252        4.1104297424       29.2161883920
F                5.2210726982        5.4831398702       28.2877542190
H                6.2338200874        4.6798330146       30.5977086557
F                7.9803037211        5.3639998599       28.7040754689
F                8.0041716270        3.2005389241       28.2234936662
H                8.4957316931        3.9421343464       30.0109611796



     Writing config-only to output data dir ./tmp/LiF_PVDF/LiF_PVDF.save/ :
     XML data file
     NEW-OLD atomic charge density approx. for the potential

     total cpu time spent up to now is     2243.0 secs

     per-process dynamical memory:   151.3 Mb

     Self-consistent Calculation

     iteration #  1     ecut=    60.00 Ry     beta= 0.30
     Davidson diagonalization with overlap
     ethr =  1.00E-06,  avg # of iterations =  3.0

     Threshold (ethr) on eigenvalues was too large:
     Diagonalizing with lowered threshold

     Davidson diagonalization with overlap
     ethr =  7.31E-10,  avg # of iterations =  5.0

     total cpu time spent up to now is     2326.7 secs

     total energy              =   -4345.71234478 Ry
     estimated scf accuracy    <       0.00000593 Ry

     iteration #  2     ecut=    60.00 Ry     beta= 0.30
     Davidson diagonalization with overlap
     ethr =  8.59E-10,  avg # of iterations =  2.0

     total cpu time spent up to now is     2356.5 secs

     total energy              =   -4345.71234436 Ry
     estimated scf accuracy    <       0.00000209 Ry

     iteration #  3     ecut=    60.00 Ry     beta= 0.30
     Davidson diagonalization with overlap
     ethr =  3.03E-10,  avg # of iterations =  3.0

     total cpu time spent up to now is     2389.0 secs

     total energy              =   -4345.71234460 Ry
     estimated scf accuracy    <       0.00000013 Ry

     iteration #  4     ecut=    60.00 Ry     beta= 0.30
     Davidson diagonalization with overlap
     ethr =  1.94E-11,  avg # of iterations =  4.0

     total cpu time spent up to now is     2421.3 secs

     total energy              =   -4345.71234462 Ry
     estimated scf accuracy    <       0.00000001 Ry

     iteration #  5     ecut=    60.00 Ry     beta= 0.30
     Davidson diagonalization with overlap
     ethr =  1.56E-12,  avg # of iterations =  3.7

     total cpu time spent up to now is     2452.4 secs

     total energy              =   -4345.71234463 Ry
     estimated scf accuracy    <          2.5E-09 Ry

     iteration #  6     ecut=    60.00 Ry     beta= 0.30
     Davidson diagonalization with overlap
     ethr =  3.55E-13,  avg # of iterations =  2.0

     total cpu time spent up to now is     2483.5 secs

     total energy              =   -4345.71234463 Ry
     estimated scf accuracy    <          2.1E-10 Ry

     iteration #  7     ecut=    60.00 Ry     beta= 0.30
     Davidson diagonalization with overlap
     ethr =  1.00E-13,  avg # of iterations =  2.0

     total cpu time spent up to now is     2512.6 secs

     End of self-consistent calculation

          k = 0.0000 0.0000 0.0000 (200173 PWs)   bands (ev):

   -46.3776 -46.3754 -46.3634 -46.3627 -46.3612 -46.3610 -46.3568 -46.3541
   -46.3541 -46.3530 -46.3530 -46.3455 -46.3449 -46.3443 -46.3426 -46.3351
   -45.8607 -45.8567 -45.8564 -45.8526 -45.8503 -45.8479 -45.8478 -45.8469
   -45.8460 -45.8450 -45.8448 -45.8438 -45.8381 -45.8366 -45.8366 -45.8348
   -45.7102 -45.6993 -45.6991 -45.6988 -45.6972 -45.6915 -45.6913 -45.6890
   -45.6876 -45.6852 -45.6845 -45.6830 -45.6828 -45.6799 -45.6795 -45.6764
   -45.4060 -45.4049 -45.4016 -45.4008 -45.3930 -45.3930 -45.3925 -45.3925
   -45.3902 -45.3852 -45.3837 -45.3784 -45.3721 -45.3678 -45.3673 -45.3522
   -28.9652 -28.7347 -27.4657 -27.2643 -24.7867 -24.7691 -24.7328 -24.7267
   -24.6886 -24.6878 -24.6753 -24.6721 -24.6686 -24.6686 -24.6617 -24.6570
   -24.6033 -24.5916 -24.5818 -24.5716 -24.5706 -24.4448 -24.4447 -24.3966
   -24.3952 -24.3201 -24.3199 -24.3184 -24.3183 -24.2902 -24.2420 -24.2400
   -24.2201 -24.2184 -24.1997 -24.1995 -24.1898 -24.1896 -24.1045 -24.1044
   -24.1044 -24.1034 -24.0513 -24.0353 -24.0326 -24.0283 -24.0158 -24.0153
   -24.0053 -24.0032 -23.9937 -23.9914 -23.4596 -23.4528 -23.4119 -23.4039
   -23.3807 -23.3779 -23.3779 -23.3722 -23.3449 -23.3419 -23.3419 -23.3350
   -23.3006 -23.2959 -23.2779 -23.2720 -18.0126 -16.4319 -14.2444 -12.9901
   -11.3398 -11.2680 -10.9032 -10.7111  -9.7523  -9.2349  -8.5371  -8.1414
    -7.7153  -7.6118  -7.5920  -7.5902  -7.3589  -7.3535  -7.3499  -7.3293
    -7.3075  -7.3049  -7.2761  -7.1522  -7.1513  -7.1472  -7.1468  -7.1341
    -7.1341  -7.1316  -7.1302  -7.0267  -7.0023  -7.0020  -6.9982  -6.9970
    -6.9906  -6.9864  -6.9406  -6.9381  -6.9267  -6.9204  -6.9184  -6.9044
    -6.9040  -6.8693  -6.8572  -6.8539  -6.8265  -6.8260  -6.7879  -6.7666
    -6.7660  -6.7634  -6.7623  -6.7619  -6.7565  -6.7512  -6.7491  -6.7093
    -6.6961  -6.6960  -6.6931  -6.6907  -6.6161  -6.5966  -6.5963  -6.5436
    -6.5430  -6.5429  -6.5425  -6.5125  -6.5081  -6.5070  -6.5029  -6.4994
    -6.3940  -6.2686  -6.2671  -6.2660  -6.2659  -6.2568  -6.2206  -6.2181
    -6.2062  -6.2052  -6.2017  -6.2016  -6.2007  -6.1988  -6.1968  -6.1902
    -6.1013  -6.0576  -6.0575  -6.0126  -6.0033  -6.0013  -5.9802  -5.9773
    -5.9083  -5.8983  -5.8476  -5.8050  -5.8048  -5.8030  -5.8029  -5.8025
    -5.8022  -5.8016  -5.8011  -5.7301  -5.7167  -5.7106  -5.7101  -5.7060
    -5.7050  -5.5780  -5.5528  -5.5526  -5.5262  -5.5258  -5.5255  -5.5234
    -5.5225  -5.5213  -5.5211  -5.5103  -5.5101  -5.4993  -5.4989  -5.4926
    -5.4918  -5.4385  -5.4381  -5.4062  -5.4051  -5.3390  -5.2916  -5.2885
    -5.2645  -5.2633  -5.2630  -5.2574  -5.2520  -5.2486  -5.2442  -5.2424
    -5.2419  -5.2411  -5.2367  -5.2359  -5.2127  -5.2114  -5.2095  -5.2066
    -5.1891  -5.1745  -5.1744  -5.1726  -5.1578  -5.1575  -5.1564  -5.1562
    -5.1386  -5.0706  -5.0701  -5.0663  -5.0651  -5.0645  -5.0626  -5.0209
    -5.0190  -5.0011  -4.9908  -4.9657  -4.9657  -4.9647  -4.9502  -4.9173
    -4.9080  -4.8936  -4.8921  -4.8895  -4.8879  -4.8859  -4.8499  -4.8482
    -4.8442  -4.8318  -4.8282  -4.8250  -4.8250  -4.8212  -4.7397  -4.7043
    -4.7018  -4.6756  -4.6664  -4.6403  -4.6364  -4.6249  -4.6088  -4.6065
    -4.5889  -4.5801  -4.5801  -4.5639  -4.5581  -4.2366  -4.2291  -4.1971
    -4.1910

          k = 0.0000 0.3536 0.0000 (200366 PWs)   bands (ev):

   -46.3774 -46.3756 -46.3631 -46.3627 -46.3616 -46.3612 -46.3568 -46.3541
   -46.3541 -46.3532 -46.3531 -46.3453 -46.3450 -46.3448 -46.3426 -46.3353
   -45.8602 -45.8572 -45.8559 -45.8533 -45.8501 -45.8482 -45.8475 -45.8467
   -45.8458 -45.8453 -45.8452 -45.8441 -45.8378 -45.8372 -45.8365 -45.8352
   -45.7094 -45.7033 -45.6985 -45.6981 -45.6942 -45.6938 -45.6925 -45.6868
   -45.6861 -45.6854 -45.6843 -45.6834 -45.6831 -45.6805 -45.6800 -45.6768
   -45.4060 -45.4050 -45.4014 -45.4010 -45.3931 -45.3931 -45.3926 -45.3926
   -45.3903 -45.3849 -45.3843 -45.3784 -45.3722 -45.3678 -45.3674 -45.3524
   -28.9652 -28.7347 -27.4658 -27.2643 -24.7786 -24.7636 -24.7403 -24.7337
   -24.6855 -24.6849 -24.6737 -24.6713 -24.6712 -24.6703 -24.6639 -24.6595
   -24.6002 -24.5888 -24.5850 -24.5738 -24.5617 -24.4730 -24.4379 -24.4378
   -24.3748 -24.3748 -24.3303 -24.2936 -24.2622 -24.2622 -24.2388 -24.2368
   -24.2233 -24.2217 -24.2052 -24.2049 -24.1794 -24.1549 -24.1072 -24.1066
   -24.0787 -24.0781 -24.0664 -24.0563 -24.0473 -24.0457 -24.0160 -24.0144
   -24.0127 -24.0119 -23.9969 -23.9954 -23.4527 -23.4457 -23.4189 -23.4111
   -23.3755 -23.3727 -23.3727 -23.3669 -23.3502 -23.3473 -23.3473 -23.3405
   -23.2973 -23.2925 -23.2813 -23.2755 -18.0126 -16.4320 -14.2444 -12.9900
   -11.3400 -11.2679 -10.9035 -10.7111  -9.7524  -9.2348  -8.5380  -8.1423
    -7.7153  -7.5416  -7.5394  -7.5037  -7.3550  -7.3491  -7.3296  -7.2941
    -7.2914  -7.2852  -7.2755  -7.1554  -7.1489  -7.1483  -7.1255  -7.1252
    -7.1229  -7.1214  -7.0941  -7.0748  -7.0722  -7.0507  -7.0495  -7.0245
    -6.9832  -6.9685  -6.9677  -6.9653  -6.9638  -6.9618  -6.9605  -6.9247
    -6.9240  -6.9105  -6.9006  -6.9003  -6.8919  -6.8686  -6.8575  -6.8329
    -6.8325  -6.7897  -6.7869  -6.7854  -6.7688  -6.7487  -6.7483  -6.7095
    -6.7079  -6.6676  -6.6624  -6.6169  -6.6056  -6.5887  -6.5883  -6.5854
    -6.5840  -6.5297  -6.5289  -6.5227  -6.5224  -6.4706  -6.4640  -6.4479
    -6.4446  -6.4439  -6.2984  -6.2978  -6.2851  -6.2844  -6.2419  -6.1695
    -6.1683  -6.1437  -6.1066  -6.1012  -6.0976  -6.0701  -6.0700  -6.0602
    -6.0547  -6.0357  -6.0349  -5.9806  -5.9518  -5.9324  -5.9322  -5.8779
    -5.8734  -5.8654  -5.8649  -5.8309  -5.8060  -5.8057  -5.7915  -5.7907
    -5.7881  -5.7876  -5.7549  -5.7386  -5.7174  -5.7159  -5.6718  -5.6714
    -5.6589  -5.5665  -5.5662  -5.5627  -5.5621  -5.5597  -5.5511  -5.5508
    -5.5418  -5.5416  -5.5226  -5.5218  -5.5212  -5.4899  -5.4890  -5.4885
    -5.4599  -5.4553  -5.4550  -5.4449  -5.4435  -5.4321  -5.4305  -5.4112
    -5.3936  -5.3927  -5.3408  -5.2650  -5.2648  -5.2495  -5.2491  -5.2488
    -5.2485  -5.2396  -5.2358  -5.2349  -5.1961  -5.1906  -5.1871  -5.1854
    -5.1823  -5.1795  -5.1792  -5.1773  -5.1711  -5.1408  -5.1397  -5.0955
    -5.0789  -5.0781  -5.0520  -5.0506  -5.0500  -5.0426  -5.0396  -5.0267
    -5.0130  -4.9972  -4.9962  -4.9922  -4.9725  -4.9658  -4.9644  -4.9591
    -4.9539  -4.9453  -4.8947  -4.8761  -4.8688  -4.8654  -4.8652  -4.8645
    -4.8629  -4.8372  -4.8344  -4.7969  -4.7949  -4.7702  -4.7400  -4.7148
    -4.7093  -4.6699  -4.6613  -4.6315  -4.6258  -4.6231  -4.6112  -4.6060
    -4.5943  -4.5942  -4.5921  -4.5758  -4.5647  -4.2307  -4.2233  -4.2026
    -4.1965

          k = 0.0000-0.7071 0.0000 (200506 PWs)   bands (ev):

   -46.3773 -46.3759 -46.3626 -46.3625 -46.3624 -46.3615 -46.3569 -46.3537
   -46.3537 -46.3537 -46.3536 -46.3451 -46.3451 -46.3450 -46.3427 -46.3353
   -45.8591 -45.8583 -45.8549 -45.8547 -45.8495 -45.8488 -45.8466 -45.8463
   -45.8462 -45.8459 -45.8455 -45.8446 -45.8377 -45.8373 -45.8364 -45.8354
   -45.7073 -45.7069 -45.6970 -45.6967 -45.6965 -45.6961 -45.6890 -45.6887
   -45.6847 -45.6843 -45.6842 -45.6838 -45.6828 -45.6817 -45.6803 -45.6770
   -45.4060 -45.4051 -45.4013 -45.4013 -45.3929 -45.3929 -45.3929 -45.3929
   -45.3903 -45.3846 -45.3846 -45.3785 -45.3723 -45.3679 -45.3675 -45.3524
   -28.9652 -28.7347 -27.4658 -27.2643 -24.7594 -24.7590 -24.7503 -24.7485
   -24.6784 -24.6781 -24.6780 -24.6778 -24.6700 -24.6681 -24.6665 -24.6639
   -24.5927 -24.5926 -24.5828 -24.5799 -24.5305 -24.5302 -24.4155 -24.4155
   -24.4152 -24.4151 -24.3037 -24.3034 -24.2314 -24.2309 -24.2299 -24.2296
   -24.2235 -24.2232 -24.2230 -24.2226 -24.1170 -24.1169 -24.1062 -24.1061
   -24.0816 -24.0813 -24.0811 -24.0801 -24.0442 -24.0441 -24.0438 -24.0427
   -24.0048 -24.0048 -24.0048 -24.0031 -23.4375 -23.4342 -23.4285 -23.4285
   -23.3634 -23.3625 -23.3600 -23.3600 -23.3600 -23.3600 -23.3554 -23.3520
   -23.2893 -23.2893 -23.2846 -23.2835 -18.0126 -16.4320 -14.2444 -12.9898
   -11.3402 -11.2679 -10.9037 -10.7111  -9.7524  -9.2346  -8.5388  -8.1431
    -7.7153  -7.4174  -7.4171  -7.4139  -7.4124  -7.3300  -7.2778  -7.2542
    -7.2532  -7.2529  -7.2522  -7.2146  -7.2143  -7.1403  -7.1402  -7.0964
    -7.0949  -7.0945  -7.0939  -7.0628  -7.0626  -7.0621  -7.0614  -7.0546
    -7.0533  -7.0532  -7.0531  -7.0494  -7.0456  -7.0254  -7.0076  -6.9966
    -6.9267  -6.9265  -6.9261  -6.9257  -6.8725  -6.8682  -6.8679  -6.8675
    -6.8651  -6.8205  -6.8196  -6.8191  -6.8182  -6.7900  -6.7765  -6.7757
    -6.6298  -6.6280  -6.6275  -6.6271  -6.6159  -6.5990  -6.5990  -6.5919
    -6.5900  -6.5598  -6.5594  -6.5592  -6.5586  -6.3834  -6.3831  -6.3830
    -6.3826  -6.3313  -6.3310  -6.3309  -6.3303  -6.2868  -6.2859  -6.1029
    -6.0453  -6.0449  -6.0424  -6.0418  -6.0086  -6.0085  -6.0081  -6.0077
    -5.9660  -5.9657  -5.9636  -5.9630  -5.9433  -5.9423  -5.9280  -5.9280
    -5.9277  -5.9276  -5.8159  -5.8152  -5.7879  -5.7862  -5.7818  -5.7809
    -5.7674  -5.7672  -5.7670  -5.7668  -5.6506  -5.6505  -5.6502  -5.6500
    -5.6252  -5.6240  -5.5965  -5.5954  -5.5680  -5.5679  -5.5678  -5.5675
    -5.5412  -5.5406  -5.5404  -5.5400  -5.5049  -5.5044  -5.4976  -5.4976
    -5.4975  -5.4972  -5.4489  -5.4485  -5.4484  -5.4479  -5.3912  -5.3910
    -5.3906  -5.3905  -5.3784  -5.3782  -5.3780  -5.3777  -5.2625  -5.2624
    -5.2595  -5.2587  -5.2583  -5.2575  -5.2273  -5.2268  -5.2264  -5.2258
    -5.1936  -5.1656  -5.1653  -5.1522  -5.1519  -5.0905  -5.0873  -5.0815
    -5.0811  -5.0751  -5.0751  -5.0726  -5.0716  -5.0316  -5.0305  -5.0296
    -5.0294  -5.0238  -5.0225  -5.0206  -5.0190  -4.9546  -4.9537  -4.9522
    -4.9519  -4.9079  -4.9075  -4.8994  -4.8986  -4.8382  -4.8373  -4.8364
    -4.8338  -4.8098  -4.8088  -4.8084  -4.8066  -4.7392  -4.7354  -4.7319
    -4.7241  -4.6429  -4.6415  -4.6362  -4.6296  -4.6215  -4.6212  -4.6116
    -4.6092  -4.6091  -4.5958  -4.5910  -4.5696  -4.2201  -4.2143  -4.2104
    -4.2103

          k = 0.2500 0.0000 0.0000 (200254 PWs)   bands (ev):

   -46.3775 -46.3754 -46.3631 -46.3626 -46.3612 -46.3606 -46.3576 -46.3564
   -46.3562 -46.3508 -46.3498 -46.3461 -46.3452 -46.3448 -46.3427 -46.3353
   -45.8603 -45.8563 -45.8558 -45.8523 -45.8521 -45.8500 -45.8488 -45.8479
   -45.8453 -45.8435 -45.8429 -45.8420 -45.8387 -45.8375 -45.8369 -45.8352
   -45.7094 -45.7029 -45.6987 -45.6970 -45.6944 -45.6943 -45.6909 -45.6884
   -45.6866 -45.6858 -45.6848 -45.6838 -45.6822 -45.6802 -45.6796 -45.6765
   -45.4060 -45.4049 -45.4008 -45.4002 -45.3963 -45.3958 -45.3904 -45.3900
   -45.3893 -45.3857 -45.3846 -45.3782 -45.3724 -45.3676 -45.3674 -45.3524
   -28.9652 -28.7347 -27.4658 -27.2643 -24.7796 -24.7624 -24.7280 -24.7264
   -24.7224 -24.7101 -24.6933 -24.6835 -24.6486 -24.6437 -24.6370 -24.6345
   -24.6084 -24.5962 -24.5902 -24.5785 -24.5624 -24.4961 -24.3908 -24.3895
   -24.3867 -24.3494 -24.3479 -24.2903 -24.2886 -24.2832 -24.2692 -24.2480
   -24.2461 -24.2330 -24.1835 -24.1834 -24.1820 -24.1725 -24.1375 -24.1365
   -24.0709 -24.0709 -24.0476 -24.0350 -24.0320 -24.0280 -24.0227 -24.0221
   -24.0200 -24.0093 -23.9901 -23.9827 -23.4559 -23.4472 -23.4095 -23.4068
   -23.4018 -23.3992 -23.3659 -23.3606 -23.3497 -23.3486 -23.3187 -23.3177
   -23.3066 -23.3006 -23.2829 -23.2755 -18.0126 -16.4319 -14.2444 -12.9902
   -11.3398 -11.2681 -10.9032 -10.7112  -9.7524  -9.2349  -8.5372  -8.1415
    -7.7152  -7.5803  -7.5635  -7.5362  -7.3424  -7.3297  -7.3221  -7.3177
    -7.3119  -7.3117  -7.2805  -7.2724  -7.2563  -7.2165  -7.1404  -7.1394
    -7.1099  -7.0944  -7.0944  -7.0566  -7.0536  -7.0337  -7.0254  -7.0249
    -6.9873  -6.9795  -6.9581  -6.9167  -6.9147  -6.9057  -6.8805  -6.8803
    -6.8785  -6.8779  -6.8687  -6.8446  -6.8421  -6.8115  -6.7956  -6.7935
    -6.7877  -6.7771  -6.7740  -6.7600  -6.7581  -6.7560  -6.7390  -6.7373
    -6.7334  -6.7020  -6.6879  -6.6394  -6.6374  -6.6154  -6.5741  -6.5733
    -6.5311  -6.5024  -6.4992  -6.4978  -6.4552  -6.4435  -6.4364  -6.4073
    -6.3734  -6.3712  -6.3408  -6.3394  -6.3377  -6.2950  -6.2685  -6.2667
    -6.2535  -6.1871  -6.1761  -6.1505  -6.1397  -6.1228  -6.1224  -6.1208
    -6.1009  -6.0691  -6.0308  -6.0289  -6.0116  -6.0089  -5.9789  -5.9742
    -5.9502  -5.9400  -5.9043  -5.9021  -5.8856  -5.8665  -5.7848  -5.7723
    -5.7601  -5.7499  -5.7136  -5.7071  -5.7016  -5.6856  -5.6805  -5.6645
    -5.6642  -5.6463  -5.6002  -5.6000  -5.5998  -5.5823  -5.5517  -5.5513
    -5.5233  -5.5160  -5.5032  -5.4943  -5.4308  -5.4256  -5.4250  -5.4142
    -5.4091  -5.4088  -5.4072  -5.3766  -5.3700  -5.3684  -5.3658  -5.3324
    -5.3259  -5.2667  -5.2663  -5.2466  -5.2461  -5.2460  -5.2435  -5.2433
    -5.2377  -5.2348  -5.2343  -5.2115  -5.2096  -5.2063  -5.2048  -5.1952
    -5.1924  -5.1914  -5.1850  -5.1607  -5.1595  -5.1534  -5.1473  -5.1438
    -5.1323  -5.1065  -5.1055  -5.0663  -5.0655  -5.0625  -5.0609  -5.0576
    -5.0555  -5.0043  -4.9934  -4.9802  -4.9784  -4.9756  -4.9670  -4.9613
    -4.9504  -4.9258  -4.9205  -4.9201  -4.9184  -4.9158  -4.9027  -4.8963
    -4.8599  -4.8143  -4.7761  -4.7453  -4.7447  -4.7381  -4.7239  -4.7000
    -4.6882  -4.6580  -4.6350  -4.6321  -4.6223  -4.6083  -4.6078  -4.5993
    -4.5890  -4.5763  -4.5610  -4.5116  -4.5052  -4.2809  -4.2743  -4.2521
    -4.2466

          k = 0.2500 0.3536 0.0000 (200411 PWs)   bands (ev):

   -46.3773 -46.3756 -46.3630 -46.3623 -46.3614 -46.3611 -46.3574 -46.3565
   -46.3564 -46.3507 -46.3500 -46.3460 -46.3454 -46.3449 -46.3427 -46.3354
   -45.8598 -45.8570 -45.8553 -45.8529 -45.8518 -45.8498 -45.8492 -45.8483
   -45.8451 -45.8435 -45.8431 -45.8422 -45.8385 -45.8377 -45.8368 -45.8354
   -45.7087 -45.7029 -45.7022 -45.6973 -45.6940 -45.6929 -45.6901 -45.6881
   -45.6865 -45.6858 -45.6850 -45.6834 -45.6827 -45.6804 -45.6800 -45.6767
   -45.4059 -45.4050 -45.4008 -45.4005 -45.3962 -45.3959 -45.3905 -45.3900
   -45.3894 -45.3855 -45.3849 -45.3783 -45.3724 -45.3676 -45.3675 -45.3524
   -28.9652 -28.7347 -27.4658 -27.2643 -24.7718 -24.7572 -24.7352 -24.7290
   -24.7213 -24.7067 -24.6979 -24.6879 -24.6478 -24.6443 -24.6371 -24.6347
   -24.6057 -24.5938 -24.5928 -24.5811 -24.5530 -24.4880 -24.4659 -24.4137
   -24.3814 -24.3332 -24.3247 -24.2866 -24.2863 -24.2691 -24.2608 -24.2414
   -24.2373 -24.2271 -24.1885 -24.1797 -24.1744 -24.1494 -24.1356 -24.1072
   -24.0756 -24.0625 -24.0557 -24.0503 -24.0487 -24.0417 -24.0329 -24.0236
   -24.0136 -24.0125 -23.9988 -23.9878 -23.4492 -23.4403 -23.4161 -23.4063
   -23.4009 -23.3961 -23.3719 -23.3667 -23.3453 -23.3441 -23.3233 -23.3223
   -23.3031 -23.2970 -23.2864 -23.2792 -18.0126 -16.4320 -14.2444 -12.9900
   -11.3401 -11.2680 -10.9034 -10.7111  -9.7524  -9.2347  -8.5381  -8.1424
    -7.7152  -7.5137  -7.4881  -7.4763  -7.3300  -7.3151  -7.3070  -7.2817
    -7.2740  -7.2730  -7.2635  -7.2583  -7.2394  -7.1738  -7.1459  -7.1296
    -7.1014  -7.0817  -7.0801  -7.0710  -7.0690  -7.0642  -7.0386  -7.0312
    -7.0258  -7.0038  -6.9973  -6.9962  -6.9899  -6.9840  -6.9747  -6.9624
    -6.9249  -6.9242  -6.9003  -6.8787  -6.8701  -6.8678  -6.8626  -6.8579
    -6.8563  -6.8465  -6.7902  -6.7877  -6.7754  -6.7647  -6.7296  -6.7126
    -6.7039  -6.6658  -6.6538  -6.6349  -6.6200  -6.6145  -6.5857  -6.5753
    -6.5596  -6.4845  -6.4760  -6.4742  -6.4679  -6.4608  -6.4528  -6.4428
    -6.4041  -6.3502  -6.3064  -6.2858  -6.2600  -6.2489  -6.2019  -6.1918
    -6.1792  -6.1495  -6.1494  -6.1146  -6.1022  -6.0797  -6.0646  -6.0456
    -6.0336  -6.0209  -6.0016  -5.9966  -5.9835  -5.9598  -5.9582  -5.9542
    -5.9356  -5.9294  -5.9168  -5.8730  -5.8668  -5.8301  -5.7965  -5.7667
    -5.7633  -5.7463  -5.7451  -5.7076  -5.6815  -5.6772  -5.6636  -5.6521
    -5.6496  -5.6430  -5.6178  -5.6028  -5.5897  -5.5865  -5.5601  -5.4992
    -5.4854  -5.4829  -5.4800  -5.4782  -5.4735  -5.4675  -5.4562  -5.4481
    -5.4473  -5.4381  -5.4328  -5.4287  -5.4253  -5.4125  -5.3932  -5.3890
    -5.3415  -5.3401  -5.3285  -5.3210  -5.2926  -5.2863  -5.2860  -5.2745
    -5.2658  -5.2401  -5.2398  -5.2321  -5.2208  -5.2186  -5.2067  -5.1984
    -5.1879  -5.1845  -5.1686  -5.1507  -5.1290  -5.1248  -5.1197  -5.1091
    -5.1040  -5.1025  -5.0971  -5.0835  -5.0801  -5.0444  -5.0285  -5.0274
    -5.0236  -5.0147  -5.0069  -5.0045  -4.9834  -4.9785  -4.9766  -4.9609
    -4.9596  -4.9562  -4.9507  -4.9410  -4.9343  -4.9138  -4.8881  -4.8819
    -4.8809  -4.7815  -4.7631  -4.7453  -4.7383  -4.7344  -4.7217  -4.7088
    -4.6926  -4.6580  -4.6390  -4.6242  -4.6220  -4.6136  -4.6078  -4.5984
    -4.5804  -4.5741  -4.5586  -4.5215  -4.5149  -4.2775  -4.2709  -4.2555
    -4.2500

          k = 0.2500-0.7071 0.0000 (200442 PWs)   bands (ev):

   -46.3772 -46.3758 -46.3629 -46.3618 -46.3617 -46.3615 -46.3570 -46.3569
   -46.3564 -46.3503 -46.3503 -46.3458 -46.3457 -46.3449 -46.3427 -46.3354
   -45.8589 -45.8580 -45.8543 -45.8540 -45.8509 -45.8503 -45.8492 -45.8488
   -45.8447 -45.8437 -45.8429 -45.8426 -45.8384 -45.8379 -45.8366 -45.8356
   -45.7066 -45.7063 -45.7007 -45.7000 -45.6926 -45.6922 -45.6888 -45.6886
   -45.6859 -45.6856 -45.6851 -45.6842 -45.6820 -45.6812 -45.6800 -45.6769
   -45.4059 -45.4051 -45.4007 -45.4006 -45.3961 -45.3961 -45.3905 -45.3896
   -45.3896 -45.3852 -45.3852 -45.3783 -45.3724 -45.3676 -45.3675 -45.3524
   -28.9652 -28.7347 -27.4658 -27.2643 -24.7534 -24.7530 -24.7446 -24.7429
   -24.7095 -24.7092 -24.6990 -24.6966 -24.6461 -24.6458 -24.6371 -24.6348
   -24.5993 -24.5992 -24.5889 -24.5860 -24.5224 -24.5220 -24.4617 -24.4614
   -24.3644 -24.3641 -24.2971 -24.2968 -24.2675 -24.2671 -24.2516 -24.2513
   -24.2057 -24.2053 -24.2024 -24.2021 -24.1147 -24.1146 -24.1020 -24.1017
   -24.0955 -24.0945 -24.0667 -24.0662 -24.0626 -24.0619 -24.0237 -24.0235
   -24.0183 -24.0170 -24.0004 -23.9995 -23.4347 -23.4306 -23.4234 -23.4234
   -23.3865 -23.3865 -23.3826 -23.3803 -23.3346 -23.3341 -23.3332 -23.3332
   -23.2948 -23.2948 -23.2888 -23.2874 -18.0126 -16.4320 -14.2444 -12.9898
   -11.3401 -11.2680 -10.9036 -10.7111  -9.7523  -9.2346  -8.5388  -8.1431
    -7.7152  -7.3845  -7.3839  -7.3673  -7.3664  -7.3299  -7.2776  -7.2342
    -7.2333  -7.2054  -7.2047  -7.1977  -7.1974  -7.1790  -7.1784  -7.1241
    -7.1240  -7.0936  -7.0931  -7.0908  -7.0906  -7.0876  -7.0872  -7.0648
    -7.0633  -7.0389  -7.0347  -7.0335  -7.0278  -7.0188  -7.0006  -6.9924
    -6.9824  -6.9813  -6.9573  -6.9569  -6.9422  -6.9406  -6.9212  -6.9209
    -6.9184  -6.9157  -6.8681  -6.7924  -6.7910  -6.7894  -6.7770  -6.7762
    -6.6543  -6.6542  -6.6188  -6.5989  -6.5982  -6.5708  -6.5706  -6.5615
    -6.5610  -6.5129  -6.5122  -6.4341  -6.4324  -6.4267  -6.4263  -6.3926
    -6.3915  -6.2897  -6.2888  -6.2753  -6.2745  -6.1877  -6.1877  -6.1848
    -6.1841  -6.1026  -6.0685  -6.0677  -6.0204  -6.0202  -6.0058  -6.0054
    -5.9912  -5.9904  -5.9555  -5.9550  -5.9344  -5.9336  -5.9066  -5.9062
    -5.8913  -5.8900  -5.8817  -5.8811  -5.8318  -5.8313  -5.7668  -5.7666
    -5.7488  -5.7483  -5.7049  -5.7043  -5.6994  -5.6990  -5.6693  -5.6691
    -5.6366  -5.6360  -5.6282  -5.6281  -5.6265  -5.6260  -5.6192  -5.6182
    -5.5270  -5.5268  -5.4868  -5.4863  -5.4735  -5.4729  -5.4606  -5.4602
    -5.4428  -5.4422  -5.4226  -5.4221  -5.3998  -5.3994  -5.3984  -5.3979
    -5.3550  -5.3548  -5.3515  -5.3513  -5.3386  -5.3380  -5.3200  -5.3196
    -5.3031  -5.3024  -5.2232  -5.2229  -5.2059  -5.2056  -5.1973  -5.1971
    -5.1962  -5.1845  -5.1823  -5.1636  -5.1631  -5.1586  -5.1585  -5.1004
    -5.0982  -5.0905  -5.0895  -5.0689  -5.0687  -5.0603  -5.0578  -5.0323
    -5.0317  -4.9939  -4.9934  -4.9765  -4.9757  -4.9715  -4.9712  -4.9617
    -4.9604  -4.9498  -4.9483  -4.9380  -4.9379  -4.9305  -4.9303  -4.8803
    -4.8793  -4.7624  -4.7616  -4.7345  -4.7332  -4.7278  -4.7275  -4.7169
    -4.6969  -4.6559  -4.6467  -4.6278  -4.6239  -4.6095  -4.6068  -4.5965
    -4.5774  -4.5466  -4.5466  -4.5450  -4.5357  -4.2689  -4.2637  -4.2602
    -4.2602

          k =-0.5000 0.0000 0.0000 (200370 PWs)   bands (ev):

   -46.3774 -46.3754 -46.3634 -46.3614 -46.3609 -46.3604 -46.3592 -46.3587
   -46.3561 -46.3482 -46.3477 -46.3473 -46.3468 -46.3447 -46.3427 -46.3354
   -45.8599 -45.8562 -45.8544 -45.8542 -45.8517 -45.8511 -45.8499 -45.8495
   -45.8442 -45.8422 -45.8413 -45.8400 -45.8400 -45.8387 -45.8371 -45.8354
   -45.7082 -45.7053 -45.6979 -45.6967 -45.6962 -45.6922 -45.6905 -45.6899
   -45.6866 -45.6851 -45.6849 -45.6843 -45.6822 -45.6804 -45.6796 -45.6764
   -45.4060 -45.4049 -45.3993 -45.3988 -45.3988 -45.3983 -45.3906 -45.3876
   -45.3872 -45.3868 -45.3863 -45.3781 -45.3726 -45.3676 -45.3673 -45.3524
   -28.9652 -28.7347 -27.4658 -27.2643 -24.7616 -24.7565 -24.7463 -24.7351
   -24.7148 -24.7144 -24.7138 -24.6980 -24.6228 -24.6223 -24.6205 -24.6150
   -24.6138 -24.6088 -24.6043 -24.5945 -24.5385 -24.5345 -24.3755 -24.3747
   -24.3731 -24.3709 -24.3269 -24.3262 -24.2662 -24.2650 -24.2649 -24.2638
   -24.2614 -24.2608 -24.1699 -24.1657 -24.1652 -24.1646 -24.1641 -24.1594
   -24.0465 -24.0427 -24.0416 -24.0397 -24.0373 -24.0342 -24.0329 -24.0295
   -24.0249 -24.0226 -23.9842 -23.9803 -23.4509 -23.4314 -23.4309 -23.4151
   -23.4057 -23.3862 -23.3857 -23.3698 -23.3350 -23.3238 -23.3233 -23.3079
   -23.3076 -23.2971 -23.2967 -23.2804 -18.0126 -16.4320 -14.2444 -12.9903
   -11.3399 -11.2682 -10.9033 -10.7113  -9.7523  -9.2349  -8.5373  -8.1416
    -7.7151  -7.4918  -7.4862  -7.4658  -7.4637  -7.4104  -7.4048  -7.3300
    -7.2774  -7.2462  -7.2374  -7.1972  -7.1970  -7.1964  -7.1833  -7.1659
    -7.1594  -7.1439  -7.1412  -7.1087  -7.1083  -7.1050  -7.1018  -7.0216
    -6.9830  -6.9816  -6.9783  -6.9779  -6.8698  -6.8468  -6.8441  -6.8434
    -6.8364  -6.8244  -6.8225  -6.8223  -6.8213  -6.8208  -6.8163  -6.8117
    -6.8105  -6.8061  -6.8007  -6.7863  -6.7615  -6.7611  -6.7600  -6.7551
    -6.6592  -6.6574  -6.6537  -6.6505  -6.6159  -6.5927  -6.5882  -6.5646
    -6.5605  -6.5313  -6.5266  -6.5149  -6.5147  -6.5112  -6.5058  -6.3356
    -6.3332  -6.3306  -6.3291  -6.2909  -6.2864  -6.2576  -6.2568  -6.2123
    -6.2054  -6.1780  -6.1778  -6.1774  -6.1740  -6.1035  -6.0987  -6.0930
    -6.0890  -6.0818  -6.0624  -6.0555  -6.0357  -6.0307  -6.0232  -6.0180
    -6.0166  -6.0059  -5.9061  -5.9041  -5.8522  -5.8515  -5.8499  -5.8438
    -5.7277  -5.7272  -5.6908  -5.6905  -5.6516  -5.6498  -5.6407  -5.6386
    -5.5994  -5.5992  -5.5959  -5.5958  -5.5907  -5.5878  -5.5596  -5.5581
    -5.5123  -5.5094  -5.5081  -5.5069  -5.5066  -5.5035  -5.4636  -5.4620
    -5.3424  -5.3384  -5.3375  -5.3347  -5.3329  -5.3318  -5.3283  -5.3278
    -5.3274  -5.3241  -5.3024  -5.3022  -5.2999  -5.2980  -5.2192  -5.2043
    -5.2040  -5.2036  -5.1985  -5.1980  -5.1963  -5.1919  -5.1903  -5.1882
    -5.1837  -5.1815  -5.1805  -5.1773  -5.1772  -5.1669  -5.1572  -5.1553
    -5.1479  -5.0941  -5.0921  -5.0912  -5.0891  -5.0889  -5.0854  -5.0345
    -5.0323  -5.0318  -5.0221  -5.0195  -5.0078  -4.9915  -4.9771  -4.9767
    -4.9633  -4.9622  -4.9490  -4.9330  -4.9301  -4.9289  -4.9112  -4.9021
    -4.8998  -4.7995  -4.7766  -4.7298  -4.7215  -4.7091  -4.7027  -4.7022
    -4.6756  -4.6437  -4.6318  -4.6248  -4.6221  -4.6217  -4.6039  -4.6014
    -4.5759  -4.4039  -4.4002  -4.3957  -4.3954  -4.3919  -4.3895  -4.3895
    -4.3892

          k =-0.5000 0.3536 0.0000 (200424 PWs)   bands (ev):

   -46.3773 -46.3756 -46.3634 -46.3615 -46.3607 -46.3602 -46.3595 -46.3589
   -46.3561 -46.3481 -46.3476 -46.3475 -46.3470 -46.3447 -46.3428 -46.3354
   -45.8594 -45.8567 -45.8539 -45.8538 -45.8516 -45.8514 -45.8506 -45.8498
   -45.8440 -45.8425 -45.8411 -45.8402 -45.8399 -45.8389 -45.8370 -45.8357
   -45.7075 -45.7047 -45.7018 -45.6991 -45.6925 -45.6901 -45.6895 -45.6892
   -45.6872 -45.6867 -45.6857 -45.6830 -45.6827 -45.6802 -45.6801 -45.6766
   -45.4059 -45.4050 -45.3992 -45.3989 -45.3987 -45.3984 -45.3906 -45.3875
   -45.3870 -45.3870 -45.3865 -45.3781 -45.3726 -45.3676 -45.3674 -45.3524
   -28.9652 -28.7347 -27.4658 -27.2643 -24.7549 -24.7501 -24.7420 -24.7304
   -24.7219 -24.7198 -24.7192 -24.7039 -24.6215 -24.6213 -24.6188 -24.6160
   -24.6151 -24.6104 -24.6031 -24.5958 -24.5296 -24.5257 -24.4470 -24.4437
   -24.3239 -24.3232 -24.3105 -24.3073 -24.2938 -24.2934 -24.2686 -24.2645
   -24.2292 -24.2284 -24.1733 -24.1722 -24.1624 -24.1566 -24.1349 -24.1291
   -24.0560 -24.0520 -24.0512 -24.0485 -24.0460 -24.0446 -24.0317 -24.0287
   -24.0283 -24.0245 -23.9911 -23.9871 -23.4444 -23.4248 -23.4243 -23.4123
   -23.4085 -23.3929 -23.3924 -23.3764 -23.3311 -23.3199 -23.3194 -23.3117
   -23.3039 -23.3011 -23.3006 -23.2844 -18.0126 -16.4320 -14.2444 -12.9900
   -11.3400 -11.2680 -10.9034 -10.7112  -9.7523  -9.2347  -8.5382  -8.1425
    -7.7150  -7.4187  -7.4171  -7.4005  -7.3950  -7.3638  -7.3582  -7.3300
    -7.2772  -7.2099  -7.2068  -7.1965  -7.1881  -7.1870  -7.1795  -7.1624
    -7.1562  -7.1256  -7.1235  -7.1204  -7.1158  -7.0475  -7.0429  -7.0323
    -7.0306  -7.0269  -7.0258  -7.0203  -6.9820  -6.9814  -6.9690  -6.9659
    -6.9141  -6.9092  -6.9079  -6.9021  -6.9014  -6.8988  -6.8747  -6.8694
    -6.8666  -6.8423  -6.8323  -6.7891  -6.7723  -6.7644  -6.7006  -6.6979
    -6.6615  -6.6588  -6.6568  -6.6555  -6.6246  -6.6206  -6.6138  -6.5393
    -6.5386  -6.5328  -6.5273  -6.4376  -6.4314  -6.4138  -6.4109  -6.3645
    -6.3626  -6.3078  -6.3049  -6.2455  -6.2448  -6.2247  -6.2242  -6.1351
    -6.1314  -6.1034  -6.1010  -6.1001  -6.0983  -6.0892  -6.0827  -6.0772
    -6.0757  -6.0712  -6.0269  -6.0203  -6.0076  -6.0027  -5.9666  -5.9618
    -5.9610  -5.9526  -5.9345  -5.9343  -5.9335  -5.9327  -5.7695  -5.7667
    -5.7174  -5.7156  -5.7082  -5.7074  -5.7048  -5.7036  -5.6639  -5.6615
    -5.6428  -5.6426  -5.6295  -5.6260  -5.5596  -5.5589  -5.5418  -5.5390
    -5.4721  -5.4698  -5.4610  -5.4607  -5.4487  -5.4434  -5.4317  -5.4300
    -5.4119  -5.4109  -5.3665  -5.3655  -5.3607  -5.3601  -5.3593  -5.3501
    -5.3490  -5.3427  -5.3220  -5.3188  -5.3065  -5.3032  -5.2990  -5.2977
    -5.2632  -5.2627  -5.2527  -5.2491  -5.2240  -5.2227  -5.2058  -5.1995
    -5.1937  -5.1881  -5.1839  -5.1641  -5.1626  -5.1415  -5.1378  -5.1274
    -5.1225  -5.0891  -5.0833  -5.0819  -5.0747  -5.0733  -5.0722  -5.0660
    -5.0648  -5.0458  -5.0403  -5.0377  -5.0336  -4.9758  -4.9616  -4.9610
    -4.9534  -4.9435  -4.9433  -4.9367  -4.9310  -4.9203  -4.9189  -4.9053
    -4.8964  -4.7802  -4.7587  -4.7289  -4.7261  -4.7095  -4.7067  -4.7060
    -4.6792  -4.6479  -4.6367  -4.6350  -4.6293  -4.6106  -4.6024  -4.5964
    -4.5747  -4.4018  -4.3988  -4.3948  -4.3945  -4.3930  -4.3900  -4.3897
    -4.3894

          k =-0.5000-0.7071 0.0000 (200236 PWs)   bands (ev):

   -46.3771 -46.3758 -46.3632 -46.3616 -46.3601 -46.3601 -46.3596 -46.3595
   -46.3560 -46.3477 -46.3477 -46.3472 -46.3471 -46.3447 -46.3426 -46.3353
   -45.8585 -45.8576 -45.8529 -45.8527 -45.8525 -45.8521 -45.8509 -45.8503
   -45.8437 -45.8426 -45.8406 -45.8404 -45.8395 -45.8390 -45.8367 -45.8357
   -45.7055 -45.7054 -45.7031 -45.7021 -45.6894 -45.6890 -45.6886 -45.6881
   -45.6881 -45.6876 -45.6857 -45.6845 -45.6814 -45.6806 -45.6796 -45.6766
   -45.4059 -45.4050 -45.3990 -45.3990 -45.3986 -45.3986 -45.3905 -45.3871
   -45.3871 -45.3866 -45.3866 -45.3781 -45.3726 -45.3674 -45.3673 -45.3523
   -28.9652 -28.7347 -27.4658 -27.2643 -24.7389 -24.7380 -24.7349 -24.7346
   -24.7313 -24.7305 -24.7192 -24.7163 -24.6191 -24.6185 -24.6183 -24.6182
   -24.6152 -24.6137 -24.6011 -24.5979 -24.5004 -24.5002 -24.4969 -24.4964
   -24.3139 -24.3134 -24.3132 -24.3129 -24.2802 -24.2800 -24.2766 -24.2761
   -24.1963 -24.1959 -24.1953 -24.1950 -24.1102 -24.1096 -24.1052 -24.1043
   -24.0899 -24.0894 -24.0846 -24.0829 -24.0422 -24.0419 -24.0389 -24.0376
   -24.0085 -24.0083 -24.0054 -24.0035 -23.4312 -23.4257 -23.4089 -23.4089
   -23.4084 -23.4084 -23.3946 -23.3905 -23.3218 -23.3211 -23.3105 -23.3105
   -23.3100 -23.3100 -23.2953 -23.2930 -18.0126 -16.4319 -14.2443 -12.9897
   -11.3400 -11.2678 -10.9034 -10.7109  -9.7520  -9.2344  -8.5387  -8.1430
    -7.7149  -7.3303  -7.2952  -7.2920  -7.2915  -7.2912  -7.2749  -7.2456
    -7.2449  -7.2385  -7.2357  -7.1528  -7.1526  -7.1476  -7.1474  -7.1397
    -7.1390  -7.1366  -7.1355  -7.1188  -7.1186  -7.1175  -7.1170  -7.0873
    -7.0870  -7.0820  -7.0813  -7.0491  -7.0487  -7.0459  -7.0453  -7.0278
    -6.9829  -6.9819  -6.9786  -6.9782  -6.9777  -6.9775  -6.9689  -6.9576
    -6.8682  -6.7909  -6.7891  -6.7889  -6.7872  -6.7868  -6.7851  -6.7845
    -6.7789  -6.7781  -6.6183  -6.6041  -6.6032  -6.5996  -6.5993  -6.5273
    -6.5271  -6.5215  -6.5206  -6.3426  -6.3421  -6.3414  -6.3413  -6.3110
    -6.3104  -6.3058  -6.3042  -6.1581  -6.1568  -6.1566  -6.1564  -6.1334
    -6.1322  -6.1291  -6.1279  -6.1030  -6.0651  -6.0634  -6.0629  -6.0625
    -6.0313  -6.0302  -6.0299  -6.0290  -5.9876  -5.9871  -5.9838  -5.9829
    -5.8599  -5.8597  -5.8549  -5.8548  -5.7458  -5.7454  -5.7445  -5.7437
    -5.7164  -5.7162  -5.7157  -5.7156  -5.7056  -5.7050  -5.7029  -5.7017
    -5.6628  -5.6623  -5.6591  -5.6585  -5.6553  -5.6551  -5.6519  -5.6508
    -5.4493  -5.4488  -5.4469  -5.4460  -5.4344  -5.4340  -5.4321  -5.4316
    -5.4253  -5.4248  -5.4234  -5.4222  -5.4157  -5.4149  -5.4118  -5.4109
    -5.3706  -5.3703  -5.3674  -5.3659  -5.2729  -5.2728  -5.2727  -5.2723
    -5.2619  -5.2614  -5.2605  -5.2598  -5.2039  -5.2024  -5.1981  -5.1949
    -5.1916  -5.1699  -5.1690  -5.1634  -5.1602  -5.1420  -5.1412  -5.1407
    -5.1403  -5.1297  -5.1290  -5.1264  -5.1231  -5.0378  -5.0321  -5.0276
    -5.0275  -5.0267  -5.0260  -5.0158  -5.0152  -5.0014  -5.0007  -4.9956
    -4.9940  -4.9631  -4.9628  -4.9544  -4.9531  -4.9096  -4.9092  -4.8972
    -4.8954  -4.7435  -4.7395  -4.7237  -4.7229  -4.7229  -4.7227  -4.7101
    -4.6852  -4.6506  -4.6390  -4.6374  -4.6310  -4.6056  -4.6012  -4.5928
    -4.5731  -4.3985  -4.3982  -4.3948  -4.3919  -4.3919  -4.3916  -4.3916
    -4.3893

          k =-0.2500 0.3536 0.0000 (200411 PWs)   bands (ev):

   -46.3773 -46.3756 -46.3630 -46.3623 -46.3614 -46.3611 -46.3574 -46.3565
   -46.3564 -46.3507 -46.3500 -46.3460 -46.3454 -46.3449 -46.3427 -46.3354
   -45.8598 -45.8570 -45.8553 -45.8529 -45.8518 -45.8498 -45.8492 -45.8483
   -45.8451 -45.8435 -45.8431 -45.8422 -45.8385 -45.8377 -45.8368 -45.8354
   -45.7087 -45.7029 -45.7022 -45.6973 -45.6940 -45.6929 -45.6901 -45.6881
   -45.6865 -45.6858 -45.6850 -45.6834 -45.6827 -45.6804 -45.6800 -45.6767
   -45.4059 -45.4050 -45.4008 -45.4005 -45.3962 -45.3959 -45.3905 -45.3900
   -45.3894 -45.3855 -45.3849 -45.3783 -45.3724 -45.3676 -45.3675 -45.3524
   -28.9652 -28.7347 -27.4658 -27.2643 -24.7718 -24.7572 -24.7352 -24.7290
   -24.7213 -24.7067 -24.6979 -24.6879 -24.6478 -24.6443 -24.6371 -24.6347
   -24.6057 -24.5938 -24.5928 -24.5811 -24.5530 -24.4880 -24.4659 -24.4137
   -24.3814 -24.3332 -24.3247 -24.2866 -24.2863 -24.2691 -24.2608 -24.2414
   -24.2373 -24.2271 -24.1885 -24.1797 -24.1744 -24.1494 -24.1356 -24.1072
   -24.0756 -24.0625 -24.0557 -24.0503 -24.0487 -24.0417 -24.0329 -24.0236
   -24.0136 -24.0125 -23.9988 -23.9878 -23.4492 -23.4403 -23.4161 -23.4063
   -23.4009 -23.3961 -23.3719 -23.3667 -23.3453 -23.3441 -23.3233 -23.3223
   -23.3031 -23.2970 -23.2864 -23.2792 -18.0126 -16.4320 -14.2444 -12.9900
   -11.3400 -11.2680 -10.9035 -10.7112  -9.7523  -9.2347  -8.5381  -8.1424
    -7.7152  -7.5137  -7.4881  -7.4763  -7.3300  -7.3151  -7.3069  -7.2818
    -7.2741  -7.2727  -7.2638  -7.2583  -7.2394  -7.1738  -7.1459  -7.1296
    -7.1014  -7.0817  -7.0801  -7.0711  -7.0691  -7.0643  -7.0386  -7.0312
    -7.0257  -7.0039  -6.9973  -6.9961  -6.9899  -6.9840  -6.9748  -6.9624
    -6.9249  -6.9243  -6.9002  -6.8784  -6.8705  -6.8677  -6.8624  -6.8581
    -6.8565  -6.8464  -6.7907  -6.7871  -6.7753  -6.7647  -6.7296  -6.7126
    -6.7039  -6.6659  -6.6539  -6.6346  -6.6203  -6.6145  -6.5856  -6.5752
    -6.5596  -6.4845  -6.4760  -6.4741  -6.4679  -6.4608  -6.4528  -6.4428
    -6.4041  -6.3502  -6.3064  -6.2858  -6.2600  -6.2489  -6.2019  -6.1918
    -6.1792  -6.1496  -6.1494  -6.1146  -6.1026  -6.0796  -6.0645  -6.0456
    -6.0336  -6.0209  -6.0016  -5.9966  -5.9835  -5.9598  -5.9582  -5.9542
    -5.9356  -5.9294  -5.9167  -5.8730  -5.8668  -5.8301  -5.7965  -5.7667
    -5.7633  -5.7463  -5.7451  -5.7076  -5.6815  -5.6772  -5.6636  -5.6521
    -5.6496  -5.6430  -5.6178  -5.6028  -5.5897  -5.5865  -5.5601  -5.4992
    -5.4854  -5.4829  -5.4799  -5.4782  -5.4735  -5.4675  -5.4561  -5.4480
    -5.4474  -5.4381  -5.4328  -5.4287  -5.4252  -5.4125  -5.3932  -5.3890
    -5.3415  -5.3401  -5.3286  -5.3210  -5.2926  -5.2863  -5.2861  -5.2745
    -5.2658  -5.2401  -5.2400  -5.2320  -5.2209  -5.2186  -5.2067  -5.1976
    -5.1887  -5.1840  -5.1688  -5.1507  -5.1290  -5.1249  -5.1197  -5.1090
    -5.1040  -5.1025  -5.0972  -5.0835  -5.0801  -5.0444  -5.0285  -5.0274
    -5.0236  -5.0147  -5.0070  -5.0046  -4.9836  -4.9785  -4.9766  -4.9609
    -4.9596  -4.9561  -4.9509  -4.9405  -4.9344  -4.9139  -4.8881  -4.8820
    -4.8808  -4.7817  -4.7629  -4.7451  -4.7384  -4.7344  -4.7216  -4.7088
    -4.6927  -4.6581  -4.6391  -4.6241  -4.6221  -4.6136  -4.6078  -4.5983
    -4.5805  -4.5740  -4.5584  -4.5215  -4.5150  -4.2775  -4.2709  -4.2556
    -4.2500

     highest occupied level (ev):    -4.1910

!    total energy              =   -4345.71234462 Ry
     estimated scf accuracy    <          3.9E-11 Ry

     The total energy is the sum of the following terms:
     one-electron contribution = -103130.17724279 Ry
     hartree contribution      =   51708.98726640 Ry
     xc contribution           =    -998.22426153 Ry
     ewald contribution        =   48073.70189331 Ry

     convergence has been achieved in   7 iterations

     Forces acting on atoms (cartesian axes, Ry/au):

     atom    1 type  1   force =     0.00000110    0.00000001   -0.00012374
     atom    2 type  1   force =     0.00000602    0.00000098   -0.00027007
     atom    3 type  1   force =     0.00000289   -0.00000038   -0.00027060
     atom    4 type  1   force =    -0.00000185   -0.00000004   -0.00012359
     atom    5 type  2   force =    -0.00000230    0.00000039    0.00033415
     atom    6 type  2   force =     0.00000017    0.00000006    0.00015959
     atom    7 type  2   force =    -0.00000100   -0.00000053    0.00015652
     atom    8 type  2   force =    -0.00000142    0.00000030    0.00034130
     atom    9 type  1   force =     0.00000298   -0.00000050   -0.00026194
     atom   10 type  1   force =     0.00000554   -0.00000505   -0.00025388
     atom   11 type  1   force =     0.00000848    0.00000477   -0.00023704
     atom   12 type  1   force =    -0.00000001   -0.00000029   -0.00026398
     atom   13 type  2   force =    -0.00000434    0.00000094    0.00020691
     atom   14 type  2   force =    -0.00000687   -0.00000108    0.00008279
     atom   15 type  2   force =     0.00000168    0.00000207    0.00009144
     atom   16 type  2   force =    -0.00000426    0.00000178    0.00016376
     atom   17 type  1   force =     0.00000068   -0.00000134   -0.00015114
     atom   18 type  1   force =    -0.00001169   -0.00000711   -0.00003696
     atom   19 type  1   force =     0.00002420   -0.00004691   -0.00020858
     atom   20 type  1   force =     0.00001224   -0.00000424   -0.00014350
     atom   21 type  2   force =     0.00003137    0.00002787    0.00024556
     atom   22 type  2   force =    -0.00000053    0.00002015    0.00026368
     atom   23 type  2   force =    -0.00001661    0.00000079    0.00025364
     atom   24 type  2   force =    -0.00003580    0.00002187    0.00038802
     atom   25 type  1   force =    -0.00005631    0.00000082    0.00002679
     atom   26 type  1   force =    -0.00009879   -0.00017308   -0.00033875
     atom   27 type  1   force =    -0.00037171    0.00032332   -0.00009512
     atom   28 type  1   force =     0.00004849    0.00000523    0.00001982
     atom   29 type  2   force =     0.00005178    0.00003100    0.00015612
     atom   30 type  2   force =     0.00048408   -0.00002625    0.00003665
     atom   31 type  2   force =    -0.00031175    0.00005471   -0.00006676
     atom   32 type  2   force =     0.00044160    0.00013334    0.00032703
     atom   33 type  1   force =     0.00000103    0.00000025   -0.00012435
     atom   34 type  1   force =     0.00000608   -0.00000065   -0.00026943
     atom   35 type  1   force =     0.00000304    0.00000071   -0.00027016
     atom   36 type  1   force =    -0.00000170    0.00000030   -0.00012411
     atom   37 type  2   force =    -0.00000237   -0.00000010    0.00032702
     atom   38 type  2   force =     0.00000019    0.00000023    0.00015953
     atom   39 type  2   force =    -0.00000100    0.00000082    0.00015626
     atom   40 type  2   force =    -0.00000149   -0.00000002    0.00034451
     atom   41 type  1   force =     0.00000849    0.00000076   -0.00026435
     atom   42 type  1   force =     0.00000653    0.00000513   -0.00025107
     atom   43 type  1   force =     0.00000902   -0.00000461   -0.00023161
     atom   44 type  1   force =    -0.00000173    0.00000051   -0.00026786
     atom   45 type  2   force =    -0.00000337   -0.00000104    0.00024122
     atom   46 type  2   force =    -0.00000690    0.00000137    0.00008124
     atom   47 type  2   force =     0.00000171   -0.00000184    0.00009119
     atom   48 type  2   force =    -0.00000298   -0.00000194    0.00009938
     atom   49 type  1   force =    -0.00001044    0.00000251   -0.00018473
     atom   50 type  1   force =    -0.00000939    0.00000990    0.00001198
     atom   51 type  1   force =     0.00003909    0.00005849   -0.00019245
     atom   52 type  1   force =     0.00003726    0.00000244   -0.00021181
     atom   53 type  2   force =     0.00004942   -0.00001170   -0.00019476
     atom   54 type  2   force =     0.00000050   -0.00001796    0.00026503
     atom   55 type  2   force =    -0.00001382   -0.00000279    0.00024674
     atom   56 type  2   force =     0.00000921    0.00000090    0.00055929
     atom   57 type  1   force =    -0.00087194    0.00010954   -0.00069898
     atom   58 type  1   force =    -0.00007041    0.00018893   -0.00033760
     atom   59 type  1   force =    -0.00035015   -0.00014654   -0.00007392
     atom   60 type  1   force =     0.00031597    0.00001133   -0.00003372
     atom   61 type  2   force =     0.00011456   -0.00000404    0.00044528
     atom   62 type  2   force =     0.00041373    0.00023850   -0.00004981
     atom   63 type  2   force =    -0.00030400   -0.00003086   -0.00005996
     atom   64 type  2   force =     0.00053082    0.00040710   -0.00054292
     atom   65 type  1   force =    -0.00000110   -0.00000005   -0.00012406
     atom   66 type  1   force =    -0.00000599    0.00000001   -0.00027105
     atom   67 type  1   force =    -0.00000295    0.00000082   -0.00027067
     atom   68 type  1   force =     0.00000182   -0.00000001   -0.00012424
     atom   69 type  2   force =     0.00000226    0.00000026    0.00033821
     atom   70 type  2   force =    -0.00000006   -0.00000130    0.00014899
     atom   71 type  2   force =     0.00000086   -0.00000071    0.00015212
     atom   72 type  2   force =     0.00000144    0.00000034    0.00033098
     atom   73 type  1   force =    -0.00000305   -0.00000035   -0.00026279
     atom   74 type  1   force =    -0.00000652    0.00000290   -0.00023357
     atom   75 type  1   force =    -0.00000753   -0.00000176   -0.00024847
     atom   76 type  1   force =     0.00000003   -0.00000059   -0.00026053
     atom   77 type  2   force =     0.00000560    0.00000124    0.00014291
     atom   78 type  2   force =     0.00000552   -0.00000191    0.00007208
     atom   79 type  2   force =    -0.00000038   -0.00000502    0.00006317
     atom   80 type  2   force =     0.00000297    0.00000074    0.00018640
     atom   81 type  1   force =    -0.00000203   -0.00000571   -0.00015573
     atom   82 type  1   force =    -0.00001564   -0.00002349   -0.00011961
     atom   83 type  1   force =     0.00000030   -0.00001688    0.00003671
     atom   84 type  1   force =    -0.00001104   -0.00000268   -0.00016048
     atom   85 type  2   force =    -0.00000760    0.00001323    0.00031247
     atom   86 type  2   force =     0.00001302   -0.00002758    0.00026091
     atom   87 type  2   force =     0.00000437   -0.00000415    0.00026373
     atom   88 type  2   force =     0.00000768    0.00002515    0.00017681
     atom   89 type  1   force =     0.00010083    0.00001642   -0.00006272
     atom   90 type  1   force =     0.00013382    0.00037548    0.00018665
     atom   91 type  1   force =     0.00031388    0.00006271   -0.00014431
     atom   92 type  1   force =    -0.00009460    0.00002952   -0.00006066
     atom   93 type  2   force =    -0.00012751    0.00007954    0.00035788
     atom   94 type  2   force =    -0.00049551    0.00012875    0.00046224
     atom   95 type  2   force =     0.00026523    0.00021614    0.00067379
     atom   96 type  2   force =    -0.00036981    0.00002716    0.00017737
     atom   97 type  1   force =    -0.00000118    0.00000031   -0.00012453
     atom   98 type  1   force =    -0.00000602    0.00000032   -0.00027073
     atom   99 type  1   force =    -0.00000312   -0.00000049   -0.00027015
     atom  100 type  1   force =     0.00000181    0.00000026   -0.00012481
     atom  101 type  2   force =     0.00000232    0.00000003    0.00033806
     atom  102 type  2   force =    -0.00000006    0.00000159    0.00014864
     atom  103 type  2   force =     0.00000085    0.00000100    0.00015204
     atom  104 type  2   force =     0.00000151   -0.00000005    0.00032552
     atom  105 type  1   force =    -0.00000570    0.00000059   -0.00026417
     atom  106 type  1   force =    -0.00000774   -0.00000281   -0.00023042
     atom  107 type  1   force =    -0.00000784    0.00000199   -0.00024660
     atom  108 type  1   force =    -0.00000110    0.00000089   -0.00026018
     atom  109 type  2   force =     0.00000444   -0.00000146    0.00010457
     atom  110 type  2   force =     0.00000554    0.00000219    0.00007148
     atom  111 type  2   force =    -0.00000039    0.00000536    0.00006098
     atom  112 type  2   force =     0.00000182   -0.00000059    0.00018847
     atom  113 type  1   force =    -0.00001069    0.00000225   -0.00021447
     atom  114 type  1   force =    -0.00002209    0.00002943   -0.00011078
     atom  115 type  1   force =    -0.00001089    0.00002287    0.00004736
     atom  116 type  1   force =    -0.00001536    0.00000192   -0.00020280
     atom  117 type  2   force =    -0.00003983   -0.00000048    0.00030808
     atom  118 type  2   force =     0.00001137    0.00002302    0.00024737
     atom  119 type  2   force =     0.00000215    0.00000351    0.00025992
     atom  120 type  2   force =    -0.00001083   -0.00000422   -0.00004178
     atom  121 type  1   force =     0.00055157    0.00006324   -0.00066676
     atom  122 type  1   force =     0.00011804   -0.00017289    0.00010117
     atom  123 type  1   force =     0.00030392   -0.00002713   -0.00014218
     atom  124 type  1   force =    -0.00028650    0.00014100   -0.00098334
     atom  125 type  2   force =    -0.00035148    0.00022784   -0.00020655
     atom  126 type  2   force =    -0.00043862    0.00000220    0.00039566
     atom  127 type  2   force =     0.00028379    0.00009184    0.00050528
     atom  128 type  2   force =    -0.00052472    0.00001303    0.00006066
     atom  129 type  3   force =     0.00034607   -0.00007272   -0.00003086
     atom  130 type  3   force =    -0.00005543   -0.00048668    0.00009305
     atom  131 type  4   force =     0.00000115   -0.00006132   -0.00008025
     atom  132 type  4   force =    -0.00014795   -0.00010680    0.00015898
     atom  133 type  4   force =    -0.00026770    0.00021443    0.00000802
     atom  134 type  3   force =     0.00036353    0.00015479   -0.00007497
     atom  135 type  2   force =     0.00024100   -0.00153458   -0.00003189
     atom  136 type  4   force =    -0.00016596   -0.00023156    0.00036482
     atom  137 type  3   force =     0.00022464   -0.00010539    0.00061944
     atom  138 type  2   force =     0.00015371   -0.00046521   -0.00111016
     atom  139 type  4   force =    -0.00000173    0.00043795    0.00067952
     atom  140 type  2   force =     0.00000411    0.00019508   -0.00055780
     atom  141 type  2   force =    -0.00000730   -0.00054742   -0.00010646
     atom  142 type  4   force =    -0.00003442    0.00011547    0.00021583

     Total force =     0.004517     Total SCF correction =     0.000017


     Computing stress (Cartesian axis) and pressure

          total   stress  (Ry/bohr**3)                   (kbar)     P=      -51.71
  -0.00029176   0.00000009  -0.00000022          -42.92        0.01       -0.03
   0.00000009  -0.00042947  -0.00000034            0.01      -63.18       -0.05
  -0.00000022  -0.00000034  -0.00033341           -0.03       -0.05      -49.05

     Energy error            =      2.6E-05 Ry
     Gradient error          =      1.5E-03 Ry/Bohr

     number of scf cycles    =   6
     number of bfgs steps    =   5

     energy             old  =   -4345.7123188004 Ry
     energy             new  =   -4345.7123446223 Ry

     CASE: energy            _new < energy            _old

     new trust radius        =       0.0050839353 bohr
     new conv_thr            =            1.0E-10 Ry


ATOMIC_POSITIONS (angstrom)
Li              -0.0000100429       -0.0000003771       15.2266323598
Li               4.3312253177        2.0417230956       16.3555663753
Li               1.4437468194        2.0417168021       16.3554845526
Li               2.8874432001       -0.0000005712       15.2266456181
F                4.3310604007        0.0000006739       16.4339642876
F                0.0000133439        2.0417106178       15.0824213565
F                2.8873879145        2.0417085305       15.0823937795
F                1.4436828456        0.0000004168       16.4340787525
Li               2.8875950163        8.1668539452       17.9587226597
Li               1.4438712973        2.0417267423       19.3063791477
Li               4.3315559620        2.0417918930       19.3068835693
Li              11.5495965073        8.1668551021       17.9586431812
F                1.4435770005        0.0000050518       19.3288574393
F                2.8872527517        2.0416898917       17.9152904203
F                0.0000726654        2.0417040921       17.9154136380
F                4.3307837473        0.0000085581       19.3282073016
Li              11.5492727698        8.1668486256       20.8027776242
Li               4.3330913028        2.0422342881       22.1525035221
Li               1.4444594128        2.0416840700       22.1496286239
Li               2.8882642196        8.1668331842       20.8031208455
F                4.3295195911        0.0001006682       22.1857703828
F               11.5500191957        2.0416885409       20.7743487594
F                2.8866412150        2.0415717831       20.7738921924
F                1.4430317424        0.0000821775       22.1886518315
Li               2.8908043626       -0.0000805049       23.7523477644
Li               1.4445836131        2.0403029937       24.8730832935
Li               4.3377847124        2.0476911486       24.8886968387
Li              11.5478610097        0.0000040813       23.7513617440
F                1.4427348683        0.0002573713       25.0279204246
F                2.8855389888        2.0406817108       23.6703708397
F                0.0007606803        2.0417280248       23.6712685000
F                4.3272400383        0.0013378518       25.0202759595
Li              -0.0000105137        4.0834280559       15.2266339524
Li               4.3312254613        6.1251324840       16.3555688517
Li               1.4437474610        6.1251387894       16.3554862401
Li               2.8874451819        4.0834282092       15.2266487635
F                4.3310589443        4.0834264015       16.4339246370
F                0.0000133204        6.1251447965       15.0824212405
F                2.8873879011        6.1251468590       15.0823931273
F                1.4436815853        4.0834266848       16.4340780373
Li               2.8876298621        4.0834304682       17.9587586720
Li               1.4438774880        6.1251283144       19.3063929395
Li               4.3315573767        6.1250637513       19.3069071936
Li              11.5495871712        4.0834292034       17.9586581689
F                1.4435681308        4.0834212981       19.3289240181
F                2.8872524337        6.1251658388       17.9152827124
F                0.0000725666        6.1251515168       17.9154113836
F                4.3307721452        4.0834182367       19.3278332351
Li              -0.0004985480        4.0834370786       20.8028018993
Li               4.3331017961        6.1245865101       22.1527827727
Li               1.4445448355        6.1251966914       22.1497278493
Li               2.8885740758        4.0834445386       20.8032334018
F                4.3294714365        4.0832961938       22.1824305441
F               11.5500194448        6.1251701474       20.7743434627
F                2.8866454322        6.1252745677       20.7738426101
F                1.4429805640        4.0833987978       22.1894128659
Li               2.8908389273        4.0839390351       23.7506293615
Li               1.4447335486        6.1267607055       24.8731156859
Li               4.3382536667        6.1209629549       24.8895324051
Li              -0.0020696614        4.0834904964       23.7511300525
F                1.4431068606        4.0834933504       25.0330572210
F                2.8851207323        6.1270553170       23.6699446563
F               11.5504467678        6.1252348560       23.6712460851
F                4.3184292098        4.0888153860       24.9984071311
Li               5.7748481205       -0.0000005915       15.2266797276
Li              10.1058699706        2.0417184027       16.3555204249
Li               7.2185102350        2.0417230272       16.3556015624
Li               8.6622330134       -0.0000004209       15.2266662877
F               10.1060347744        0.0000001812       16.4340249851
F                5.7748251193        2.0417057153       15.0823215472
F                8.6622880231        2.0417078391       15.0823487675
F                7.2185744499        8.1668573567       16.4339105994
Li               8.6620817366        8.1668549345       17.9588578264
Li               7.2183847137        2.0417882941       19.3071028203
Li              10.1055402317        2.0417444915       19.3066117524
Li               5.7749171216        8.1668537099       17.9589377215
F                7.2186821314        0.0000059470       19.3278899198
F                8.6624187133        2.0416852009       17.9150802415
F                5.7747698854        2.0416712456       17.9149559782
F               10.1063093479        8.1668600820       19.3285338564
Li               5.7752255375        8.1668293353       20.8040698102
Li              10.1039182017        2.0418750227       22.1511031057
Li               7.2178758451        2.0422069665       22.1537999802
Li               8.6614276437        8.1668444444       20.8037380612
F               10.1076542747        0.0000398600       22.1870745273
F                5.7745525709        2.0414001468       20.7726059729
F                8.6629781255        2.0415316889       20.7730596459
F                7.2191351080        0.0000804550       22.1843023633
Li               8.6592522718        8.1668919691       23.7549984709
Li               7.2166821154        2.0489772059       24.8957964931
Li              10.1003721109        2.0437833677       24.8819996822
Li               5.7762667531       -0.0000245342       23.7561611142
F                7.2196983773        0.0007866857       25.0159639360
F                8.6636488255        2.0407545695       23.6680463332
F                5.7743421974        2.0405357193       23.6671149720
F               10.1096507312        0.0002340991       25.0228205186
Li               5.7748479630        4.0834282270       15.2266848372
Li              10.1058699084        6.1251372076       16.3555216368
Li               7.2185095160        6.1251325681       16.3556035182
Li               8.6622316279        4.0834280510       15.2266698707
F               10.1060361565        4.0834269373       16.4340125528
F                5.7748251152        6.1251496847       15.0823206476
F                8.6622880051        6.1251476313       15.0823486225
F                7.2185755609        4.0834266288       16.4338734213
Li               8.6620584515        4.0834294171       17.9589018728
Li               7.2183780716        6.1250669996       19.3071180248
Li              10.1055392575        6.1251108802       19.3066199560
Li               5.7749149049        4.0834307559       17.9590030823
F                7.2186910491        4.0834206026       19.3275783788
F                8.6624190749        6.1251704788       17.9150775676
F                5.7747700803        6.1251846119       17.9149469653
F               10.1063202759        4.0834236875       19.3284576470
Li               5.7751928657        4.0834445432       20.8044349345
Li              10.1038993213        6.1249897681       22.1511440139
Li               7.2177967738        6.1246345288       22.1538968575
Li               8.6612477452        4.0834364709       20.8039803130
F               10.1077462855        4.0834119299       22.1865601992
F                5.7745506052        6.1254389287       20.7725384693
F                8.6629757992        6.1253189756       20.7730451404
F                7.2191902209        4.0833523622       22.1818688688
Li               8.6590015452        4.0836602669       23.7560159055
Li               7.2163187350        6.1198264919       24.8949477227
Li              10.1004716505        6.1234534194       24.8820081787
Li               5.7757628131        4.0840280155       23.7574426498
F                7.2207054845        4.0863757475       25.0010731236
F                8.6639346522        6.1266214053       23.6678280831
F                5.7745208580        6.1275333098       23.6663040750
F               10.1122893602        4.0836824254       25.0197147374
C                3.7951794506        4.0096969804       29.4481259843
C                5.1565841674        4.1983189329       28.8080218395
H                3.0238310048        4.2012109012       28.6936999324
H                3.6891887793        2.9823479408       29.8145088239
H                3.6650026391        4.7069531032       30.2835696555
C                6.3328789314        3.9742681858       29.7630176994
F                5.2636578549        3.3354602393       27.7379233491
H                6.2423795480        2.9609131288       30.1774256946
C                7.7491722993        4.1103858163       29.2161797259
F                5.2213499594        5.4821684869       28.2862881392
H                6.2337634941        4.6805155054       30.5981907327
F                7.9802657544        5.3639643675       28.7036125482
F                8.0041898855        3.1997884111       28.2238943725
H                8.4960096342        3.9422953370       30.0112577894



     Writing config-only to output data dir ./tmp/LiF_PVDF/LiF_PVDF.save/ :
     XML data file
     NEW-OLD atomic charge density approx. for the potential

     total cpu time spent up to now is     2555.5 secs

     per-process dynamical memory:   151.3 Mb

     Self-consistent Calculation

     iteration #  1     ecut=    60.00 Ry     beta= 0.30
     Davidson diagonalization with overlap
     ethr =  1.00E-06,  avg # of iterations =  3.0

     Threshold (ethr) on eigenvalues was too large:
     Diagonalizing with lowered threshold

     Davidson diagonalization with overlap
     ethr =  9.65E-10,  avg # of iterations =  5.0

     total cpu time spent up to now is     2639.1 secs

     total energy              =   -4345.71237665 Ry
     estimated scf accuracy    <       0.00000768 Ry

     iteration #  2     ecut=    60.00 Ry     beta= 0.30
     Davidson diagonalization with overlap
     ethr =  1.11E-09,  avg # of iterations =  2.0

     total cpu time spent up to now is     2668.6 secs

     total energy              =   -4345.71237615 Ry
     estimated scf accuracy    <       0.00000279 Ry

     iteration #  3     ecut=    60.00 Ry     beta= 0.30
     Davidson diagonalization with overlap
     ethr =  4.04E-10,  avg # of iterations =  3.0

     total cpu time spent up to now is     2700.6 secs

     total energy              =   -4345.71237643 Ry
     estimated scf accuracy    <       0.00000019 Ry

     iteration #  4     ecut=    60.00 Ry     beta= 0.30
     Davidson diagonalization with overlap
     ethr =  2.71E-11,  avg # of iterations =  3.0

     total cpu time spent up to now is     2731.2 secs

     total energy              =   -4345.71237646 Ry
     estimated scf accuracy    <       0.00000001 Ry

     iteration #  5     ecut=    60.00 Ry     beta= 0.30
     Davidson diagonalization with overlap
     ethr =  1.87E-12,  avg # of iterations =  2.0

     total cpu time spent up to now is     2761.1 secs

     total energy              =   -4345.71237646 Ry
     estimated scf accuracy    <          2.6E-09 Ry

     iteration #  6     ecut=    60.00 Ry     beta= 0.30
     Davidson diagonalization with overlap
     ethr =  3.71E-13,  avg # of iterations =  4.0

     total cpu time spent up to now is     2797.3 secs

     total energy              =   -4345.71237646 Ry
     estimated scf accuracy    <          3.4E-10 Ry

     iteration #  7     ecut=    60.00 Ry     beta= 0.30
     Davidson diagonalization with overlap
     ethr =  1.00E-13,  avg # of iterations =  4.0

     total cpu time spent up to now is     2833.3 secs

     total energy              =   -4345.71237646 Ry
     estimated scf accuracy    <          2.1E-10 Ry

     iteration #  8     ecut=    60.00 Ry     beta= 0.30
     Davidson diagonalization with overlap
     ethr =  1.00E-13,  avg # of iterations =  3.0

     total cpu time spent up to now is     2863.8 secs

     End of self-consistent calculation

          k = 0.0000 0.0000 0.0000 (200173 PWs)   bands (ev):

   -46.3734 -46.3712 -46.3659 -46.3637 -46.3596 -46.3579 -46.3566 -46.3566
   -46.3555 -46.3554 -46.3554 -46.3480 -46.3467 -46.3427 -46.3415 -46.3332
   -45.8603 -45.8570 -45.8560 -45.8531 -45.8495 -45.8478 -45.8472 -45.8468
   -45.8454 -45.8452 -45.8447 -45.8422 -45.8384 -45.8370 -45.8346 -45.8327
   -45.7102 -45.6995 -45.6990 -45.6985 -45.6969 -45.6917 -45.6914 -45.6887
   -45.6866 -45.6854 -45.6846 -45.6830 -45.6826 -45.6790 -45.6784 -45.6750
   -45.4056 -45.4035 -45.4031 -45.4024 -45.3946 -45.3946 -45.3941 -45.3940
   -45.3879 -45.3867 -45.3852 -45.3746 -45.3707 -45.3654 -45.3630 -45.3490
   -28.9642 -28.7335 -27.4665 -27.2657 -24.7875 -24.7687 -24.7349 -24.7253
   -24.6897 -24.6892 -24.6745 -24.6708 -24.6707 -24.6707 -24.6601 -24.6550
   -24.6054 -24.5893 -24.5839 -24.5707 -24.5686 -24.4440 -24.4439 -24.3961
   -24.3940 -24.3196 -24.3194 -24.3172 -24.3170 -24.2897 -24.2414 -24.2388
   -24.2196 -24.2173 -24.1990 -24.1986 -24.1904 -24.1888 -24.1050 -24.1050
   -24.1036 -24.1022 -24.0512 -24.0355 -24.0323 -24.0274 -24.0163 -24.0142
   -24.0052 -24.0028 -23.9942 -23.9900 -23.4560 -23.4551 -23.4080 -23.4062
   -23.3802 -23.3802 -23.3778 -23.3701 -23.3443 -23.3443 -23.3417 -23.3330
   -23.3029 -23.2941 -23.2803 -23.2699 -18.0096 -16.4294 -14.2436 -12.9898
   -11.3400 -11.2668 -10.9038 -10.7090  -9.7508  -9.2339  -8.5377  -8.1406
    -7.7141  -7.6114  -7.5922  -7.5894  -7.3608  -7.3519  -7.3499  -7.3299
    -7.3078  -7.3046  -7.2757  -7.1522  -7.1505  -7.1468  -7.1465  -7.1335
    -7.1335  -7.1312  -7.1298  -7.0267  -7.0030  -7.0026  -6.9971  -6.9958
    -6.9903  -6.9862  -6.9406  -6.9382  -6.9264  -6.9207  -6.9174  -6.9040
    -6.9035  -6.8705  -6.8576  -6.8536  -6.8264  -6.8259  -6.7891  -6.7670
    -6.7663  -6.7628  -6.7625  -6.7614  -6.7551  -6.7514  -6.7492  -6.7090
    -6.6974  -6.6973  -6.6916  -6.6892  -6.6183  -6.5963  -6.5960  -6.5444
    -6.5442  -6.5421  -6.5410  -6.5124  -6.5077  -6.5066  -6.5029  -6.4985
    -6.3935  -6.2681  -6.2678  -6.2668  -6.2655  -6.2550  -6.2219  -6.2165
    -6.2057  -6.2053  -6.2014  -6.2006  -6.2005  -6.1981  -6.1977  -6.1886
    -6.1014  -6.0572  -6.0570  -6.0121  -6.0029  -6.0003  -5.9787  -5.9782
    -5.9082  -5.8987  -5.8475  -5.8052  -5.8040  -5.8028  -5.8027  -5.8020
    -5.8018  -5.8011  -5.8004  -5.7323  -5.7150  -5.7103  -5.7097  -5.7056
    -5.7042  -5.5773  -5.5524  -5.5522  -5.5262  -5.5259  -5.5250  -5.5240
    -5.5216  -5.5211  -5.5202  -5.5100  -5.5097  -5.4988  -5.4983  -5.4922
    -5.4914  -5.4384  -5.4373  -5.4057  -5.4053  -5.3386  -5.2909  -5.2871
    -5.2642  -5.2631  -5.2606  -5.2597  -5.2514  -5.2477  -5.2434  -5.2417
    -5.2415  -5.2408  -5.2377  -5.2346  -5.2122  -5.2112  -5.2091  -5.2062
    -5.1886  -5.1744  -5.1738  -5.1718  -5.1577  -5.1573  -5.1555  -5.1554
    -5.1381  -5.0722  -5.0720  -5.0664  -5.0645  -5.0625  -5.0604  -5.0199
    -5.0195  -4.9987  -4.9924  -4.9680  -4.9679  -4.9620  -4.9477  -4.9173
    -4.9104  -4.8923  -4.8912  -4.8898  -4.8887  -4.8837  -4.8498  -4.8474
    -4.8437  -4.8303  -4.8268  -4.8268  -4.8262  -4.8198  -4.7390  -4.7064
    -4.6990  -4.6752  -4.6668  -4.6382  -4.6377  -4.6242  -4.6086  -4.6072
    -4.5858  -4.5823  -4.5823  -4.5622  -4.5574  -4.2344  -4.2315  -4.1940
    -4.1934

          k = 0.0000 0.3536 0.0000 (200366 PWs)   bands (ev):

   -46.3732 -46.3714 -46.3655 -46.3641 -46.3595 -46.3581 -46.3566 -46.3565
   -46.3556 -46.3556 -46.3554 -46.3477 -46.3473 -46.3428 -46.3415 -46.3333
   -45.8599 -45.8568 -45.8562 -45.8538 -45.8492 -45.8476 -45.8473 -45.8469
   -45.8457 -45.8455 -45.8445 -45.8425 -45.8382 -45.8375 -45.8344 -45.8331
   -45.7093 -45.7034 -45.6983 -45.6978 -45.6942 -45.6938 -45.6924 -45.6868
   -45.6861 -45.6848 -45.6844 -45.6833 -45.6829 -45.6798 -45.6788 -45.6753
   -45.4056 -45.4036 -45.4030 -45.4026 -45.3946 -45.3946 -45.3941 -45.3941
   -45.3880 -45.3864 -45.3858 -45.3746 -45.3707 -45.3654 -45.3631 -45.3491
   -28.9642 -28.7335 -27.4665 -27.2657 -24.7796 -24.7630 -24.7423 -24.7323
   -24.6868 -24.6864 -24.6733 -24.6732 -24.6727 -24.6689 -24.6624 -24.6575
   -24.6023 -24.5871 -24.5865 -24.5717 -24.5609 -24.4722 -24.4371 -24.4370
   -24.3740 -24.3739 -24.3295 -24.2929 -24.2614 -24.2613 -24.2383 -24.2356
   -24.2228 -24.2205 -24.2044 -24.2040 -24.1792 -24.1547 -24.1070 -24.1064
   -24.0785 -24.0777 -24.0663 -24.0563 -24.0470 -24.0450 -24.0160 -24.0140
   -24.0132 -24.0107 -23.9974 -23.9940 -23.4492 -23.4480 -23.4150 -23.4135
   -23.3750 -23.3750 -23.3726 -23.3648 -23.3496 -23.3496 -23.3470 -23.3385
   -23.2997 -23.2908 -23.2836 -23.2733 -18.0097 -16.4295 -14.2435 -12.9896
   -11.3401 -11.2667 -10.9040 -10.7091  -9.7509  -9.2338  -8.5386  -8.1415
    -7.7141  -7.5419  -7.5385  -7.5033  -7.3571  -7.3475  -7.3302  -7.2943
    -7.2911  -7.2853  -7.2752  -7.1550  -7.1483  -7.1472  -7.1251  -7.1248
    -7.1225  -7.1211  -7.0938  -7.0757  -7.0711  -7.0503  -7.0492  -7.0245
    -6.9830  -6.9683  -6.9675  -6.9649  -6.9634  -6.9614  -6.9600  -6.9247
    -6.9240  -6.9103  -6.9001  -6.8998  -6.8921  -6.8698  -6.8573  -6.8328
    -6.8324  -6.7907  -6.7869  -6.7856  -6.7686  -6.7486  -6.7482  -6.7096
    -6.7081  -6.6690  -6.6608  -6.6190  -6.6055  -6.5884  -6.5879  -6.5855
    -6.5842  -6.5295  -6.5285  -6.5222  -6.5218  -6.4723  -6.4622  -6.4475
    -6.4442  -6.4435  -6.2980  -6.2974  -6.2846  -6.2839  -6.2415  -6.1691
    -6.1679  -6.1434  -6.1075  -6.1012  -6.0966  -6.0695  -6.0694  -6.0614
    -6.0532  -6.0352  -6.0343  -5.9800  -5.9514  -5.9320  -5.9318  -5.8778
    -5.8739  -5.8653  -5.8641  -5.8306  -5.8057  -5.8054  -5.7909  -5.7902
    -5.7876  -5.7871  -5.7567  -5.7372  -5.7178  -5.7147  -5.6714  -5.6711
    -5.6586  -5.5661  -5.5658  -5.5624  -5.5617  -5.5588  -5.5507  -5.5506
    -5.5415  -5.5413  -5.5223  -5.5215  -5.5209  -5.4897  -5.4885  -5.4880
    -5.4596  -5.4552  -5.4543  -5.4446  -5.4431  -5.4315  -5.4305  -5.4103
    -5.3932  -5.3923  -5.3404  -5.2648  -5.2642  -5.2499  -5.2484  -5.2481
    -5.2479  -5.2392  -5.2354  -5.2345  -5.1955  -5.1892  -5.1868  -5.1861
    -5.1818  -5.1790  -5.1786  -5.1765  -5.1704  -5.1425  -5.1375  -5.0950
    -5.0784  -5.0776  -5.0527  -5.0518  -5.0495  -5.0417  -5.0381  -5.0264
    -5.0103  -4.9990  -4.9983  -4.9900  -4.9736  -4.9668  -4.9656  -4.9588
    -4.9524  -4.9431  -4.8943  -4.8756  -4.8677  -4.8675  -4.8660  -4.8641
    -4.8602  -4.8368  -4.8344  -4.7966  -4.7944  -4.7700  -4.7391  -4.7165
    -4.7070  -4.6694  -4.6617  -4.6292  -4.6248  -4.6248  -4.6096  -4.6078
    -4.5963  -4.5963  -4.5885  -4.5744  -4.5646  -4.2286  -4.2257  -4.1993
    -4.1989

          k = 0.0000-0.7071 0.0000 (200506 PWs)   bands (ev):

   -46.3731 -46.3717 -46.3649 -46.3649 -46.3594 -46.3583 -46.3562 -46.3561
   -46.3561 -46.3561 -46.3555 -46.3476 -46.3475 -46.3428 -46.3416 -46.3334
   -45.8587 -45.8578 -45.8553 -45.8551 -45.8486 -45.8479 -45.8468 -45.8465
   -45.8465 -45.8462 -45.8442 -45.8430 -45.8381 -45.8377 -45.8343 -45.8333
   -45.7072 -45.7070 -45.6968 -45.6965 -45.6963 -45.6959 -45.6890 -45.6888
   -45.6846 -45.6845 -45.6841 -45.6838 -45.6821 -45.6810 -45.6789 -45.6755
   -45.4057 -45.4036 -45.4029 -45.4028 -45.3944 -45.3944 -45.3944 -45.3944
   -45.3880 -45.3862 -45.3861 -45.3747 -45.3708 -45.3655 -45.3632 -45.3492
   -28.9642 -28.7336 -27.4665 -27.2657 -24.7607 -24.7605 -24.7494 -24.7475
   -24.6800 -24.6798 -24.6797 -24.6796 -24.6689 -24.6668 -24.6648 -24.6621
   -24.5947 -24.5947 -24.5806 -24.5777 -24.5297 -24.5294 -24.4147 -24.4146
   -24.4144 -24.4143 -24.3030 -24.3028 -24.2307 -24.2306 -24.2290 -24.2286
   -24.2226 -24.2224 -24.2219 -24.2215 -24.1170 -24.1165 -24.1064 -24.1055
   -24.0813 -24.0810 -24.0804 -24.0801 -24.0444 -24.0435 -24.0430 -24.0426
   -24.0054 -24.0053 -24.0029 -24.0025 -23.4346 -23.4309 -23.4309 -23.4297
   -23.3624 -23.3624 -23.3623 -23.3623 -23.3617 -23.3579 -23.3528 -23.3506
   -23.2916 -23.2916 -23.2845 -23.2797 -18.0097 -16.4295 -14.2435 -12.9895
   -11.3404 -11.2667 -10.9043 -10.7091  -9.7509  -9.2337  -8.5394  -8.1423
    -7.7141  -7.4185  -7.4183  -7.4125  -7.4111  -7.3307  -7.2774  -7.2539
    -7.2531  -7.2527  -7.2518  -7.2143  -7.2139  -7.1402  -7.1400  -7.0962
    -7.0945  -7.0942  -7.0936  -7.0627  -7.0625  -7.0610  -7.0609  -7.0541
    -7.0530  -7.0528  -7.0527  -7.0489  -7.0453  -7.0258  -7.0074  -6.9962
    -6.9262  -6.9260  -6.9258  -6.9254  -6.8734  -6.8682  -6.8679  -6.8674
    -6.8657  -6.8205  -6.8195  -6.8191  -6.8184  -6.7911  -6.7763  -6.7756
    -6.6306  -6.6280  -6.6276  -6.6273  -6.6172  -6.6008  -6.6008  -6.5898
    -6.5891  -6.5596  -6.5590  -6.5588  -6.5581  -6.3829  -6.3826  -6.3825
    -6.3820  -6.3310  -6.3307  -6.3305  -6.3300  -6.2866  -6.2856  -6.1030
    -6.0455  -6.0454  -6.0414  -6.0408  -6.0082  -6.0080  -6.0076  -6.0072
    -5.9659  -5.9658  -5.9632  -5.9616  -5.9429  -5.9419  -5.9276  -5.9276
    -5.9273  -5.9272  -5.8168  -5.8162  -5.7874  -5.7856  -5.7813  -5.7806
    -5.7670  -5.7669  -5.7667  -5.7665  -5.6503  -5.6502  -5.6501  -5.6495
    -5.6250  -5.6238  -5.5964  -5.5949  -5.5675  -5.5673  -5.5671  -5.5670
    -5.5412  -5.5402  -5.5400  -5.5396  -5.5040  -5.5035  -5.4971  -5.4970
    -5.4970  -5.4966  -5.4485  -5.4484  -5.4483  -5.4476  -5.3907  -5.3905
    -5.3903  -5.3900  -5.3780  -5.3778  -5.3778  -5.3776  -5.2618  -5.2617
    -5.2590  -5.2586  -5.2580  -5.2573  -5.2283  -5.2281  -5.2252  -5.2237
    -5.1930  -5.1648  -5.1645  -5.1521  -5.1512  -5.0888  -5.0857  -5.0813
    -5.0806  -5.0772  -5.0772  -5.0722  -5.0692  -5.0324  -5.0315  -5.0312
    -5.0309  -5.0230  -5.0207  -5.0181  -5.0178  -4.9546  -4.9538  -4.9518
    -4.9514  -4.9075  -4.9072  -4.8990  -4.8980  -4.8382  -4.8367  -4.8360
    -4.8343  -4.8101  -4.8081  -4.8076  -4.8062  -4.7385  -4.7369  -4.7308
    -4.7229  -4.6421  -4.6398  -4.6359  -4.6314  -4.6224  -4.6209  -4.6112
    -4.6110  -4.6096  -4.5919  -4.5908  -4.5699  -4.2196  -4.2129  -4.2128
    -4.2094

          k = 0.2500 0.0000 0.0000 (200254 PWs)   bands (ev):

   -46.3732 -46.3712 -46.3651 -46.3630 -46.3602 -46.3601 -46.3587 -46.3581
   -46.3548 -46.3532 -46.3523 -46.3485 -46.3477 -46.3426 -46.3416 -46.3333
   -45.8600 -45.8563 -45.8558 -45.8526 -45.8519 -45.8496 -45.8482 -45.8476
   -45.8445 -45.8435 -45.8424 -45.8415 -45.8390 -45.8378 -45.8347 -45.8330
   -45.7094 -45.7026 -45.6990 -45.6968 -45.6944 -45.6942 -45.6902 -45.6886
   -45.6866 -45.6854 -45.6846 -45.6839 -45.6821 -45.6791 -45.6787 -45.6750
   -45.4056 -45.4035 -45.4024 -45.4017 -45.3978 -45.3973 -45.3915 -45.3908
   -45.3880 -45.3872 -45.3861 -45.3744 -45.3708 -45.3652 -45.3631 -45.3491
   -28.9642 -28.7335 -27.4665 -27.2657 -24.7804 -24.7620 -24.7301 -24.7275
   -24.7210 -24.7090 -24.6954 -24.6815 -24.6501 -24.6458 -24.6358 -24.6330
   -24.6104 -24.5938 -24.5922 -24.5764 -24.5617 -24.4953 -24.3904 -24.3883
   -24.3859 -24.3489 -24.3466 -24.2898 -24.2874 -24.2826 -24.2683 -24.2474
   -24.2448 -24.2323 -24.1840 -24.1827 -24.1811 -24.1717 -24.1380 -24.1354
   -24.0715 -24.0699 -24.0476 -24.0352 -24.0316 -24.0274 -24.0232 -24.0211
   -24.0192 -24.0090 -23.9898 -23.9821 -23.4522 -23.4495 -23.4092 -23.4054
   -23.4015 -23.3996 -23.3682 -23.3580 -23.3509 -23.3472 -23.3200 -23.3158
   -23.3089 -23.2989 -23.2852 -23.2735 -18.0096 -16.4294 -14.2435 -12.9898
   -11.3400 -11.2669 -10.9038 -10.7091  -9.7510  -9.2339  -8.5377  -8.1407
    -7.7140  -7.5799  -7.5632  -7.5358  -7.3421  -7.3303  -7.3221  -7.3196
    -7.3113  -7.3103  -7.2802  -7.2725  -7.2563  -7.2162  -7.1405  -7.1386
    -7.1100  -7.0939  -7.0938  -7.0569  -7.0525  -7.0353  -7.0251  -7.0237
    -6.9874  -6.9796  -6.9578  -6.9162  -6.9143  -6.9054  -6.8808  -6.8801
    -6.8778  -6.8770  -6.8698  -6.8450  -6.8417  -6.8110  -6.7960  -6.7931
    -6.7887  -6.7781  -6.7728  -6.7596  -6.7585  -6.7554  -6.7391  -6.7370
    -6.7331  -6.7015  -6.6878  -6.6391  -6.6372  -6.6177  -6.5742  -6.5723
    -6.5310  -6.5025  -6.4987  -6.4976  -6.4548  -6.4431  -6.4359  -6.4072
    -6.3754  -6.3696  -6.3406  -6.3386  -6.3377  -6.2947  -6.2685  -6.2662
    -6.2531  -6.1873  -6.1756  -6.1500  -6.1392  -6.1236  -6.1221  -6.1196
    -6.1010  -6.0691  -6.0301  -6.0294  -6.0119  -6.0074  -5.9788  -5.9737
    -5.9500  -5.9398  -5.9045  -5.9011  -5.8852  -5.8659  -5.7848  -5.7719
    -5.7619  -5.7483  -5.7131  -5.7064  -5.7013  -5.6853  -5.6799  -5.6640
    -5.6638  -5.6458  -5.6006  -5.5992  -5.5990  -5.5817  -5.5517  -5.5506
    -5.5233  -5.5154  -5.5030  -5.4938  -5.4307  -5.4252  -5.4250  -5.4139
    -5.4089  -5.4080  -5.4065  -5.3760  -5.3694  -5.3673  -5.3657  -5.3321
    -5.3255  -5.2666  -5.2658  -5.2460  -5.2457  -5.2454  -5.2434  -5.2429
    -5.2371  -5.2345  -5.2341  -5.2113  -5.2089  -5.2060  -5.2043  -5.1949
    -5.1915  -5.1909  -5.1847  -5.1606  -5.1585  -5.1530  -5.1465  -5.1453
    -5.1310  -5.1062  -5.1048  -5.0659  -5.0654  -5.0637  -5.0592  -5.0590
    -5.0537  -5.0045  -4.9913  -4.9798  -4.9796  -4.9776  -4.9648  -4.9627
    -4.9490  -4.9257  -4.9208  -4.9195  -4.9183  -4.9171  -4.9024  -4.8941
    -4.8594  -4.8136  -4.7762  -4.7452  -4.7418  -4.7398  -4.7223  -4.7021
    -4.6863  -4.6579  -4.6339  -4.6323  -4.6222  -4.6097  -4.6086  -4.5968
    -4.5891  -4.5766  -4.5599  -4.5140  -4.5029  -4.2787  -4.2767  -4.2492
    -4.2487

          k = 0.2500 0.3536 0.0000 (200411 PWs)   bands (ev):

   -46.3731 -46.3715 -46.3648 -46.3636 -46.3601 -46.3599 -46.3589 -46.3583
   -46.3549 -46.3532 -46.3524 -46.3484 -46.3479 -46.3426 -46.3416 -46.3334
   -45.8595 -45.8566 -45.8556 -45.8534 -45.8514 -45.8494 -45.8488 -45.8479
   -45.8443 -45.8433 -45.8427 -45.8418 -45.8389 -45.8380 -45.8346 -45.8332
   -45.7086 -45.7030 -45.7019 -45.6971 -45.6938 -45.6929 -45.6901 -45.6877
   -45.6866 -45.6858 -45.6848 -45.6830 -45.6826 -45.6796 -45.6788 -45.6752
   -45.4056 -45.4036 -45.4023 -45.4021 -45.3977 -45.3974 -45.3915 -45.3909
   -45.3881 -45.3871 -45.3864 -45.3745 -45.3709 -45.3653 -45.3632 -45.3492
   -28.9642 -28.7335 -27.4665 -27.2657 -24.7728 -24.7567 -24.7371 -24.7277
   -24.7226 -24.7055 -24.6999 -24.6859 -24.6494 -24.6464 -24.6358 -24.6332
   -24.6078 -24.5949 -24.5914 -24.5789 -24.5522 -24.4872 -24.4651 -24.4129
   -24.3806 -24.3323 -24.3239 -24.2860 -24.2854 -24.2682 -24.2600 -24.2404
   -24.2365 -24.2262 -24.1876 -24.1788 -24.1743 -24.1493 -24.1353 -24.1068
   -24.0755 -24.0624 -24.0558 -24.0500 -24.0482 -24.0413 -24.0325 -24.0234
   -24.0130 -24.0125 -23.9985 -23.9872 -23.4455 -23.4426 -23.4121 -23.4087
   -23.4032 -23.3938 -23.3743 -23.3642 -23.3464 -23.3427 -23.3246 -23.3204
   -23.3055 -23.2954 -23.2887 -23.2771 -18.0097 -16.4295 -14.2436 -12.9896
   -11.3402 -11.2668 -10.9040 -10.7091  -9.7509  -9.2338  -8.5387  -8.1416
    -7.7140  -7.5134  -7.4878  -7.4759  -7.3306  -7.3168  -7.3057  -7.2813
    -7.2737  -7.2728  -7.2634  -7.2583  -7.2393  -7.1735  -7.1456  -7.1289
    -7.1006  -7.0815  -7.0797  -7.0719  -7.0690  -7.0631  -7.0388  -7.0305
    -7.0258  -7.0037  -6.9969  -6.9958  -6.9897  -6.9838  -6.9745  -6.9621
    -6.9252  -6.9234  -6.9000  -6.8790  -6.8708  -6.8676  -6.8625  -6.8575
    -6.8559  -6.8459  -6.7910  -6.7884  -6.7753  -6.7640  -6.7295  -6.7120
    -6.7040  -6.6665  -6.6531  -6.6348  -6.6206  -6.6160  -6.5853  -6.5750
    -6.5592  -6.4852  -6.4761  -6.4738  -6.4673  -6.4601  -6.4526  -6.4424
    -6.4038  -6.3504  -6.3063  -6.2854  -6.2597  -6.2487  -6.2015  -6.1913
    -6.1789  -6.1492  -6.1491  -6.1140  -6.1022  -6.0796  -6.0643  -6.0451
    -6.0334  -6.0206  -6.0014  -5.9961  -5.9833  -5.9594  -5.9580  -5.9540
    -5.9352  -5.9292  -5.9162  -5.8725  -5.8671  -5.8297  -5.7963  -5.7662
    -5.7633  -5.7460  -5.7442  -5.7070  -5.6812  -5.6769  -5.6634  -5.6519
    -5.6490  -5.6428  -5.6174  -5.6023  -5.5890  -5.5859  -5.5595  -5.4988
    -5.4852  -5.4825  -5.4797  -5.4780  -5.4731  -5.4671  -5.4559  -5.4477
    -5.4470  -5.4376  -5.4321  -5.4282  -5.4251  -5.4122  -5.3929  -5.3888
    -5.3411  -5.3395  -5.3281  -5.3205  -5.2921  -5.2858  -5.2855  -5.2740
    -5.2655  -5.2398  -5.2396  -5.2317  -5.2203  -5.2177  -5.2060  -5.1978
    -5.1874  -5.1843  -5.1682  -5.1505  -5.1310  -5.1237  -5.1188  -5.1084
    -5.1035  -5.1023  -5.0966  -5.0831  -5.0796  -5.0442  -5.0295  -5.0268
    -5.0224  -5.0149  -5.0064  -5.0041  -4.9820  -4.9789  -4.9778  -4.9627
    -4.9608  -4.9556  -4.9490  -4.9389  -4.9338  -4.9141  -4.8882  -4.8812
    -4.8800  -4.7803  -4.7635  -4.7435  -4.7385  -4.7351  -4.7196  -4.7107
    -4.6913  -4.6578  -4.6382  -4.6251  -4.6221  -4.6139  -4.6082  -4.5959
    -4.5803  -4.5753  -4.5571  -4.5238  -4.5127  -4.2755  -4.2733  -4.2525
    -4.2521

          k = 0.2500-0.7071 0.0000 (200442 PWs)   bands (ev):

   -46.3730 -46.3717 -46.3642 -46.3642 -46.3600 -46.3595 -46.3594 -46.3584
   -46.3548 -46.3528 -46.3527 -46.3482 -46.3482 -46.3426 -46.3417 -46.3334
   -45.8585 -45.8576 -45.8547 -45.8545 -45.8504 -45.8500 -45.8489 -45.8483
   -45.8437 -45.8434 -45.8429 -45.8421 -45.8387 -45.8383 -45.8345 -45.8334
   -45.7065 -45.7064 -45.7003 -45.6998 -45.6924 -45.6922 -45.6889 -45.6887
   -45.6858 -45.6857 -45.6847 -45.6840 -45.6815 -45.6806 -45.6788 -45.6754
   -45.4056 -45.4036 -45.4022 -45.4022 -45.3976 -45.3976 -45.3912 -45.3912
   -45.3881 -45.3868 -45.3867 -45.3745 -45.3709 -45.3653 -45.3632 -45.3492
   -28.9642 -28.7336 -27.4665 -27.2657 -24.7548 -24.7546 -24.7438 -24.7420
   -24.7111 -24.7110 -24.6975 -24.6950 -24.6478 -24.6477 -24.6358 -24.6334
   -24.6014 -24.6013 -24.5867 -24.5838 -24.5215 -24.5212 -24.4609 -24.4606
   -24.3635 -24.3633 -24.2964 -24.2961 -24.2666 -24.2663 -24.2508 -24.2505
   -24.2047 -24.2044 -24.2015 -24.2012 -24.1148 -24.1141 -24.1024 -24.1012
   -24.0947 -24.0942 -24.0662 -24.0660 -24.0620 -24.0619 -24.0241 -24.0231
   -24.0175 -24.0168 -23.9996 -23.9993 -23.4315 -23.4262 -23.4257 -23.4257
   -23.3888 -23.3888 -23.3802 -23.3779 -23.3356 -23.3355 -23.3333 -23.3299
   -23.2971 -23.2971 -23.2886 -23.2839 -18.0097 -16.4295 -14.2435 -12.9895
   -11.3402 -11.2667 -10.9042 -10.7090  -9.7508  -9.2336  -8.5393  -8.1423
    -7.7139  -7.3847  -7.3842  -7.3670  -7.3661  -7.3305  -7.2772  -7.2340
    -7.2332  -7.2050  -7.2044  -7.1975  -7.1970  -7.1786  -7.1781  -7.1240
    -7.1238  -7.0932  -7.0929  -7.0904  -7.0901  -7.0875  -7.0872  -7.0644
    -7.0629  -7.0384  -7.0341  -7.0329  -7.0274  -7.0193  -7.0005  -6.9920
    -6.9825  -6.9813  -6.9567  -6.9564  -6.9419  -6.9404  -6.9215  -6.9213
    -6.9176  -6.9148  -6.8693  -6.7928  -6.7910  -6.7901  -6.7766  -6.7761
    -6.6543  -6.6543  -6.6209  -6.5993  -6.5990  -6.5705  -6.5697  -6.5610
    -6.5605  -6.5125  -6.5118  -6.4343  -6.4329  -6.4264  -6.4259  -6.3923
    -6.3912  -6.2895  -6.2886  -6.2749  -6.2741  -6.1874  -6.1872  -6.1844
    -6.1837  -6.1027  -6.0680  -6.0673  -6.0202  -6.0198  -6.0054  -6.0050
    -5.9908  -5.9900  -5.9550  -5.9546  -5.9347  -5.9339  -5.9065  -5.9055
    -5.8912  -5.8899  -5.8812  -5.8804  -5.8313  -5.8312  -5.7664  -5.7661
    -5.7484  -5.7482  -5.7047  -5.7040  -5.6989  -5.6986  -5.6689  -5.6683
    -5.6362  -5.6356  -5.6283  -5.6277  -5.6258  -5.6255  -5.6188  -5.6176
    -5.5267  -5.5263  -5.4866  -5.4862  -5.4729  -5.4723  -5.4601  -5.4600
    -5.4422  -5.4417  -5.4223  -5.4221  -5.3994  -5.3994  -5.3978  -5.3972
    -5.3547  -5.3541  -5.3508  -5.3507  -5.3381  -5.3380  -5.3197  -5.3191
    -5.3027  -5.3019  -5.2232  -5.2224  -5.2055  -5.2053  -5.1966  -5.1964
    -5.1959  -5.1837  -5.1822  -5.1633  -5.1626  -5.1582  -5.1578  -5.0991
    -5.0979  -5.0910  -5.0892  -5.0708  -5.0704  -5.0598  -5.0546  -5.0323
    -5.0310  -4.9935  -4.9934  -4.9760  -4.9752  -4.9719  -4.9716  -4.9612
    -4.9599  -4.9487  -4.9480  -4.9395  -4.9394  -4.9291  -4.9286  -4.8796
    -4.8789  -4.7615  -4.7601  -4.7338  -4.7337  -4.7291  -4.7284  -4.7145
    -4.6964  -4.6547  -4.6476  -4.6272  -4.6248  -4.6094  -4.6074  -4.5941
    -4.5776  -4.5489  -4.5489  -4.5406  -4.5352  -4.2683  -4.2627  -4.2626
    -4.2589

          k =-0.5000 0.0000 0.0000 (200370 PWs)   bands (ev):

   -46.3732 -46.3712 -46.3634 -46.3628 -46.3617 -46.3611 -46.3607 -46.3583
   -46.3544 -46.3508 -46.3501 -46.3499 -46.3492 -46.3425 -46.3417 -46.3334
   -45.8596 -45.8559 -45.8547 -45.8542 -45.8517 -45.8508 -45.8501 -45.8482
   -45.8431 -45.8419 -45.8410 -45.8405 -45.8402 -45.8389 -45.8350 -45.8332
   -45.7083 -45.7048 -45.6982 -45.6966 -45.6962 -45.6913 -45.6903 -45.6898
   -45.6869 -45.6852 -45.6848 -45.6838 -45.6820 -45.6791 -45.6790 -45.6750
   -45.4056 -45.4035 -45.4009 -45.4004 -45.4003 -45.3998 -45.3892 -45.3886
   -45.3884 -45.3882 -45.3877 -45.3744 -45.3710 -45.3651 -45.3632 -45.3492
   -28.9642 -28.7335 -27.4665 -27.2657 -24.7622 -24.7577 -24.7468 -24.7334
   -24.7166 -24.7158 -24.7139 -24.6955 -24.6250 -24.6243 -24.6194 -24.6161
   -24.6158 -24.6087 -24.6014 -24.5918 -24.5381 -24.5335 -24.3753 -24.3739
   -24.3723 -24.3694 -24.3261 -24.3254 -24.2659 -24.2647 -24.2640 -24.2630
   -24.2599 -24.2598 -24.1697 -24.1665 -24.1650 -24.1643 -24.1631 -24.1577
   -24.0462 -24.0434 -24.0419 -24.0397 -24.0356 -24.0342 -24.0333 -24.0290
   -24.0242 -24.0218 -23.9842 -23.9796 -23.4468 -23.4337 -23.4331 -23.4130
   -23.4016 -23.3886 -23.3879 -23.3677 -23.3320 -23.3261 -23.3255 -23.3065
   -23.3044 -23.2995 -23.2989 -23.2788 -18.0097 -16.4294 -14.2436 -12.9899
   -11.3400 -11.2670 -10.9039 -10.7092  -9.7509  -9.2339  -8.5378  -8.1408
    -7.7139  -7.4916  -7.4855  -7.4655  -7.4633  -7.4103  -7.4043  -7.3306
    -7.2770  -7.2465  -7.2372  -7.1991  -7.1980  -7.1960  -7.1813  -7.1662
    -7.1598  -7.1437  -7.1411  -7.1091  -7.1077  -7.1049  -7.1005  -7.0216
    -6.9826  -6.9814  -6.9777  -6.9768  -6.8710  -6.8464  -6.8438  -6.8428
    -6.8359  -6.8243  -6.8229  -6.8220  -6.8217  -6.8203  -6.8154  -6.8117
    -6.8108  -6.8062  -6.7999  -6.7872  -6.7612  -6.7610  -6.7598  -6.7541
    -6.6591  -6.6570  -6.6533  -6.6501  -6.6181  -6.5929  -6.5877  -6.5644
    -6.5600  -6.5317  -6.5262  -6.5150  -6.5144  -6.5112  -6.5043  -6.3355
    -6.3331  -6.3300  -6.3288  -6.2908  -6.2857  -6.2581  -6.2567  -6.2119
    -6.2048  -6.1798  -6.1796  -6.1765  -6.1714  -6.1035  -6.0991  -6.0922
    -6.0885  -6.0821  -6.0624  -6.0547  -6.0356  -6.0301  -6.0217  -6.0187
    -6.0172  -6.0049  -5.9056  -5.9036  -5.8532  -5.8524  -5.8492  -5.8415
    -5.7277  -5.7271  -5.6902  -5.6900  -5.6511  -5.6488  -5.6401  -5.6378
    -5.5997  -5.5987  -5.5959  -5.5949  -5.5906  -5.5874  -5.5592  -5.5573
    -5.5122  -5.5089  -5.5071  -5.5063  -5.5059  -5.5029  -5.4635  -5.4618
    -5.3421  -5.3380  -5.3374  -5.3344  -5.3324  -5.3311  -5.3278  -5.3274
    -5.3273  -5.3237  -5.3022  -5.3019  -5.2993  -5.2971  -5.2156  -5.2067
    -5.2063  -5.2029  -5.1986  -5.1973  -5.1965  -5.1906  -5.1888  -5.1871
    -5.1834  -5.1816  -5.1801  -5.1786  -5.1759  -5.1674  -5.1570  -5.1538
    -5.1474  -5.0940  -5.0913  -5.0908  -5.0887  -5.0885  -5.0849  -5.0345
    -5.0317  -5.0295  -5.0236  -5.0212  -5.0060  -4.9894  -4.9789  -4.9784
    -4.9619  -4.9608  -4.9492  -4.9323  -4.9309  -4.9306  -4.9113  -4.9000
    -4.8985  -4.7984  -4.7770  -4.7298  -4.7184  -4.7071  -4.7046  -4.7040
    -4.6741  -4.6423  -4.6325  -4.6239  -4.6235  -4.6233  -4.6036  -4.5988
    -4.5761  -4.4020  -4.4010  -4.3977  -4.3967  -4.3920  -4.3916  -4.3883
    -4.3851

          k =-0.5000 0.3536 0.0000 (200424 PWs)   bands (ev):

   -46.3730 -46.3714 -46.3632 -46.3625 -46.3620 -46.3613 -46.3606 -46.3584
   -46.3544 -46.3506 -46.3501 -46.3500 -46.3494 -46.3425 -46.3417 -46.3335
   -45.8591 -45.8564 -45.8543 -45.8537 -45.8522 -45.8508 -45.8504 -45.8486
   -45.8429 -45.8416 -45.8412 -45.8408 -45.8401 -45.8391 -45.8349 -45.8334
   -45.7077 -45.7042 -45.7020 -45.6988 -45.6927 -45.6899 -45.6895 -45.6887
   -45.6875 -45.6864 -45.6858 -45.6828 -45.6823 -45.6794 -45.6789 -45.6752
   -45.4056 -45.4035 -45.4008 -45.4005 -45.4002 -45.3998 -45.3891 -45.3886
   -45.3885 -45.3882 -45.3879 -45.3744 -45.3711 -45.3651 -45.3632 -45.3492
   -28.9642 -28.7335 -27.4665 -27.2657 -24.7555 -24.7514 -24.7425 -24.7285
   -24.7231 -24.7218 -24.7192 -24.7015 -24.6237 -24.6231 -24.6182 -24.6171
   -24.6170 -24.6102 -24.6002 -24.5930 -24.5291 -24.5246 -24.4465 -24.4425
   -24.3231 -24.3224 -24.3099 -24.3061 -24.2930 -24.2925 -24.2683 -24.2635
   -24.2283 -24.2274 -24.1724 -24.1712 -24.1625 -24.1562 -24.1352 -24.1281
   -24.0558 -24.0526 -24.0513 -24.0483 -24.0446 -24.0445 -24.0315 -24.0286
   -24.0278 -24.0237 -23.9910 -23.9864 -23.4404 -23.4272 -23.4266 -23.4082
   -23.4063 -23.3953 -23.3946 -23.3744 -23.3281 -23.3223 -23.3217 -23.3085
   -23.3035 -23.3028 -23.3026 -23.2827 -18.0097 -16.4295 -14.2435 -12.9897
   -11.3402 -11.2668 -10.9040 -10.7091  -9.7508  -9.2337  -8.5387  -8.1417
    -7.7138  -7.4185  -7.4167  -7.4004  -7.3943  -7.3637  -7.3578  -7.3306
    -7.2768  -7.2103  -7.2081  -7.1967  -7.1884  -7.1856  -7.1793  -7.1626
    -7.1564  -7.1255  -7.1234  -7.1203  -7.1152  -7.0475  -7.0423  -7.0318
    -7.0302  -7.0265  -7.0252  -7.0202  -6.9815  -6.9809  -6.9689  -6.9654
    -6.9138  -6.9092  -6.9079  -6.9010  -6.9009  -6.8981  -6.8748  -6.8700
    -6.8664  -6.8428  -6.8322  -6.7902  -6.7723  -6.7637  -6.7002  -6.6975
    -6.6617  -6.6589  -6.6564  -6.6557  -6.6248  -6.6207  -6.6149  -6.5400
    -6.5396  -6.5322  -6.5257  -6.4375  -6.4310  -6.4135  -6.4105  -6.3644
    -6.3623  -6.3076  -6.3042  -6.2455  -6.2451  -6.2244  -6.2238  -6.1350
    -6.1309  -6.1035  -6.1025  -6.1017  -6.0979  -6.0868  -6.0826  -6.0772
    -6.0759  -6.0704  -6.0268  -6.0197  -6.0071  -6.0022  -5.9658  -5.9620
    -5.9614  -5.9514  -5.9342  -5.9338  -5.9328  -5.9322  -5.7692  -5.7662
    -5.7171  -5.7156  -5.7078  -5.7071  -5.7045  -5.7032  -5.6635  -5.6609
    -5.6421  -5.6419  -5.6288  -5.6256  -5.5591  -5.5583  -5.5417  -5.5384
    -5.4718  -5.4695  -5.4607  -5.4605  -5.4486  -5.4429  -5.4312  -5.4293
    -5.4114  -5.4102  -5.3661  -5.3654  -5.3601  -5.3594  -5.3588  -5.3498
    -5.3488  -5.3426  -5.3218  -5.3184  -5.3062  -5.3024  -5.2984  -5.2967
    -5.2630  -5.2623  -5.2522  -5.2484  -5.2236  -5.2223  -5.2046  -5.1997
    -5.1939  -5.1881  -5.1829  -5.1639  -5.1619  -5.1418  -5.1392  -5.1267
    -5.1213  -5.0886  -5.0833  -5.0818  -5.0741  -5.0728  -5.0722  -5.0658
    -5.0642  -5.0456  -5.0399  -5.0372  -5.0330  -4.9739  -4.9633  -4.9625
    -4.9512  -4.9457  -4.9454  -4.9341  -4.9308  -4.9194  -4.9179  -4.9052
    -4.8952  -4.7791  -4.7592  -4.7283  -4.7239  -4.7097  -4.7083  -4.7052
    -4.6779  -4.6462  -4.6374  -4.6352  -4.6311  -4.6105  -4.6025  -4.5941
    -4.5750  -4.4006  -4.3984  -4.3968  -4.3963  -4.3924  -4.3921  -4.3894
    -4.3849

          k =-0.5000-0.7071 0.0000 (200236 PWs)   bands (ev):

   -46.3728 -46.3716 -46.3626 -46.3626 -46.3620 -46.3619 -46.3605 -46.3584
   -46.3543 -46.3502 -46.3502 -46.3496 -46.3495 -46.3424 -46.3416 -46.3333
   -45.8582 -45.8573 -45.8534 -45.8533 -45.8524 -45.8520 -45.8499 -45.8492
   -45.8425 -45.8414 -45.8411 -45.8410 -45.8397 -45.8392 -45.8345 -45.8335
   -45.7057 -45.7055 -45.7026 -45.7017 -45.6896 -45.6888 -45.6886 -45.6882
   -45.6880 -45.6876 -45.6851 -45.6841 -45.6808 -45.6801 -45.6784 -45.6751
   -45.4056 -45.4035 -45.4007 -45.4006 -45.4000 -45.4000 -45.3887 -45.3887
   -45.3882 -45.3881 -45.3880 -45.3743 -45.3710 -45.3650 -45.3631 -45.3491
   -28.9642 -28.7335 -27.4665 -27.2657 -24.7395 -24.7390 -24.7366 -24.7364
   -24.7319 -24.7308 -24.7170 -24.7141 -24.6204 -24.6203 -24.6203 -24.6200
   -24.6151 -24.6131 -24.5982 -24.5950 -24.4999 -24.4996 -24.4958 -24.4953
   -24.3130 -24.3126 -24.3123 -24.3120 -24.2799 -24.2795 -24.2755 -24.2751
   -24.1954 -24.1950 -24.1943 -24.1940 -24.1107 -24.1092 -24.1045 -24.1041
   -24.0906 -24.0893 -24.0833 -24.0823 -24.0425 -24.0414 -24.0383 -24.0376
   -24.0088 -24.0079 -24.0043 -24.0031 -23.4274 -23.4213 -23.4113 -23.4113
   -23.4107 -23.4107 -23.3911 -23.3898 -23.3200 -23.3165 -23.3129 -23.3128
   -23.3122 -23.3122 -23.2950 -23.2903 -18.0096 -16.4294 -14.2434 -12.9893
   -11.3401 -11.2666 -10.9040 -10.7089  -9.7506  -9.2334  -8.5392  -8.1422
    -7.7136  -7.3309  -7.2951  -7.2918  -7.2915  -7.2911  -7.2748  -7.2457
    -7.2451  -7.2382  -7.2355  -7.1529  -7.1524  -7.1472  -7.1468  -7.1396
    -7.1390  -7.1367  -7.1356  -7.1183  -7.1180  -7.1167  -7.1161  -7.0873
    -7.0871  -7.0812  -7.0806  -7.0491  -7.0487  -7.0454  -7.0448  -7.0276
    -6.9820  -6.9815  -6.9795  -6.9787  -6.9782  -6.9781  -6.9677  -6.9562
    -6.8694  -6.7918  -6.7887  -6.7886  -6.7867  -6.7864  -6.7849  -6.7842
    -6.7784  -6.7780  -6.6204  -6.6042  -6.6036  -6.6000  -6.5994  -6.5273
    -6.5271  -6.5214  -6.5197  -6.3423  -6.3419  -6.3409  -6.3408  -6.3110
    -6.3105  -6.3055  -6.3039  -6.1583  -6.1569  -6.1568  -6.1565  -6.1338
    -6.1325  -6.1282  -6.1269  -6.1031  -6.0649  -6.0633  -6.0625  -6.0618
    -6.0312  -6.0301  -6.0293  -6.0283  -5.9873  -5.9866  -5.9833  -5.9825
    -5.8601  -5.8594  -5.8545  -5.8541  -5.7454  -5.7448  -5.7443  -5.7430
    -5.7164  -5.7159  -5.7159  -5.7150  -5.7049  -5.7040  -5.7021  -5.7013
    -5.6622  -5.6618  -5.6586  -5.6580  -5.6553  -5.6549  -5.6514  -5.6502
    -5.4493  -5.4484  -5.4463  -5.4457  -5.4339  -5.4334  -5.4319  -5.4315
    -5.4249  -5.4243  -5.4228  -5.4220  -5.4150  -5.4143  -5.4112  -5.4102
    -5.3706  -5.3698  -5.3666  -5.3659  -5.2725  -5.2721  -5.2721  -5.2717
    -5.2615  -5.2610  -5.2598  -5.2592  -5.2034  -5.2020  -5.1977  -5.1948
    -5.1912  -5.1693  -5.1685  -5.1631  -5.1611  -5.1415  -5.1411  -5.1403
    -5.1399  -5.1296  -5.1289  -5.1254  -5.1228  -5.0352  -5.0314  -5.0298
    -5.0298  -5.0284  -5.0265  -5.0148  -5.0123  -5.0010  -4.9999  -4.9952
    -4.9935  -4.9628  -4.9622  -4.9543  -4.9538  -4.9096  -4.9092  -4.8960
    -4.8948  -4.7412  -4.7365  -4.7249  -4.7245  -4.7245  -4.7241  -4.7066
    -4.6844  -4.6489  -4.6397  -4.6375  -4.6327  -4.6053  -4.6014  -4.5905
    -4.5735  -4.3997  -4.3946  -4.3944  -4.3939  -4.3939  -4.3937  -4.3919
    -4.3846

          k =-0.2500 0.3536 0.0000 (200411 PWs)   bands (ev):

   -46.3731 -46.3715 -46.3648 -46.3636 -46.3601 -46.3599 -46.3589 -46.3583
   -46.3549 -46.3532 -46.3524 -46.3484 -46.3479 -46.3426 -46.3416 -46.3334
   -45.8595 -45.8566 -45.8556 -45.8534 -45.8514 -45.8494 -45.8488 -45.8479
   -45.8443 -45.8433 -45.8427 -45.8418 -45.8389 -45.8380 -45.8346 -45.8332
   -45.7086 -45.7030 -45.7019 -45.6971 -45.6938 -45.6929 -45.6901 -45.6877
   -45.6866 -45.6858 -45.6849 -45.6830 -45.6826 -45.6796 -45.6788 -45.6752
   -45.4056 -45.4036 -45.4023 -45.4021 -45.3977 -45.3974 -45.3915 -45.3909
   -45.3881 -45.3871 -45.3864 -45.3745 -45.3709 -45.3653 -45.3632 -45.3492
   -28.9642 -28.7335 -27.4665 -27.2657 -24.7728 -24.7567 -24.7371 -24.7277
   -24.7226 -24.7055 -24.6999 -24.6859 -24.6494 -24.6464 -24.6358 -24.6332
   -24.6078 -24.5949 -24.5914 -24.5789 -24.5522 -24.4872 -24.4651 -24.4129
   -24.3806 -24.3323 -24.3239 -24.2859 -24.2854 -24.2682 -24.2600 -24.2404
   -24.2365 -24.2262 -24.1876 -24.1788 -24.1743 -24.1493 -24.1353 -24.1068
   -24.0755 -24.0624 -24.0558 -24.0500 -24.0482 -24.0413 -24.0325 -24.0234
   -24.0130 -24.0125 -23.9985 -23.9872 -23.4455 -23.4426 -23.4121 -23.4087
   -23.4032 -23.3938 -23.3743 -23.3642 -23.3464 -23.3427 -23.3246 -23.3204
   -23.3055 -23.2954 -23.2887 -23.2771 -18.0097 -16.4294 -14.2435 -12.9897
   -11.3402 -11.2668 -10.9040 -10.7091  -9.7508  -9.2338  -8.5386  -8.1416
    -7.7139  -7.5134  -7.4877  -7.4759  -7.3307  -7.3168  -7.3057  -7.2814
    -7.2738  -7.2726  -7.2637  -7.2583  -7.2393  -7.1735  -7.1456  -7.1289
    -7.1006  -7.0814  -7.0797  -7.0720  -7.0691  -7.0632  -7.0388  -7.0305
    -7.0256  -7.0038  -6.9969  -6.9958  -6.9897  -6.9837  -6.9746  -6.9621
    -6.9252  -6.9234  -6.8999  -6.8786  -6.8712  -6.8675  -6.8623  -6.8576
    -6.8560  -6.8459  -6.7915  -6.7879  -6.7752  -6.7640  -6.7295  -6.7120
    -6.7040  -6.6665  -6.6533  -6.6345  -6.6211  -6.6159  -6.5852  -6.5749
    -6.5593  -6.4852  -6.4761  -6.4737  -6.4673  -6.4601  -6.4526  -6.4424
    -6.4039  -6.3504  -6.3063  -6.2854  -6.2597  -6.2487  -6.2015  -6.1913
    -6.1789  -6.1492  -6.1491  -6.1140  -6.1027  -6.0794  -6.0643  -6.0451
    -6.0334  -6.0206  -6.0014  -5.9961  -5.9833  -5.9594  -5.9580  -5.9540
    -5.9352  -5.9292  -5.9162  -5.8725  -5.8671  -5.8297  -5.7963  -5.7662
    -5.7632  -5.7460  -5.7442  -5.7070  -5.6812  -5.6769  -5.6634  -5.6519
    -5.6490  -5.6428  -5.6174  -5.6023  -5.5890  -5.5859  -5.5595  -5.4988
    -5.4852  -5.4825  -5.4797  -5.4780  -5.4731  -5.4671  -5.4559  -5.4477
    -5.4471  -5.4377  -5.4321  -5.4282  -5.4250  -5.4122  -5.3929  -5.3887
    -5.3411  -5.3395  -5.3282  -5.3205  -5.2921  -5.2858  -5.2855  -5.2740
    -5.2655  -5.2400  -5.2396  -5.2316  -5.2204  -5.2177  -5.2060  -5.1971
    -5.1881  -5.1839  -5.1684  -5.1506  -5.1310  -5.1238  -5.1188  -5.1083
    -5.1035  -5.1023  -5.0966  -5.0832  -5.0796  -5.0442  -5.0295  -5.0267
    -5.0224  -5.0149  -5.0065  -5.0041  -4.9822  -4.9788  -4.9778  -4.9627
    -4.9608  -4.9555  -4.9492  -4.9384  -4.9338  -4.9142  -4.8882  -4.8813
    -4.8799  -4.7805  -4.7634  -4.7433  -4.7385  -4.7351  -4.7195  -4.7107
    -4.6914  -4.6578  -4.6383  -4.6251  -4.6221  -4.6140  -4.6082  -4.5959
    -4.5804  -4.5752  -4.5569  -4.5238  -4.5128  -4.2754  -4.2733  -4.2525
    -4.2521

     highest occupied level (ev):    -4.1934

!    total energy              =   -4345.71237645 Ry
     estimated scf accuracy    <          1.1E-11 Ry

     The total energy is the sum of the following terms:
     one-electron contribution = -103130.32341170 Ry
     hartree contribution      =   51709.06687798 Ry
     xc contribution           =    -998.22232447 Ry
     ewald contribution        =   48073.76648175 Ry

     convergence has been achieved in   8 iterations

     Forces acting on atoms (cartesian axes, Ry/au):

     atom    1 type  1   force =     0.00000003    0.00000002   -0.00013081
     atom    2 type  1   force =     0.00000852    0.00000072   -0.00023148
     atom    3 type  1   force =     0.00000350   -0.00000091   -0.00023318
     atom    4 type  1   force =    -0.00000004   -0.00000004   -0.00013064
     atom    5 type  2   force =    -0.00000495    0.00000043    0.00026897
     atom    6 type  2   force =     0.00000112    0.00000041    0.00015454
     atom    7 type  2   force =    -0.00000262   -0.00000036    0.00015096
     atom    8 type  2   force =    -0.00000211    0.00000032    0.00027952
     atom    9 type  1   force =     0.00000686   -0.00000048   -0.00020830
     atom   10 type  1   force =     0.00000545   -0.00000893   -0.00022386
     atom   11 type  1   force =     0.00001481    0.00000187   -0.00020241
     atom   12 type  1   force =    -0.00000260   -0.00000027   -0.00021022
     atom   13 type  2   force =    -0.00000520    0.00000067    0.00019343
     atom   14 type  2   force =    -0.00001160    0.00000004    0.00009560
     atom   15 type  2   force =     0.00000460    0.00000385    0.00010440
     atom   16 type  2   force =    -0.00001078    0.00000162    0.00014378
     atom   17 type  1   force =    -0.00000650   -0.00000079   -0.00012606
     atom   18 type  1   force =    -0.00000973   -0.00002810   -0.00004586
     atom   19 type  1   force =     0.00001455   -0.00007413   -0.00022455
     atom   20 type  1   force =     0.00002116   -0.00000359   -0.00012116
     atom   21 type  2   force =     0.00004635    0.00003400    0.00020914
     atom   22 type  2   force =     0.00001015    0.00003044    0.00022097
     atom   23 type  2   force =    -0.00003190    0.00000764    0.00021583
     atom   24 type  2   force =    -0.00003065    0.00002529    0.00033049
     atom   25 type  1   force =    -0.00002542    0.00001018    0.00010379
     atom   26 type  1   force =    -0.00008852   -0.00017125   -0.00010812
     atom   27 type  1   force =    -0.00039880    0.00025950   -0.00015313
     atom   28 type  1   force =     0.00002789    0.00000698    0.00009189
     atom   29 type  2   force =     0.00004629    0.00003042   -0.00003330
     atom   30 type  2   force =     0.00040229    0.00001047   -0.00003054
     atom   31 type  2   force =    -0.00025908    0.00006412   -0.00013222
     atom   32 type  2   force =     0.00042007    0.00011872    0.00032489
     atom   33 type  1   force =    -0.00000004    0.00000027   -0.00013175
     atom   34 type  1   force =     0.00000861   -0.00000037   -0.00023077
     atom   35 type  1   force =     0.00000368    0.00000125   -0.00023273
     atom   36 type  1   force =     0.00000002    0.00000033   -0.00013168
     atom   37 type  2   force =    -0.00000494   -0.00000010    0.00026084
     atom   38 type  2   force =     0.00000114   -0.00000010    0.00015449
     atom   39 type  2   force =    -0.00000260    0.00000067    0.00015068
     atom   40 type  2   force =    -0.00000208    0.00000001    0.00028462
     atom   41 type  1   force =     0.00001306    0.00000078   -0.00021502
     atom   42 type  1   force =     0.00000638    0.00000890   -0.00022117
     atom   43 type  1   force =     0.00001555   -0.00000193   -0.00019660
     atom   44 type  1   force =    -0.00000496    0.00000050   -0.00021659
     atom   45 type  2   force =    -0.00000327   -0.00000088    0.00023772
     atom   46 type  2   force =    -0.00001162    0.00000024    0.00009419
     atom   47 type  2   force =     0.00000465   -0.00000364    0.00010442
     atom   48 type  2   force =    -0.00000883   -0.00000214    0.00007203
     atom   49 type  1   force =    -0.00002398    0.00000283   -0.00017136
     atom   50 type  1   force =    -0.00000636    0.00003879   -0.00000388
     atom   51 type  1   force =     0.00002740    0.00009029   -0.00021122
     atom   52 type  1   force =     0.00004901    0.00000192   -0.00022464
     atom   53 type  2   force =     0.00005491   -0.00000153   -0.00020220
     atom   54 type  2   force =     0.00001153   -0.00002668    0.00022398
     atom   55 type  2   force =    -0.00002821   -0.00000867    0.00021063
     atom   56 type  2   force =     0.00003701    0.00000558    0.00052182
     atom   57 type  1   force =    -0.00089429    0.00010939   -0.00063181
     atom   58 type  1   force =    -0.00006601    0.00018743   -0.00010540
     atom   59 type  1   force =    -0.00038563   -0.00009253   -0.00015559
     atom   60 type  1   force =     0.00030855    0.00001063    0.00007034
     atom   61 type  2   force =     0.00010738    0.00000020    0.00014455
     atom   62 type  2   force =     0.00033769    0.00020870   -0.00011837
     atom   63 type  2   force =    -0.00024991   -0.00003973   -0.00012144
     atom   64 type  2   force =     0.00064309    0.00034168   -0.00016860
     atom   65 type  1   force =    -0.00000000   -0.00000006   -0.00013064
     atom   66 type  1   force =    -0.00000847   -0.00000038   -0.00023263
     atom   67 type  1   force =    -0.00000354    0.00000050   -0.00023105
     atom   68 type  1   force =     0.00000003   -0.00000000   -0.00013084
     atom   69 type  2   force =     0.00000492    0.00000026    0.00027435
     atom   70 type  2   force =    -0.00000093   -0.00000137    0.00014155
     atom   71 type  2   force =     0.00000244   -0.00000059    0.00014522
     atom   72 type  2   force =     0.00000215    0.00000038    0.00026357
     atom   73 type  1   force =    -0.00000695   -0.00000033   -0.00020767
     atom   74 type  1   force =    -0.00000737    0.00000005   -0.00019420
     atom   75 type  1   force =    -0.00001287   -0.00000426   -0.00021387
     atom   76 type  1   force =     0.00000269   -0.00000061   -0.00020539
     atom   77 type  2   force =     0.00000712    0.00000101    0.00011735
     atom   78 type  2   force =     0.00000985   -0.00000108    0.00008248
     atom   79 type  2   force =    -0.00000288   -0.00000487    0.00007339
     atom   80 type  2   force =     0.00000887    0.00000052    0.00016814
     atom   81 type  1   force =     0.00000506   -0.00000554   -0.00013559
     atom   82 type  1   force =    -0.00001164   -0.00003612   -0.00012315
     atom   83 type  1   force =     0.00000278   -0.00003174    0.00004386
     atom   84 type  1   force =    -0.00001992   -0.00000214   -0.00013935
     atom   85 type  2   force =    -0.00002538    0.00001587    0.00026543
     atom   86 type  2   force =     0.00000526   -0.00002653    0.00023468
     atom   87 type  2   force =     0.00001689   -0.00000030    0.00023259
     atom   88 type  2   force =     0.00000373    0.00003152    0.00014882
     atom   89 type  1   force =     0.00006730    0.00002293   -0.00001325
     atom   90 type  1   force =     0.00013248    0.00029467    0.00002202
     atom   91 type  1   force =     0.00031971    0.00003179   -0.00007824
     atom   92 type  1   force =    -0.00007258    0.00004315   -0.00001433
     atom   93 type  2   force =    -0.00011557    0.00007158    0.00045806
     atom   94 type  2   force =    -0.00041746    0.00014964    0.00043028
     atom   95 type  2   force =     0.00021242    0.00023914    0.00063625
     atom   96 type  2   force =    -0.00035675    0.00002620    0.00010950
     atom   97 type  1   force =    -0.00000007    0.00000035   -0.00013183
     atom   98 type  1   force =    -0.00000852    0.00000072   -0.00023231
     atom   99 type  1   force =    -0.00000376   -0.00000015   -0.00023050
     atom  100 type  1   force =     0.00000010    0.00000029   -0.00013193
     atom  101 type  2   force =     0.00000490    0.00000007    0.00027494
     atom  102 type  2   force =    -0.00000094    0.00000168    0.00014119
     atom  103 type  2   force =     0.00000242    0.00000091    0.00014515
     atom  104 type  2   force =     0.00000213   -0.00000003    0.00025792
     atom  105 type  1   force =    -0.00000969    0.00000060   -0.00021246
     atom  106 type  1   force =    -0.00000872   -0.00000018   -0.00019131
     atom  107 type  1   force =    -0.00001319    0.00000447   -0.00021215
     atom  108 type  1   force =     0.00000156    0.00000094   -0.00020999
     atom  109 type  2   force =     0.00000473   -0.00000156    0.00007801
     atom  110 type  2   force =     0.00000986    0.00000135    0.00008197
     atom  111 type  2   force =    -0.00000291    0.00000521    0.00007101
     atom  112 type  2   force =     0.00000730   -0.00000035    0.00017298
     atom  113 type  1   force =     0.00000004    0.00000166   -0.00023269
     atom  114 type  1   force =    -0.00001787    0.00004500   -0.00011539
     atom  115 type  1   force =    -0.00000763    0.00004489    0.00004749
     atom  116 type  1   force =    -0.00002383    0.00000168   -0.00020426
     atom  117 type  2   force =    -0.00006191    0.00000219    0.00026551
     atom  118 type  2   force =     0.00000314    0.00002247    0.00022054
     atom  119 type  2   force =     0.00001383    0.00000070    0.00022873
     atom  120 type  2   force =    -0.00002201    0.00000384   -0.00005913
     atom  121 type  1   force =     0.00053794    0.00006543   -0.00069845
     atom  122 type  1   force =     0.00012661   -0.00010181   -0.00005378
     atom  123 type  1   force =     0.00030880    0.00000182   -0.00007458
     atom  124 type  1   force =    -0.00025526    0.00014556   -0.00108247
     atom  125 type  2   force =    -0.00035262    0.00019638    0.00015464
     atom  126 type  2   force =    -0.00036309   -0.00001311    0.00035930
     atom  127 type  2   force =     0.00022665    0.00008166    0.00046484
     atom  128 type  2   force =    -0.00055663    0.00001232    0.00004763
     atom  129 type  3   force =     0.00035548   -0.00008582   -0.00011732
     atom  130 type  3   force =    -0.00002039   -0.00052378    0.00052821
     atom  131 type  4   force =     0.00005713   -0.00006798   -0.00000997
     atom  132 type  4   force =    -0.00010930    0.00002545    0.00011152
     atom  133 type  4   force =    -0.00014847    0.00009440   -0.00022771
     atom  134 type  3   force =     0.00030319    0.00012909   -0.00020906
     atom  135 type  2   force =     0.00011057   -0.00116331    0.00007571
     atom  136 type  4   force =    -0.00004098    0.00010589    0.00039571
     atom  137 type  3   force =    -0.00011559   -0.00013413    0.00089409
     atom  138 type  2   force =     0.00013871   -0.00075947   -0.00119187
     atom  139 type  4   force =     0.00004790    0.00010280    0.00033405
     atom  140 type  2   force =     0.00006754   -0.00008680   -0.00053095
     atom  141 type  2   force =     0.00002705   -0.00030704    0.00001169
     atom  142 type  4   force =    -0.00003562    0.00018144    0.00001804

     Total force =     0.004195     Total SCF correction =     0.000006


     Computing stress (Cartesian axis) and pressure

          total   stress  (Ry/bohr**3)                   (kbar)     P=      -51.73
  -0.00029183   0.00000009  -0.00000019          -42.93        0.01       -0.03
   0.00000009  -0.00042961  -0.00000039            0.01      -63.20       -0.06
  -0.00000019  -0.00000039  -0.00033351           -0.03       -0.06      -49.06

     Energy error            =      3.2E-05 Ry
     Gradient error          =      1.2E-03 Ry/Bohr

     number of scf cycles    =   7
     number of bfgs steps    =   6

     energy             old  =   -4345.7123446223 Ry
     energy             new  =   -4345.7123764502 Ry

     CASE: energy            _new < energy            _old

     new trust radius        =       0.0076259029 bohr
     new conv_thr            =            1.0E-10 Ry


ATOMIC_POSITIONS (angstrom)
Li              -0.0000090497       -0.0000004113       15.2267568208
Li               4.3312465803        2.0417257413       16.3552647222
Li               1.4437560477        2.0417161784       16.3551740584
Li               2.8874422852       -0.0000007199       15.2267715646
F                4.3310490421        0.0000014789       16.4344070771
F                0.0000151504        2.0417105783       15.0824902978
F                2.8873827370        2.0417070782       15.0824540906
F                1.4436774620        0.0000010243       16.4345470802
Li               2.8876183960        8.1668526899       17.9583121363
Li               1.4438971070        2.0417170220       19.3060176356
Li               4.3316144791        2.0418072261       19.3066037041
Li              11.5495882765        8.1668543597       17.9582213061
F                1.4435558418        0.0000072188       19.3290626289
F                2.8872225653        2.0416858973       17.9151008187
F                0.0000835467        2.0417077415       17.9152523284
F                4.3307411673        0.0000127199       19.3282661069
Li              11.5492331422        8.1668455444       20.8026976482
Li               4.3332574020        2.0422633547       22.1528683932
Li               1.4445734608        2.0415817912       22.1493880772
Li               2.8883710100        8.1668230877       20.8030872468
F                4.3294311870        0.0001664243       22.1861039020
F               11.5500538737        2.0417279053       20.7747513070
F                2.8865312071        2.0415614805       20.7742332686
F                1.4429004129        0.0001332800       22.1895237337
Li               2.8910360429       -0.0000831399       23.7524126079
Li               1.4444837574        2.0398373711       24.8715455618
Li               4.3377130041        2.0488659548       24.8890358423
Li              11.5477695666        0.0000150509       23.7513138799
F                1.4427375059        0.0003417337       25.0288121136
F                2.8862497919        2.0405445490       23.6704368397
F                0.0002605856        2.0418357979       23.6712258031
F                4.3276916371        0.0017179688       25.0208126035
Li              -0.0000096751        4.0834286101       15.2267573251
Li               4.3312468684        6.1251305558       16.3552686917
Li               1.4437570461        6.1251401320       16.3551767405
Li               2.8874446763        4.0834288681       15.2267738100
F                4.3310473730        4.0834261205       16.4343494689
F                0.0000151544        6.1251454695       15.0824900425
F                2.8873827337        6.1251489312       15.0824528650
F                1.4436760138        4.0834266028       16.4345531001
Li               2.8876672017        4.0834322331       17.9583452167
Li               1.4439058002        6.1251381726       19.3060380602
Li               4.3316171447        6.1250487040       19.3066401349
Li              11.5495745834        4.0834303476       17.9582295447
F                1.4435484273        4.0834187907       19.3292043362
F                2.8872221556        6.1251704803       17.9150894664
F                0.0000835091        6.1251483863       17.9152494847
F                4.3307314231        4.0834135337       19.3277299342
Li              -0.0005705787        4.0834429647       20.8026569689
Li               4.3332738988        6.1245630031       22.1532651502
Li               1.4446948202        6.1253254953       22.1495266581
Li               2.8887591853        4.0834507628       20.8030675666
F                4.3294104429        4.0832651333       22.1816148847
F               11.5500562062        6.1251361495       20.7747486599
F                2.8865413985        6.1252809572       20.7741661413
F                1.4429387792        4.0833995413       22.1906911526
Li               2.8895146463        4.0841972188       23.7491538324
Li               1.4447006140        6.1272771674       24.8715847525
Li               4.3382666540        6.1202952633       24.8899890456
Li              -0.0016743780        4.0835180382       23.7509721637
F                1.4432644587        4.0834935590       25.0349551459
F                2.8856590073        6.1276839536       23.6698038489
F               11.5499627745        6.1251834323       23.6712153920
F                4.3182329683        4.0900850306       24.9952976685
Li               5.7748471844       -0.0000007731       15.2268079643
Li              10.1058488084        2.0417187176       16.3552126349
Li               7.2185009602        2.0417253307       16.3553023177
Li               8.6622339350       -0.0000004906       15.2267929766
F               10.1060461054        0.0000006707       16.4344817069
F                5.7748236444        2.0417024190       15.0823600546
F                8.6622929432        2.0417059722       15.0823960111
F                7.2185799212        8.1668580433       16.4343415352
Li               8.6620583194        8.1668540671       17.9584587554
Li               7.2183566898        2.0417996991       19.3068522304
Li              10.1054839633        2.0417432023       19.3062843041
Li               5.7749253997        8.1668522377       17.9585504944
F                7.2187060611        0.0000087939       19.3278768292
F                8.6624457746        2.0416791018       17.9148495998
F                5.7747620801        2.0416575870       17.9146965380
F               10.1063491835        8.1668616906       19.3286675725
Li               5.7752610677        8.1668158877       20.8041028745
Li              10.1036940812        2.0418414911       22.1511786640
Li               7.2178132148        2.0422168376       22.1544363434
Li               8.6613246756        8.1668383910       20.8037307454
F               10.1077945059        0.0000700268       22.1876559194
F                5.7745481891        2.0413175635       20.7728422671
F                8.6630585496        2.0415073606       20.7733432062
F                7.2192046494        0.0001391265       22.1843675997
Li               8.6591403350        8.1669290565       23.7551455942
Li               7.2167564845        2.0503710367       24.8973250824
Li              10.1004274948        2.0440937201       24.8816424329
Li               5.7762342617        0.0000341380       23.7564248501
F                7.2195721438        0.0010130723       25.0161733485
F                8.6628660294        2.0409122189       23.6687005767
F                5.7747810402        2.0408386693       23.6680755486
F               10.1093114844        0.0003086900       25.0232979448
Li               5.7748468549        4.0834289157       15.2268123324
Li              10.1058486642        6.1251376107       16.3552145864
Li               7.2184998203        6.1251309874       16.3553054633
Li               8.6622324422        4.0834286274       15.2267955992
F               10.1060476679        4.0834269743       16.4344679973
F                5.7748236182        6.1251536008       15.0823584268
F                8.6622928994        6.1251501450       15.0823956800
F                7.2185812243        4.0834264755       16.4342902340
Li               8.6620277912        4.0834307528       17.9585029822
Li               7.2183470118        6.1250557013       19.3068748036
Li              10.1054822692        6.1251126776       19.3062967937
Li               5.7749207881        4.0834327987       17.9586205278
F                7.2187130055        4.0834170870       19.3274614470
F                8.6624462090        6.1251771910       17.9148455474
F                5.7747622677        6.1251990137       17.9146823748
F               10.1063585526        4.0834223170       19.3285884903
Li               5.7752099512        4.0834503655       20.8043760496
Li              10.1036610726        6.1250368595       22.1512400675
Li               7.2177052998        6.1246379641       22.1545603177
Li               8.6611195460        4.0834409844       20.8039070223
F               10.1078316453        4.0834105588       22.1870844857
F                5.7745427549        6.1255119184       20.7727418269
F                8.6630515035        6.1253423673       20.7733198084
F                7.2192263762        4.0833401905       22.1812866099
Li               8.6597224447        4.0838042449       23.7550904303
Li               7.2163298865        6.1190035985       24.8962394293
Li              10.1005169217        6.1232472014       24.8816573872
Li               5.7753235583        4.0843568261       23.7560282340
F                7.2202492814        4.0870816172       24.9988485295
F                8.6632872417        6.1267654895       23.6683321012
F                5.7750108298        6.1279386222       23.6668623679
F               10.1118986192        4.0837313565       25.0196867734
C                3.7951983029        4.0096397693       29.4480598729
C                5.1570447287        4.1973559555       28.8076943897
H                3.0239310281        4.2008550674       28.6935734766
H                3.6888698848        2.9823130312       29.8148708964
H                3.6645551933        4.7072182852       30.2834930865
C                6.3330752427        3.9745560638       29.7637108988
F                5.2645944944        3.3317863204       27.7393053460
H                6.2419583276        2.9607993635       30.1775990867
C                7.7497181031        4.1102936419       29.2163897580
F                5.2217565046        5.4803658860       28.2837604720
H                6.2337434830        4.6813486753       30.5988922913
F                7.9802393849        5.3637470464       28.7027840068
F                8.0042030624        3.1987419308       28.2245541743
H                8.4963579923        3.9426075058       30.0116764635



     Writing config-only to output data dir ./tmp/LiF_PVDF/LiF_PVDF.save/ :
     XML data file
     NEW-OLD atomic charge density approx. for the potential

     total cpu time spent up to now is     2907.0 secs

     per-process dynamical memory:   151.3 Mb

     Self-consistent Calculation

     iteration #  1     ecut=    60.00 Ry     beta= 0.30
     Davidson diagonalization with overlap
     ethr =  1.00E-06,  avg # of iterations =  4.0

     Threshold (ethr) on eigenvalues was too large:
     Diagonalizing with lowered threshold

     Davidson diagonalization with overlap
     ethr =  2.10E-09,  avg # of iterations =  4.0

     total cpu time spent up to now is     2991.4 secs

     total energy              =   -4345.71241797 Ry
     estimated scf accuracy    <       0.00001760 Ry

     iteration #  2     ecut=    60.00 Ry     beta= 0.30
     Davidson diagonalization with overlap
     ethr =  2.55E-09,  avg # of iterations =  2.0

     total cpu time spent up to now is     3020.8 secs

     total energy              =   -4345.71241675 Ry
     estimated scf accuracy    <       0.00000636 Ry

     iteration #  3     ecut=    60.00 Ry     beta= 0.30
     Davidson diagonalization with overlap
     ethr =  9.22E-10,  avg # of iterations =  3.0

     total cpu time spent up to now is     3055.5 secs

     total energy              =   -4345.71241743 Ry
     estimated scf accuracy    <       0.00000044 Ry

     iteration #  4     ecut=    60.00 Ry     beta= 0.30
     Davidson diagonalization with overlap
     ethr =  6.40E-11,  avg # of iterations =  3.0

     total cpu time spent up to now is     3087.1 secs

     total energy              =   -4345.71241748 Ry
     estimated scf accuracy    <       0.00000003 Ry

     iteration #  5     ecut=    60.00 Ry     beta= 0.30
     Davidson diagonalization with overlap
     ethr =  4.69E-12,  avg # of iterations =  2.9

     total cpu time spent up to now is     3117.7 secs

     total energy              =   -4345.71241749 Ry
     estimated scf accuracy    <          5.8E-09 Ry

     iteration #  6     ecut=    60.00 Ry     beta= 0.30
     Davidson diagonalization with overlap
     ethr =  8.46E-13,  avg # of iterations =  4.0

     total cpu time spent up to now is     3155.1 secs

     total energy              =   -4345.71241748 Ry
     estimated scf accuracy    <          1.0E-09 Ry

     iteration #  7     ecut=    60.00 Ry     beta= 0.30
     Davidson diagonalization with overlap
     ethr =  1.52E-13,  avg # of iterations =  4.9

     total cpu time spent up to now is     3196.2 secs

     total energy              =   -4345.71241748 Ry
     estimated scf accuracy    <          6.0E-10 Ry

     iteration #  8     ecut=    60.00 Ry     beta= 0.30
     Davidson diagonalization with overlap
     ethr =  1.00E-13,  avg # of iterations =  4.0

     total cpu time spent up to now is     3232.0 secs

     End of self-consistent calculation

          k = 0.0000 0.0000 0.0000 (200173 PWs)   bands (ev):

   -46.3736 -46.3714 -46.3660 -46.3643 -46.3642 -46.3639 -46.3632 -46.3631
   -46.3557 -46.3544 -46.3518 -46.3501 -46.3481 -46.3338 -46.3330 -46.3238
   -45.8602 -45.8572 -45.8554 -45.8539 -45.8500 -45.8496 -45.8477 -45.8473
   -45.8457 -45.8435 -45.8406 -45.8404 -45.8390 -45.8378 -45.8291 -45.8271
   -45.7101 -45.7003 -45.6988 -45.6981 -45.6960 -45.6925 -45.6919 -45.6877
   -45.6858 -45.6850 -45.6836 -45.6835 -45.6820 -45.6773 -45.6756 -45.6719
   -45.4083 -45.4075 -45.4031 -45.3997 -45.3996 -45.3994 -45.3992 -45.3991
   -45.3918 -45.3903 -45.3822 -45.3666 -45.3655 -45.3579 -45.3528 -45.3395
   -28.9579 -28.7269 -27.4619 -27.2618 -24.7910 -24.7657 -24.7408 -24.7205
   -24.6940 -24.6938 -24.6765 -24.6765 -24.6704 -24.6659 -24.6549 -24.6487
   -24.6112 -24.5897 -24.5824 -24.5693 -24.5623 -24.4427 -24.4426 -24.3958
   -24.3915 -24.3192 -24.3190 -24.3148 -24.3144 -24.2886 -24.2409 -24.2363
   -24.2192 -24.2150 -24.1978 -24.1972 -24.1928 -24.1857 -24.1073 -24.1072
   -24.1005 -24.0986 -24.0512 -24.0359 -24.0320 -24.0261 -24.0185 -24.0109
   -24.0043 -24.0013 -23.9962 -23.9857 -23.4627 -23.4480 -23.4138 -23.3998
   -23.3878 -23.3878 -23.3698 -23.3624 -23.3518 -23.3518 -23.3333 -23.3243
   -23.3105 -23.2879 -23.2866 -23.2603 -18.0028 -16.4223 -14.2390 -12.9850
   -11.3352 -11.2613 -10.8992 -10.7025  -9.7448  -9.2284  -8.5341  -8.1351
    -7.7087  -7.6108  -7.5931  -7.5874  -7.3661  -7.3499  -7.3467  -7.3259
    -7.3085  -7.3034  -7.2715  -7.1528  -7.1488  -7.1462  -7.1459  -7.1326
    -7.1323  -7.1305  -7.1292  -7.0231  -7.0051  -7.0046  -6.9940  -6.9927
    -6.9897  -6.9855  -6.9407  -6.9381  -6.9254  -6.9220  -6.9147  -6.9032
    -6.9026  -6.8669  -6.8586  -6.8522  -6.8260  -6.8256  -6.7857  -6.7685
    -6.7673  -6.7653  -6.7603  -6.7592  -6.7514  -6.7512  -6.7492  -6.7086
    -6.7011  -6.7010  -6.6871  -6.6847  -6.6159  -6.5955  -6.5952  -6.5482
    -6.5480  -6.5376  -6.5364  -6.5119  -6.5068  -6.5057  -6.5034  -6.4962
    -6.3926  -6.2732  -6.2673  -6.2660  -6.2648  -6.2493  -6.2261  -6.2113
    -6.2055  -6.2049  -6.2029  -6.2020  -6.2006  -6.1977  -6.1951  -6.1832
    -6.0977  -6.0564  -6.0561  -6.0112  -6.0023  -5.9984  -5.9815  -5.9742
    -5.9080  -5.9002  -5.8459  -5.8068  -5.8030  -5.8028  -5.8011  -5.8010
    -5.8010  -5.7998  -5.7989  -5.7381  -5.7097  -5.7091  -5.7088  -5.7053
    -5.7025  -5.5760  -5.5520  -5.5518  -5.5279  -5.5262  -5.5256  -5.5238
    -5.5218  -5.5185  -5.5171  -5.5092  -5.5088  -5.4977  -5.4972  -5.4915
    -5.4905  -5.4382  -5.4360  -5.4064  -5.4041  -5.3380  -5.2903  -5.2845
    -5.2671  -5.2635  -5.2631  -5.2562  -5.2505  -5.2436  -5.2418  -5.2414
    -5.2411  -5.2406  -5.2399  -5.2302  -5.2112  -5.2106  -5.2079  -5.2053
    -5.1852  -5.1748  -5.1726  -5.1696  -5.1578  -5.1573  -5.1535  -5.1535
    -5.1375  -5.0786  -5.0785  -5.0706  -5.0577  -5.0571  -5.0533  -5.0217
    -5.0166  -4.9977  -4.9935  -4.9748  -4.9748  -4.9548  -4.9394  -4.9177
    -4.9175  -4.8985  -4.8984  -4.8823  -4.8806  -4.8757  -4.8512  -4.8444
    -4.8419  -4.8327  -4.8327  -4.8293  -4.8197  -4.8137  -4.7374  -4.7134
    -4.6918  -4.6756  -4.6689  -4.6442  -4.6313  -4.6223  -4.6148  -4.6033
    -4.5892  -4.5892  -4.5769  -4.5545  -4.5506  -4.2394  -4.2266  -4.2013
    -4.1848

          k = 0.0000 0.3536 0.0000 (200366 PWs)   bands (ev):

   -46.3732 -46.3718 -46.3658 -46.3643 -46.3642 -46.3642 -46.3633 -46.3633
   -46.3554 -46.3550 -46.3517 -46.3503 -46.3482 -46.3339 -46.3331 -46.3239
   -45.8596 -45.8566 -45.8562 -45.8543 -45.8498 -45.8494 -45.8480 -45.8476
   -45.8454 -45.8438 -45.8404 -45.8402 -45.8395 -45.8381 -45.8289 -45.8275
   -45.7093 -45.7035 -45.6982 -45.6974 -45.6942 -45.6939 -45.6923 -45.6867
   -45.6857 -45.6849 -45.6842 -45.6824 -45.6821 -45.6780 -45.6759 -45.6721
   -45.4081 -45.4077 -45.4031 -45.3997 -45.3997 -45.3995 -45.3992 -45.3992
   -45.3915 -45.3909 -45.3823 -45.3666 -45.3655 -45.3579 -45.3529 -45.3396
   -28.9580 -28.7269 -27.4620 -27.2618 -24.7835 -24.7597 -24.7480 -24.7276
   -24.6914 -24.6912 -24.6789 -24.6789 -24.6684 -24.6637 -24.6572 -24.6514
   -24.6081 -24.5928 -24.5796 -24.5652 -24.5597 -24.4709 -24.4357 -24.4356
   -24.3727 -24.3725 -24.3281 -24.2919 -24.2600 -24.2598 -24.2378 -24.2330
   -24.2224 -24.2183 -24.2031 -24.2024 -24.1793 -24.1540 -24.1070 -24.1063
   -24.0778 -24.0764 -24.0665 -24.0560 -24.0467 -24.0439 -24.0154 -24.0153
   -24.0126 -24.0070 -23.9996 -23.9900 -23.4556 -23.4412 -23.4210 -23.4068
   -23.3826 -23.3826 -23.3647 -23.3572 -23.3572 -23.3572 -23.3385 -23.3296
   -23.3072 -23.2912 -23.2836 -23.2634 -18.0028 -16.4223 -14.2390 -12.9848
   -11.3354 -11.2612 -10.8994 -10.7025  -9.7449  -9.2283  -8.5350  -8.1360
    -7.7087  -7.5433  -7.5362  -7.5027  -7.3628  -7.3421  -7.3262  -7.2949
    -7.2898  -7.2852  -7.2711  -7.1545  -7.1477  -7.1449  -7.1247  -7.1244
    -7.1217  -7.1204  -7.0932  -7.0787  -7.0678  -7.0496  -7.0488  -7.0208
    -6.9825  -6.9678  -6.9669  -6.9643  -6.9626  -6.9606  -6.9589  -6.9246
    -6.9238  -6.9096  -6.8994  -6.8991  -6.8920  -6.8662  -6.8568  -6.8324
    -6.8319  -6.7879  -6.7868  -6.7851  -6.7680  -6.7483  -6.7472  -6.7097
    -6.7081  -6.6734  -6.6560  -6.6167  -6.6050  -6.5877  -6.5872  -6.5857
    -6.5844  -6.5287  -6.5275  -6.5212  -6.5208  -6.4774  -6.4565  -6.4468
    -6.4433  -6.4426  -6.2972  -6.2966  -6.2837  -6.2830  -6.2407  -6.1683
    -6.1672  -6.1428  -6.1105  -6.0980  -6.0921  -6.0685  -6.0683  -6.0652
    -6.0490  -6.0343  -6.0329  -5.9789  -5.9508  -5.9313  -5.9312  -5.8774
    -5.8759  -5.8654  -5.8623  -5.8287  -5.8057  -5.8055  -5.7897  -5.7893
    -5.7861  -5.7855  -5.7618  -5.7323  -5.7197  -5.7114  -5.6707  -5.6704
    -5.6579  -5.5655  -5.5650  -5.5620  -5.5612  -5.5574  -5.5506  -5.5495
    -5.5409  -5.5407  -5.5219  -5.5206  -5.5199  -5.4893  -5.4876  -5.4870
    -5.4588  -5.4551  -5.4529  -5.4442  -5.4424  -5.4307  -5.4303  -5.4088
    -5.3925  -5.3916  -5.3398  -5.2650  -5.2627  -5.2524  -5.2475  -5.2468
    -5.2455  -5.2383  -5.2345  -5.2336  -5.1934  -5.1897  -5.1861  -5.1845
    -5.1809  -5.1783  -5.1777  -5.1725  -5.1692  -5.1480  -5.1311  -5.0941
    -5.0774  -5.0766  -5.0574  -5.0572  -5.0486  -5.0365  -5.0319  -5.0260
    -5.0069  -5.0057  -5.0028  -4.9837  -4.9772  -4.9741  -4.9648  -4.9592
    -4.9460  -4.9339  -4.8927  -4.8756  -4.8747  -4.8746  -4.8627  -4.8583
    -4.8520  -4.8375  -4.8359  -4.7948  -4.7918  -4.7713  -4.7366  -4.7229
    -4.7002  -4.6701  -4.6642  -4.6309  -4.6256  -4.6202  -4.6143  -4.6048
    -4.6031  -4.6031  -4.5790  -4.5670  -4.5584  -4.2335  -4.2211  -4.2068
    -4.1900

          k = 0.0000-0.7071 0.0000 (200506 PWs)   bands (ev):

   -46.3726 -46.3726 -46.3656 -46.3645 -46.3639 -46.3638 -46.3638 -46.3638
   -46.3552 -46.3552 -46.3516 -46.3505 -46.3482 -46.3339 -46.3332 -46.3240
   -45.8580 -45.8579 -45.8561 -45.8551 -45.8490 -45.8488 -45.8487 -45.8484
   -45.8451 -45.8443 -45.8401 -45.8399 -45.8397 -45.8387 -45.8288 -45.8277
   -45.7073 -45.7070 -45.6967 -45.6965 -45.6960 -45.6957 -45.6894 -45.6885
   -45.6849 -45.6848 -45.6838 -45.6835 -45.6805 -45.6792 -45.6760 -45.6723
   -45.4080 -45.4080 -45.4032 -45.3996 -45.3995 -45.3995 -45.3995 -45.3994
   -45.3912 -45.3912 -45.3824 -45.3667 -45.3656 -45.3580 -45.3529 -45.3397
   -28.9580 -28.7269 -27.4620 -27.2618 -24.7656 -24.7655 -24.7452 -24.7433
   -24.6851 -24.6851 -24.6850 -24.6850 -24.6642 -24.6619 -24.6590 -24.6565
   -24.6005 -24.6004 -24.5739 -24.5711 -24.5285 -24.5281 -24.4134 -24.4132
   -24.4130 -24.4129 -24.3020 -24.3015 -24.2304 -24.2301 -24.2271 -24.2267
   -24.2212 -24.2209 -24.2198 -24.2194 -24.1176 -24.1167 -24.1065 -24.1035
   -24.0815 -24.0804 -24.0801 -24.0796 -24.0445 -24.0421 -24.0419 -24.0412
   -24.0075 -24.0074 -23.9997 -23.9981 -23.4384 -23.4384 -23.4273 -23.4208
   -23.3699 -23.3699 -23.3699 -23.3699 -23.3551 -23.3482 -23.3476 -23.3393
   -23.2992 -23.2992 -23.2790 -23.2681 -18.0028 -16.4223 -14.2390 -12.9847
   -11.3356 -11.2612 -10.8997 -10.7025  -9.7449  -9.2282  -8.5357  -8.1367
    -7.7087  -7.4222  -7.4221  -7.4086  -7.4074  -7.3266  -7.2732  -7.2535
    -7.2530  -7.2517  -7.2507  -7.2142  -7.2133  -7.1400  -7.1392  -7.0957
    -7.0939  -7.0938  -7.0932  -7.0630  -7.0627  -7.0593  -7.0585  -7.0530
    -7.0524  -7.0522  -7.0518  -7.0476  -7.0451  -7.0248  -7.0065  -6.9937
    -6.9254  -6.9252  -6.9251  -6.9248  -6.8714  -6.8679  -6.8676  -6.8670
    -6.8642  -6.8203  -6.8193  -6.8189  -6.8183  -6.7879  -6.7754  -6.7749
    -6.6299  -6.6279  -6.6276  -6.6275  -6.6153  -6.6062  -6.6061  -6.5849
    -6.5833  -6.5590  -6.5581  -6.5579  -6.5571  -6.3820  -6.3816  -6.3816
    -6.3811  -6.3302  -6.3299  -6.3296  -6.3292  -6.2860  -6.2851  -6.0993
    -6.0471  -6.0467  -6.0390  -6.0385  -6.0075  -6.0071  -6.0067  -6.0063
    -5.9666  -5.9662  -5.9613  -5.9583  -5.9421  -5.9411  -5.9271  -5.9270
    -5.9265  -5.9264  -5.8199  -5.8196  -5.7846  -5.7824  -5.7804  -5.7800
    -5.7664  -5.7661  -5.7660  -5.7656  -5.6501  -5.6501  -5.6492  -5.6483
    -5.6246  -5.6235  -5.5958  -5.5940  -5.5670  -5.5665  -5.5664  -5.5662
    -5.5408  -5.5396  -5.5387  -5.5382  -5.5026  -5.5020  -5.4965  -5.4960
    -5.4959  -5.4955  -5.4482  -5.4482  -5.4477  -5.4469  -5.3897  -5.3897
    -5.3895  -5.3893  -5.3775  -5.3772  -5.3770  -5.3768  -5.2608  -5.2607
    -5.2582  -5.2581  -5.2574  -5.2567  -5.2327  -5.2324  -5.2208  -5.2175
    -5.1888  -5.1636  -5.1629  -5.1519  -5.1504  -5.0860  -5.0842  -5.0841
    -5.0838  -5.0810  -5.0801  -5.0689  -5.0635  -5.0370  -5.0365  -5.0364
    -5.0360  -5.0179  -5.0141  -5.0121  -5.0092  -4.9553  -4.9540  -4.9516
    -4.9504  -4.9073  -4.9057  -4.8972  -4.8955  -4.8398  -4.8384  -4.8380
    -4.8373  -4.8086  -4.8046  -4.8039  -4.8029  -4.7429  -4.7426  -4.7244
    -4.7178  -4.6419  -4.6402  -4.6388  -4.6369  -4.6231  -4.6187  -4.6173
    -4.6172  -4.6040  -4.5858  -4.5816  -4.5643  -4.2207  -4.2207  -4.2132
    -4.1988

          k = 0.2500 0.0000 0.0000 (200254 PWs)   bands (ev):

   -46.3728 -46.3708 -46.3678 -46.3663 -46.3658 -46.3639 -46.3609 -46.3600
   -46.3562 -46.3553 -46.3524 -46.3503 -46.3475 -46.3337 -46.3331 -46.3239
   -45.8596 -45.8567 -45.8549 -45.8538 -45.8534 -45.8503 -45.8466 -45.8462
   -45.8446 -45.8440 -45.8410 -45.8398 -45.8397 -45.8373 -45.8292 -45.8274
   -45.7094 -45.7022 -45.6999 -45.6961 -45.6950 -45.6940 -45.6893 -45.6886
   -45.6868 -45.6852 -45.6843 -45.6828 -45.6817 -45.6774 -45.6759 -45.6720
   -45.4075 -45.4069 -45.4031 -45.4029 -45.4024 -45.3994 -45.3966 -45.3959
   -45.3923 -45.3912 -45.3823 -45.3667 -45.3654 -45.3578 -45.3529 -45.3396
   -28.9579 -28.7269 -27.4620 -27.2618 -24.7839 -24.7593 -24.7359 -24.7316
   -24.7166 -24.7045 -24.7012 -24.6753 -24.6550 -24.6516 -24.6312 -24.6279
   -24.6162 -24.5979 -24.5865 -24.5699 -24.5604 -24.4939 -24.3901 -24.3858
   -24.3845 -24.3485 -24.3440 -24.2894 -24.2850 -24.2816 -24.2670 -24.2469
   -24.2423 -24.2311 -24.1864 -24.1798 -24.1796 -24.1702 -24.1403 -24.1318
   -24.0737 -24.0668 -24.0476 -24.0356 -24.0315 -24.0269 -24.0254 -24.0183
   -24.0162 -24.0087 -23.9892 -23.9800 -23.4570 -23.4441 -23.4167 -23.4091
   -23.3971 -23.3918 -23.3758 -23.3585 -23.3494 -23.3394 -23.3276 -23.3165
   -23.3074 -23.2928 -23.2913 -23.2639 -18.0028 -16.4223 -14.2390 -12.9850
   -11.3352 -11.2614 -10.8992 -10.7026  -9.7449  -9.2284  -8.5341  -8.1352
    -7.7086  -7.5793  -7.5629  -7.5351  -7.3416  -7.3263  -7.3248  -7.3219
    -7.3107  -7.3052  -7.2777  -7.2712  -7.2555  -7.2156  -7.1412  -7.1369
    -7.1098  -7.0931  -7.0926  -7.0581  -7.0500  -7.0397  -7.0214  -7.0190
    -6.9873  -6.9791  -6.9573  -6.9152  -6.9138  -6.9046  -6.8821  -6.8804
    -6.8753  -6.8748  -6.8663  -6.8460  -6.8404  -6.8101  -6.7972  -6.7910
    -6.7856  -6.7809  -6.7696  -6.7593  -6.7588  -6.7532  -6.7389  -6.7367
    -6.7323  -6.7006  -6.6874  -6.6380  -6.6367  -6.6153  -6.5749  -6.5700
    -6.5306  -6.5031  -6.4986  -6.4954  -6.4539  -6.4424  -6.4351  -6.4077
    -6.3809  -6.3640  -6.3396  -6.3381  -6.3368  -6.2939  -6.2692  -6.2648
    -6.2522  -6.1897  -6.1723  -6.1491  -6.1381  -6.1265  -6.1212  -6.1155
    -6.0972  -6.0689  -6.0342  -6.0249  -6.0136  -6.0033  -5.9787  -5.9728
    -5.9493  -5.9396  -5.9059  -5.8983  -5.8841  -5.8648  -5.7845  -5.7712
    -5.7668  -5.7431  -5.7125  -5.7055  -5.7005  -5.6845  -5.6788  -5.6636
    -5.6626  -5.6449  -5.6024  -5.5979  -5.5964  -5.5805  -5.5519  -5.5489
    -5.5234  -5.5144  -5.5025  -5.4930  -5.4304  -5.4262  -5.4231  -5.4136
    -5.4087  -5.4067  -5.4051  -5.3749  -5.3685  -5.3656  -5.3655  -5.3315
    -5.3246  -5.2668  -5.2646  -5.2533  -5.2452  -5.2443  -5.2427  -5.2371
    -5.2358  -5.2347  -5.2322  -5.2099  -5.2077  -5.2057  -5.2030  -5.1940
    -5.1895  -5.1879  -5.1838  -5.1613  -5.1557  -5.1536  -5.1522  -5.1430
    -5.1252  -5.1058  -5.1034  -5.0708  -5.0660  -5.0646  -5.0641  -5.0514
    -5.0474  -5.0070  -4.9868  -4.9843  -4.9838  -4.9765  -4.9677  -4.9591
    -4.9453  -4.9258  -4.9256  -4.9202  -4.9189  -4.9128  -4.9013  -4.8853
    -4.8574  -4.8134  -4.7786  -4.7460  -4.7450  -4.7347  -4.7176  -4.7088
    -4.6797  -4.6590  -4.6399  -4.6255  -4.6238  -4.6162  -4.6093  -4.5945
    -4.5865  -4.5719  -4.5544  -4.5215  -4.4947  -4.2845  -4.2711  -4.2568
    -4.2396

          k = 0.2500 0.3536 0.0000 (200411 PWs)   bands (ev):

   -46.3725 -46.3713 -46.3676 -46.3666 -46.3657 -46.3642 -46.3609 -46.3601
   -46.3561 -46.3555 -46.3523 -46.3505 -46.3476 -46.3338 -46.3332 -46.3240
   -45.8590 -45.8563 -45.8558 -45.8543 -45.8529 -45.8508 -45.8464 -45.8460
   -45.8449 -45.8444 -45.8409 -45.8400 -45.8395 -45.8377 -45.8291 -45.8276
   -45.7087 -45.7032 -45.7016 -45.6971 -45.6938 -45.6927 -45.6904 -45.6872
   -45.6865 -45.6858 -45.6849 -45.6823 -45.6815 -45.6779 -45.6760 -45.6721
   -45.4074 -45.4072 -45.4032 -45.4028 -45.4025 -45.3995 -45.3966 -45.3960
   -45.3921 -45.3914 -45.3824 -45.3667 -45.3654 -45.3579 -45.3529 -45.3396
   -28.9579 -28.7269 -27.4620 -27.2618 -24.7767 -24.7536 -24.7428 -24.7271
   -24.7233 -24.7056 -24.7007 -24.6798 -24.6544 -24.6521 -24.6310 -24.6281
   -24.6135 -24.6005 -24.5843 -24.5723 -24.5510 -24.4858 -24.4638 -24.4115
   -24.3792 -24.3310 -24.3225 -24.2849 -24.2839 -24.2669 -24.2588 -24.2388
   -24.2353 -24.2245 -24.1860 -24.1773 -24.1744 -24.1488 -24.1351 -24.1056
   -24.0755 -24.0628 -24.0556 -24.0491 -24.0478 -24.0406 -24.0307 -24.0240
   -24.0126 -24.0106 -23.9976 -23.9853 -23.4501 -23.4375 -23.4162 -23.4108
   -23.4039 -23.3860 -23.3818 -23.3555 -23.3540 -23.3350 -23.3322 -23.3131
   -23.3118 -23.2963 -23.2882 -23.2671 -18.0028 -16.4223 -14.2390 -12.9849
   -11.3355 -11.2613 -10.8994 -10.7025  -9.7449  -9.2283  -8.5351  -8.1360
    -7.7086  -7.5132  -7.4870  -7.4753  -7.3266  -7.3220  -7.3008  -7.2785
    -7.2733  -7.2717  -7.2626  -7.2581  -7.2388  -7.1731  -7.1451  -7.1277
    -7.0993  -7.0810  -7.0791  -7.0748  -7.0687  -7.0598  -7.0405  -7.0278
    -7.0220  -7.0045  -6.9961  -6.9952  -6.9880  -6.9833  -6.9739  -6.9614
    -6.9265  -6.9210  -6.8994  -6.8788  -6.8685  -6.8664  -6.8615  -6.8564
    -6.8548  -6.8449  -6.7910  -6.7869  -6.7744  -6.7615  -6.7291  -6.7111
    -6.7042  -6.6694  -6.6501  -6.6342  -6.6194  -6.6142  -6.5843  -6.5746
    -6.5583  -6.4884  -6.4761  -6.4732  -6.4645  -6.4580  -6.4525  -6.4415
    -6.4032  -6.3514  -6.3048  -6.2847  -6.2589  -6.2482  -6.2007  -6.1904
    -6.1783  -6.1487  -6.1486  -6.1130  -6.0985  -6.0791  -6.0644  -6.0443
    -6.0331  -6.0194  -6.0008  -5.9950  -5.9830  -5.9588  -5.9582  -5.9539
    -5.9337  -5.9282  -5.9153  -5.8716  -5.8679  -5.8289  -5.7952  -5.7653
    -5.7629  -5.7461  -5.7422  -5.7063  -5.6803  -5.6761  -5.6630  -5.6513
    -5.6481  -5.6425  -5.6166  -5.6011  -5.5877  -5.5848  -5.5586  -5.4981
    -5.4847  -5.4818  -5.4793  -5.4776  -5.4723  -5.4663  -5.4559  -5.4472
    -5.4465  -5.4369  -5.4303  -5.4273  -5.4247  -5.4115  -5.3922  -5.3884
    -5.3406  -5.3386  -5.3273  -5.3197  -5.2912  -5.2849  -5.2844  -5.2732
    -5.2649  -5.2420  -5.2389  -5.2291  -5.2194  -5.2163  -5.2048  -5.1943
    -5.1888  -5.1831  -5.1655  -5.1510  -5.1379  -5.1219  -5.1137  -5.1063
    -5.1026  -5.1019  -5.0957  -5.0825  -5.0781  -5.0436  -5.0359  -5.0294
    -5.0172  -5.0130  -5.0053  -5.0022  -4.9855  -4.9811  -4.9751  -4.9693
    -4.9646  -4.9531  -4.9430  -4.9322  -4.9305  -4.9164  -4.8898  -4.8772
    -4.8765  -4.7795  -4.7664  -4.7447  -4.7398  -4.7322  -4.7174  -4.7135
    -4.6851  -4.6589  -4.6390  -4.6294  -4.6239  -4.6133  -4.6087  -4.5883
    -4.5827  -4.5732  -4.5506  -4.5313  -4.5046  -4.2811  -4.2680  -4.2603
    -4.2427

          k = 0.2500-0.7071 0.0000 (200442 PWs)   bands (ev):

   -46.3719 -46.3719 -46.3671 -46.3671 -46.3655 -46.3645 -46.3605 -46.3604
   -46.3559 -46.3558 -46.3522 -46.3506 -46.3475 -46.3337 -46.3332 -46.3240
   -45.8575 -45.8573 -45.8558 -45.8549 -45.8521 -45.8518 -45.8458 -45.8455
   -45.8454 -45.8449 -45.8407 -45.8403 -45.8392 -45.8380 -45.8289 -45.8278
   -45.7067 -45.7063 -45.6999 -45.6996 -45.6924 -45.6922 -45.6893 -45.6884
   -45.6860 -45.6859 -45.6839 -45.6837 -45.6800 -45.6790 -45.6760 -45.6722
   -45.4073 -45.4073 -45.4032 -45.4027 -45.4027 -45.3995 -45.3963 -45.3963
   -45.3918 -45.3918 -45.3824 -45.3667 -45.3654 -45.3579 -45.3529 -45.3396
   -28.9580 -28.7269 -27.4620 -27.2618 -24.7596 -24.7596 -24.7399 -24.7381
   -24.7163 -24.7162 -24.6919 -24.6894 -24.6532 -24.6532 -24.6308 -24.6284
   -24.6071 -24.6070 -24.5798 -24.5769 -24.5203 -24.5199 -24.4595 -24.4592
   -24.3622 -24.3619 -24.2954 -24.2948 -24.2653 -24.2650 -24.2495 -24.2491
   -24.2032 -24.2030 -24.1999 -24.1996 -24.1153 -24.1142 -24.1030 -24.0998
   -24.0939 -24.0937 -24.0656 -24.0641 -24.0621 -24.0612 -24.0245 -24.0222
   -24.0168 -24.0167 -23.9982 -23.9972 -23.4333 -23.4333 -23.4240 -23.4175
   -23.3964 -23.3964 -23.3745 -23.3670 -23.3431 -23.3431 -23.3272 -23.3198
   -23.3047 -23.3047 -23.2834 -23.2720 -18.0028 -16.4223 -14.2390 -12.9847
   -11.3355 -11.2612 -10.8996 -10.7024  -9.7448  -9.2282  -8.5357  -8.1367
    -7.7086  -7.3863  -7.3860  -7.3652  -7.3643  -7.3265  -7.2729  -7.2335
    -7.2329  -7.2041  -7.2036  -7.1974  -7.1965  -7.1783  -7.1777  -7.1238
    -7.1230  -7.0926  -7.0925  -7.0898  -7.0893  -7.0876  -7.0872  -7.0633
    -7.0620  -7.0361  -7.0333  -7.0315  -7.0273  -7.0197  -6.9994  -6.9898
    -6.9819  -6.9806  -6.9558  -6.9555  -6.9411  -6.9398  -6.9233  -6.9230
    -6.9148  -6.9119  -6.8657  -6.7920  -6.7909  -6.7876  -6.7756  -6.7751
    -6.6544  -6.6544  -6.6184  -6.6019  -6.6017  -6.5682  -6.5663  -6.5601
    -6.5599  -6.5114  -6.5107  -6.4350  -6.4340  -6.4258  -6.4251  -6.3913
    -6.3900  -6.2891  -6.2883  -6.2739  -6.2730  -6.1869  -6.1866  -6.1835
    -6.1830  -6.0990  -6.0673  -6.0667  -6.0199  -6.0189  -6.0048  -6.0044
    -5.9902  -5.9894  -5.9544  -5.9540  -5.9355  -5.9349  -5.9060  -5.9039
    -5.8901  -5.8887  -5.8800  -5.8791  -5.8308  -5.8304  -5.7658  -5.7653
    -5.7480  -5.7477  -5.7040  -5.7034  -5.6980  -5.6977  -5.6682  -5.6674
    -5.6354  -5.6349  -5.6282  -5.6269  -5.6245  -5.6244  -5.6179  -5.6166
    -5.5263  -5.5255  -5.4867  -5.4860  -5.4720  -5.4713  -5.4598  -5.4592
    -5.4408  -5.4402  -5.4223  -5.4214  -5.3997  -5.3994  -5.3962  -5.3955
    -5.3542  -5.3531  -5.3498  -5.3496  -5.3378  -5.3370  -5.3192  -5.3181
    -5.3019  -5.3010  -5.2240  -5.2232  -5.2050  -5.2045  -5.1955  -5.1948
    -5.1930  -5.1814  -5.1802  -5.1628  -5.1619  -5.1574  -5.1567  -5.1028
    -5.1027  -5.0870  -5.0846  -5.0772  -5.0771  -5.0545  -5.0462  -5.0321
    -5.0297  -4.9940  -4.9933  -4.9765  -4.9761  -4.9729  -4.9725  -4.9589
    -4.9582  -4.9465  -4.9456  -4.9455  -4.9447  -4.9231  -4.9220  -4.8774
    -4.8767  -4.7613  -4.7599  -4.7373  -4.7370  -4.7314  -4.7280  -4.7073
    -4.6916  -4.6548  -4.6502  -4.6288  -4.6278  -4.6091  -4.6075  -4.5869
    -4.5729  -4.5562  -4.5562  -4.5306  -4.5289  -4.2705  -4.2705  -4.2620
    -4.2482

          k =-0.5000 0.0000 0.0000 (200370 PWs)   bands (ev):

   -46.3712 -46.3704 -46.3695 -46.3687 -46.3658 -46.3640 -46.3585 -46.3577
   -46.3576 -46.3568 -46.3529 -46.3505 -46.3470 -46.3337 -46.3332 -46.3240
   -45.8587 -45.8561 -45.8557 -45.8541 -45.8538 -45.8521 -45.8472 -45.8444
   -45.8442 -45.8429 -45.8422 -45.8407 -45.8391 -45.8369 -45.8294 -45.8275
   -45.7086 -45.7042 -45.6992 -45.6967 -45.6959 -45.6902 -45.6902 -45.6892
   -45.6878 -45.6853 -45.6851 -45.6822 -45.6814 -45.6774 -45.6761 -45.6720
   -45.4061 -45.4056 -45.4052 -45.4048 -45.4031 -45.3994 -45.3944 -45.3936
   -45.3936 -45.3927 -45.3824 -45.3668 -45.3654 -45.3578 -45.3529 -45.3396
   -28.9579 -28.7269 -27.4620 -27.2618 -24.7650 -24.7619 -24.7461 -24.7275
   -24.7226 -24.7215 -24.7103 -24.6883 -24.6309 -24.6299 -24.6214 -24.6208
   -24.6152 -24.6057 -24.5932 -24.5840 -24.5373 -24.5316 -24.3754 -24.3720
   -24.3715 -24.3662 -24.3249 -24.3239 -24.2659 -24.2642 -24.2622 -24.2622
   -24.2582 -24.2567 -24.1690 -24.1677 -24.1671 -24.1630 -24.1614 -24.1531
   -24.0459 -24.0445 -24.0439 -24.0394 -24.0353 -24.0340 -24.0309 -24.0276
   -24.0232 -24.0192 -23.9838 -23.9775 -23.4414 -23.4406 -23.4388 -23.4050
   -23.3962 -23.3954 -23.3936 -23.3590 -23.3338 -23.3330 -23.3242 -23.3072
   -23.3064 -23.2991 -23.2960 -23.2689 -18.0028 -16.4223 -14.2390 -12.9852
   -11.3353 -11.2615 -10.8993 -10.7027  -9.7448  -9.2285  -8.5342  -8.1353
    -7.7085  -7.4916  -7.4844  -7.4652  -7.4626  -7.4101  -7.4033  -7.3266
    -7.2726  -7.2471  -7.2363  -7.2042  -7.2029  -7.1923  -7.1751  -7.1665
    -7.1603  -7.1428  -7.1404  -7.1104  -7.1064  -7.1053  -7.0976  -7.0176
    -6.9818  -6.9814  -6.9769  -6.9746  -6.8674  -6.8457  -6.8436  -6.8417
    -6.8346  -6.8243  -6.8242  -6.8231  -6.8213  -6.8194  -6.8147  -6.8111
    -6.8106  -6.8065  -6.7970  -6.7839  -6.7606  -6.7606  -6.7593  -6.7516
    -6.6590  -6.6565  -6.6526  -6.6491  -6.6157  -6.5933  -6.5863  -6.5640
    -6.5591  -6.5321  -6.5251  -6.5163  -6.5129  -6.5117  -6.5007  -6.3354
    -6.3329  -6.3290  -6.3282  -6.2905  -6.2841  -6.2588  -6.2564  -6.2114
    -6.2036  -6.1851  -6.1848  -6.1718  -6.1650  -6.1000  -6.0994  -6.0903
    -6.0883  -6.0841  -6.0623  -6.0514  -6.0353  -6.0288  -6.0216  -6.0199
    -6.0178  -6.0007  -5.9049  -5.9025  -5.8565  -5.8555  -5.8462  -5.8357
    -5.7275  -5.7269  -5.6892  -5.6892  -5.6502  -5.6471  -5.6391  -5.6364
    -5.6008  -5.5975  -5.5964  -5.5924  -5.5906  -5.5869  -5.5583  -5.5556
    -5.5120  -5.5082  -5.5056  -5.5054  -5.5047  -5.5016  -5.4632  -5.4611
    -5.3419  -5.3374  -5.3374  -5.3337  -5.3317  -5.3296  -5.3270  -5.3268
    -5.3265  -5.3233  -5.3021  -5.3013  -5.2983  -5.2955  -5.2143  -5.2138
    -5.2081  -5.2001  -5.1998  -5.1978  -5.1942  -5.1889  -5.1863  -5.1833
    -5.1823  -5.1820  -5.1802  -5.1787  -5.1730  -5.1676  -5.1564  -5.1476
    -5.1461  -5.0938  -5.0905  -5.0902  -5.0878  -5.0873  -5.0839  -5.0343
    -5.0303  -5.0287  -5.0266  -5.0243  -4.9997  -4.9846  -4.9845  -4.9839
    -4.9624  -4.9540  -4.9506  -4.9391  -4.9370  -4.9233  -4.9112  -4.8945
    -4.8904  -4.7977  -4.7795  -4.7301  -4.7116  -4.7112  -4.7104  -4.7018
    -4.6677  -4.6419  -4.6362  -4.6302  -4.6295  -4.6175  -4.6023  -4.5902
    -4.5711  -4.4068  -4.4062  -4.3998  -4.3993  -4.3959  -4.3905  -4.3798
    -4.3734

          k =-0.5000 0.3536 0.0000 (200424 PWs)   bands (ev):

   -46.3710 -46.3701 -46.3698 -46.3689 -46.3656 -46.3642 -46.3584 -46.3578
   -46.3576 -46.3570 -46.3528 -46.3506 -46.3471 -46.3337 -46.3333 -46.3241
   -45.8582 -45.8558 -45.8552 -45.8549 -45.8540 -45.8526 -45.8469 -45.8448
   -45.8440 -45.8431 -45.8420 -45.8410 -45.8390 -45.8372 -45.8292 -45.8278
   -45.7079 -45.7036 -45.7023 -45.6987 -45.6927 -45.6899 -45.6896 -45.6882
   -45.6877 -45.6860 -45.6859 -45.6823 -45.6810 -45.6778 -45.6761 -45.6721
   -45.4060 -45.4057 -45.4052 -45.4048 -45.4031 -45.3995 -45.3943 -45.3938
   -45.3935 -45.3929 -45.3825 -45.3668 -45.3654 -45.3578 -45.3529 -45.3397
   -28.9579 -28.7269 -27.4620 -27.2618 -24.7586 -24.7560 -24.7414 -24.7286
   -24.7274 -24.7223 -24.7160 -24.6943 -24.6295 -24.6285 -24.6228 -24.6221
   -24.6140 -24.6071 -24.5920 -24.5852 -24.5283 -24.5227 -24.4457 -24.4406
   -24.3218 -24.3209 -24.3090 -24.3042 -24.2917 -24.2912 -24.2677 -24.2618
   -24.2270 -24.2256 -24.1711 -24.1695 -24.1627 -24.1562 -24.1356 -24.1257
   -24.0553 -24.0537 -24.0529 -24.0478 -24.0452 -24.0409 -24.0311 -24.0283
   -24.0274 -24.0209 -23.9907 -23.9843 -23.4349 -23.4341 -23.4324 -23.4029
   -23.4021 -23.4003 -23.3983 -23.3656 -23.3300 -23.3292 -23.3204 -23.3111
   -23.3103 -23.3001 -23.2954 -23.2725 -18.0028 -16.4223 -14.2390 -12.9849
   -11.3354 -11.2613 -10.8994 -10.7025  -9.7448  -9.2283  -8.5351  -8.1361
    -7.7084  -7.4183  -7.4161  -7.4003  -7.3932  -7.3636  -7.3568  -7.3265
    -7.2725  -7.2126  -7.2123  -7.1955  -7.1890  -7.1806  -7.1783  -7.1628
    -7.1566  -7.1248  -7.1228  -7.1203  -7.1141  -7.0476  -7.0408  -7.0312
    -7.0296  -7.0252  -7.0239  -7.0168  -6.9805  -6.9798  -6.9688  -6.9642
    -6.9143  -6.9090  -6.9085  -6.9003  -6.8976  -6.8965  -6.8744  -6.8672
    -6.8646  -6.8437  -6.8320  -6.7869  -6.7723  -6.7613  -6.6996  -6.6967
    -6.6620  -6.6596  -6.6569  -6.6550  -6.6243  -6.6182  -6.6122  -6.5434
    -6.5430  -6.5293  -6.5206  -6.4374  -6.4297  -6.4131  -6.4098  -6.3642
    -6.3615  -6.3071  -6.3029  -6.2458  -6.2452  -6.2236  -6.2230  -6.1349
    -6.1298  -6.1073  -6.1065  -6.0995  -6.0946  -6.0824  -6.0808  -6.0775
    -6.0764  -6.0685  -6.0265  -6.0177  -6.0064  -6.0011  -5.9662  -5.9635
    -5.9607  -5.9476  -5.9337  -5.9329  -5.9316  -5.9312  -5.7686  -5.7651
    -5.7164  -5.7155  -5.7073  -5.7066  -5.7039  -5.7026  -5.6627  -5.6595
    -5.6410  -5.6404  -5.6277  -5.6249  -5.5583  -5.5573  -5.5414  -5.5375
    -5.4715  -5.4687  -5.4602  -5.4602  -5.4483  -5.4419  -5.4303  -5.4280
    -5.4105  -5.4091  -5.3658  -5.3650  -5.3592  -5.3586  -5.3579  -5.3491
    -5.3486  -5.3425  -5.3216  -5.3177  -5.3054  -5.3006  -5.2974  -5.2951
    -5.2627  -5.2616  -5.2513  -5.2470  -5.2228  -5.2216  -5.2045  -5.2038
    -5.1932  -5.1845  -5.1779  -5.1633  -5.1607  -5.1462  -5.1448  -5.1218
    -5.1151  -5.0890  -5.0844  -5.0818  -5.0732  -5.0726  -5.0719  -5.0648
    -5.0628  -5.0455  -5.0393  -5.0360  -5.0305  -4.9701  -4.9676  -4.9672
    -4.9527  -4.9525  -4.9444  -4.9315  -4.9261  -4.9214  -4.9087  -4.9044
    -4.8905  -4.7782  -4.7618  -4.7286  -4.7203  -4.7152  -4.7119  -4.6997
    -4.6721  -4.6451  -4.6391  -4.6384  -4.6361  -4.6093  -4.6014  -4.5869
    -4.5703  -4.4053  -4.4046  -4.4002  -4.3997  -4.3954  -4.3889  -4.3810
    -4.3731

          k =-0.5000-0.7071 0.0000 (200236 PWs)   bands (ev):

   -46.3704 -46.3704 -46.3696 -46.3695 -46.3654 -46.3644 -46.3580 -46.3580
   -46.3572 -46.3571 -46.3527 -46.3507 -46.3469 -46.3336 -46.3332 -46.3239
   -45.8568 -45.8564 -45.8552 -45.8546 -45.8542 -45.8537 -45.8463 -45.8454
   -45.8434 -45.8434 -45.8416 -45.8411 -45.8386 -45.8374 -45.8289 -45.8278
   -45.7061 -45.7055 -45.7020 -45.7014 -45.6900 -45.6891 -45.6888 -45.6884
   -45.6877 -45.6876 -45.6841 -45.6836 -45.6795 -45.6786 -45.6757 -45.6720
   -45.4059 -45.4058 -45.4050 -45.4050 -45.4031 -45.3994 -45.3939 -45.3939
   -45.3930 -45.3930 -45.3824 -45.3667 -45.3653 -45.3577 -45.3528 -45.3395
   -28.9579 -28.7269 -27.4620 -27.2618 -24.7434 -24.7433 -24.7417 -24.7416
   -24.7301 -24.7286 -24.7101 -24.7073 -24.6261 -24.6261 -24.6253 -24.6252
   -24.6117 -24.6095 -24.5901 -24.5871 -24.4993 -24.4987 -24.4938 -24.4934
   -24.3116 -24.3114 -24.3110 -24.3105 -24.2794 -24.2786 -24.2736 -24.2733
   -24.1941 -24.1938 -24.1926 -24.1922 -24.1112 -24.1089 -24.1044 -24.1043
   -24.0918 -24.0886 -24.0803 -24.0801 -24.0428 -24.0406 -24.0381 -24.0380
   -24.0093 -24.0070 -24.0015 -24.0013 -23.4195 -23.4190 -23.4190 -23.4182
   -23.4182 -23.4131 -23.3859 -23.3783 -23.3205 -23.3205 -23.3198 -23.3197
   -23.3134 -23.3071 -23.2901 -23.2778 -18.0028 -16.4223 -14.2389 -12.9846
   -11.3354 -11.2611 -10.8994 -10.7023  -9.7445  -9.2279  -8.5356  -8.1367
    -7.7082  -7.3268  -7.2944  -7.2920  -7.2915  -7.2914  -7.2717  -7.2460
    -7.2455  -7.2371  -7.2346  -7.1531  -7.1523  -7.1467  -7.1459  -7.1394
    -7.1388  -7.1364  -7.1354  -7.1173  -7.1170  -7.1147  -7.1141  -7.0875
    -7.0870  -7.0793  -7.0790  -7.0492  -7.0483  -7.0441  -7.0434  -7.0237
    -6.9833  -6.9832  -6.9805  -6.9804  -6.9783  -6.9773  -6.9632  -6.9516
    -6.8658  -6.7893  -6.7884  -6.7882  -6.7860  -6.7856  -6.7840  -6.7834
    -6.7768  -6.7765  -6.6180  -6.6051  -6.6045  -6.6009  -6.6002  -6.5271
    -6.5268  -6.5197  -6.5168  -6.3418  -6.3414  -6.3400  -6.3399  -6.3112
    -6.3107  -6.3046  -6.3031  -6.1590  -6.1583  -6.1579  -6.1577  -6.1338
    -6.1322  -6.1256  -6.1241  -6.0995  -6.0644  -6.0630  -6.0619  -6.0607
    -6.0309  -6.0299  -6.0276  -6.0268  -5.9867  -5.9860  -5.9824  -5.9817
    -5.8602  -5.8588  -5.8538  -5.8526  -5.7446  -5.7439  -5.7436  -5.7417
    -5.7172  -5.7163  -5.7162  -5.7151  -5.7031  -5.7015  -5.7000  -5.6999
    -5.6612  -5.6609  -5.6577  -5.6571  -5.6553  -5.6546  -5.6502  -5.6490
    -5.4493  -5.4478  -5.4455  -5.4450  -5.4337  -5.4330  -5.4324  -5.4319
    -5.4245  -5.4236  -5.4219  -5.4217  -5.4134  -5.4129  -5.4092  -5.4080
    -5.3705  -5.3690  -5.3655  -5.3651  -5.2719  -5.2710  -5.2709  -5.2708
    -5.2609  -5.2602  -5.2585  -5.2580  -5.2023  -5.2014  -5.1963  -5.1944
    -5.1889  -5.1696  -5.1693  -5.1647  -5.1640  -5.1407  -5.1405  -5.1396
    -5.1389  -5.1286  -5.1279  -5.1217  -5.1200  -5.0372  -5.0370  -5.0368
    -5.0368  -5.0262  -5.0218  -5.0100  -5.0056  -4.9998  -4.9962  -4.9942
    -4.9923  -4.9625  -4.9618  -4.9555  -4.9548  -4.9093  -4.9087  -4.8924
    -4.8908  -4.7367  -4.7334  -4.7301  -4.7300  -4.7293  -4.7263  -4.6978
    -4.6793  -4.6478  -4.6411  -4.6400  -4.6377  -4.6045  -4.6003  -4.5837
    -4.5692  -4.4022  -4.4021  -4.4016  -4.4016  -4.3947  -4.3850  -4.3842
    -4.3727

          k =-0.2500 0.3536 0.0000 (200411 PWs)   bands (ev):

   -46.3725 -46.3713 -46.3676 -46.3666 -46.3657 -46.3642 -46.3609 -46.3601
   -46.3561 -46.3555 -46.3523 -46.3505 -46.3476 -46.3338 -46.3332 -46.3240
   -45.8590 -45.8563 -45.8558 -45.8543 -45.8529 -45.8508 -45.8464 -45.8460
   -45.8449 -45.8444 -45.8409 -45.8400 -45.8395 -45.8377 -45.8291 -45.8276
   -45.7087 -45.7032 -45.7016 -45.6971 -45.6938 -45.6927 -45.6904 -45.6872
   -45.6865 -45.6858 -45.6849 -45.6823 -45.6815 -45.6779 -45.6760 -45.6721
   -45.4074 -45.4072 -45.4032 -45.4028 -45.4025 -45.3995 -45.3966 -45.3960
   -45.3921 -45.3914 -45.3824 -45.3667 -45.3654 -45.3579 -45.3529 -45.3396
   -28.9580 -28.7269 -27.4620 -27.2618 -24.7767 -24.7536 -24.7428 -24.7271
   -24.7233 -24.7056 -24.7007 -24.6798 -24.6544 -24.6521 -24.6310 -24.6281
   -24.6135 -24.6005 -24.5843 -24.5723 -24.5510 -24.4858 -24.4638 -24.4115
   -24.3792 -24.3310 -24.3225 -24.2849 -24.2839 -24.2669 -24.2588 -24.2388
   -24.2353 -24.2245 -24.1860 -24.1773 -24.1744 -24.1488 -24.1351 -24.1056
   -24.0755 -24.0628 -24.0556 -24.0491 -24.0478 -24.0406 -24.0307 -24.0240
   -24.0126 -24.0107 -23.9976 -23.9853 -23.4501 -23.4375 -23.4162 -23.4108
   -23.4039 -23.3860 -23.3818 -23.3555 -23.3540 -23.3350 -23.3322 -23.3131
   -23.3118 -23.2963 -23.2882 -23.2671 -18.0028 -16.4223 -14.2390 -12.9849
   -11.3354 -11.2613 -10.8994 -10.7026  -9.7448  -9.2283  -8.5350  -8.1361
    -7.7086  -7.5132  -7.4870  -7.4753  -7.3266  -7.3220  -7.3007  -7.2786
    -7.2734  -7.2713  -7.2629  -7.2580  -7.2388  -7.1731  -7.1451  -7.1277
    -7.0994  -7.0810  -7.0791  -7.0748  -7.0688  -7.0598  -7.0405  -7.0278
    -7.0219  -7.0045  -6.9961  -6.9951  -6.9881  -6.9832  -6.9740  -6.9615
    -6.9265  -6.9211  -6.8993  -6.8785  -6.8689  -6.8663  -6.8613  -6.8566
    -6.8550  -6.8449  -6.7913  -6.7866  -6.7742  -6.7615  -6.7291  -6.7111
    -6.7042  -6.6694  -6.6502  -6.6340  -6.6198  -6.6142  -6.5842  -6.5745
    -6.5583  -6.4884  -6.4761  -6.4731  -6.4646  -6.4579  -6.4525  -6.4415
    -6.4032  -6.3515  -6.3048  -6.2847  -6.2589  -6.2482  -6.2008  -6.1904
    -6.1783  -6.1487  -6.1485  -6.1130  -6.0990  -6.0790  -6.0643  -6.0442
    -6.0331  -6.0194  -6.0008  -5.9950  -5.9830  -5.9588  -5.9582  -5.9539
    -5.9337  -5.9282  -5.9153  -5.8716  -5.8679  -5.8289  -5.7952  -5.7654
    -5.7629  -5.7461  -5.7422  -5.7063  -5.6803  -5.6762  -5.6630  -5.6513
    -5.6482  -5.6425  -5.6166  -5.6011  -5.5877  -5.5848  -5.5586  -5.4981
    -5.4847  -5.4818  -5.4792  -5.4777  -5.4723  -5.4662  -5.4558  -5.4472
    -5.4466  -5.4370  -5.4303  -5.4274  -5.4246  -5.4116  -5.3922  -5.3883
    -5.3406  -5.3386  -5.3273  -5.3197  -5.2912  -5.2849  -5.2845  -5.2732
    -5.2649  -5.2420  -5.2389  -5.2291  -5.2194  -5.2163  -5.2048  -5.1942
    -5.1886  -5.1830  -5.1657  -5.1510  -5.1379  -5.1218  -5.1141  -5.1060
    -5.1026  -5.1019  -5.0957  -5.0825  -5.0779  -5.0436  -5.0359  -5.0294
    -5.0172  -5.0131  -5.0054  -5.0023  -4.9855  -4.9811  -4.9752  -4.9693
    -4.9646  -4.9530  -4.9432  -4.9326  -4.9297  -4.9165  -4.8899  -4.8774
    -4.8763  -4.7797  -4.7663  -4.7447  -4.7398  -4.7321  -4.7174  -4.7134
    -4.6853  -4.6589  -4.6390  -4.6294  -4.6239  -4.6134  -4.6087  -4.5883
    -4.5827  -4.5732  -4.5504  -4.5313  -4.5047  -4.2811  -4.2680  -4.2603
    -4.2427

     highest occupied level (ev):    -4.1848

!    total energy              =   -4345.71241747 Ry
     estimated scf accuracy    <          3.5E-11 Ry

     The total energy is the sum of the following terms:
     one-electron contribution = -103130.75904673 Ry
     hartree contribution      =   51709.30590308 Ry
     xc contribution           =    -998.21993153 Ry
     ewald contribution        =   48073.96065772 Ry

     convergence has been achieved in   8 iterations

     Forces acting on atoms (cartesian axes, Ry/au):

     atom    1 type  1   force =    -0.00000140    0.00000009   -0.00009501
     atom    2 type  1   force =     0.00001189    0.00000030   -0.00012526
     atom    3 type  1   force =     0.00000431   -0.00000166   -0.00012844
     atom    4 type  1   force =     0.00000238    0.00000001   -0.00009483
     atom    5 type  2   force =    -0.00000848    0.00000052    0.00011673
     atom    6 type  2   force =     0.00000242    0.00000107    0.00010791
     atom    7 type  2   force =    -0.00000493   -0.00000001    0.00010362
     atom    8 type  2   force =    -0.00000311    0.00000037    0.00013234
     atom    9 type  1   force =     0.00001282   -0.00000040   -0.00009058
     atom   10 type  1   force =     0.00000564   -0.00001435   -0.00013955
     atom   11 type  1   force =     0.00002531   -0.00000316   -0.00010918
     atom   12 type  1   force =    -0.00000652   -0.00000016   -0.00009250
     atom   13 type  2   force =    -0.00000702    0.00000017    0.00013307
     atom   14 type  2   force =    -0.00001866    0.00000173    0.00007455
     atom   15 type  2   force =     0.00000892    0.00000650    0.00008360
     atom   16 type  2   force =    -0.00002128    0.00000130    0.00007343
     atom   17 type  1   force =    -0.00002018    0.00000047   -0.00004993
     atom   18 type  1   force =     0.00000780   -0.00005649   -0.00001518
     atom   19 type  1   force =     0.00000215   -0.00011401   -0.00021233
     atom   20 type  1   force =     0.00003904   -0.00000203   -0.00004741
     atom   21 type  2   force =     0.00005739    0.00004371    0.00011793
     atom   22 type  2   force =     0.00002728    0.00004439    0.00011651
     atom   23 type  2   force =    -0.00005681    0.00001604    0.00011555
     atom   24 type  2   force =    -0.00002454    0.00003023    0.00020879
     atom   25 type  1   force =     0.00006229    0.00002583    0.00021677
     atom   26 type  1   force =    -0.00005297   -0.00016589    0.00018288
     atom   27 type  1   force =    -0.00033798    0.00019717   -0.00017927
     atom   28 type  1   force =    -0.00002769    0.00000970    0.00018290
     atom   29 type  2   force =     0.00002265    0.00003015   -0.00027387
     atom   30 type  2   force =     0.00020767    0.00006152   -0.00012944
     atom   31 type  2   force =    -0.00013814    0.00007167   -0.00020391
     atom   32 type  2   force =     0.00029759    0.00009665    0.00027964
     atom   33 type  1   force =    -0.00000143    0.00000034   -0.00009626
     atom   34 type  1   force =     0.00001202    0.00000015   -0.00012447
     atom   35 type  1   force =     0.00000454    0.00000211   -0.00012801
     atom   36 type  1   force =     0.00000219    0.00000042   -0.00009669
     atom   37 type  2   force =    -0.00000822   -0.00000004    0.00010687
     atom   38 type  2   force =     0.00000245   -0.00000063    0.00010797
     atom   39 type  2   force =    -0.00000490    0.00000044    0.00010336
     atom   40 type  2   force =    -0.00000282    0.00000011    0.00014036
     atom   41 type  1   force =     0.00001953    0.00000081   -0.00010447
     atom   42 type  1   force =     0.00000651    0.00001425   -0.00013720
     atom   43 type  1   force =     0.00002635    0.00000278   -0.00010298
     atom   44 type  1   force =    -0.00000965    0.00000048   -0.00010213
     atom   45 type  2   force =    -0.00000296   -0.00000040    0.00018994
     atom   46 type  2   force =    -0.00001864   -0.00000139    0.00007347
     atom   47 type  2   force =     0.00000900   -0.00000624    0.00008414
     atom   48 type  2   force =    -0.00001748   -0.00000233   -0.00000928
     atom   49 type  1   force =    -0.00004684    0.00000339   -0.00010806
     atom   50 type  1   force =     0.00001306    0.00008136    0.00001261
     atom   51 type  1   force =     0.00001110    0.00013781   -0.00020423
     atom   52 type  1   force =     0.00007100    0.00000128   -0.00020088
     atom   53 type  2   force =     0.00005206    0.00001620   -0.00023257
     atom   54 type  2   force =     0.00002911   -0.00003747    0.00012226
     atom   55 type  2   force =    -0.00005189   -0.00001425    0.00011305
     atom   56 type  2   force =     0.00007611    0.00001345    0.00042178
     atom   57 type  1   force =    -0.00079818    0.00010404   -0.00046805
     atom   58 type  1   force =    -0.00004128    0.00018429    0.00018854
     atom   59 type  1   force =    -0.00033572   -0.00004182   -0.00021436
     atom   60 type  1   force =     0.00024298    0.00000933    0.00022094
     atom   61 type  2   force =     0.00007677    0.00000946   -0.00025279
     atom   62 type  2   force =     0.00015562    0.00015698   -0.00021485
     atom   63 type  2   force =    -0.00012766   -0.00004680   -0.00018749
     atom   64 type  2   force =     0.00062195    0.00024962    0.00024277
     atom   65 type  1   force =     0.00000143   -0.00000003   -0.00009436
     atom   66 type  1   force =    -0.00001186   -0.00000091   -0.00012655
     atom   67 type  1   force =    -0.00000433   -0.00000004   -0.00012337
     atom   68 type  1   force =    -0.00000240    0.00000006   -0.00009456
     atom   69 type  2   force =     0.00000849    0.00000029    0.00012411
     atom   70 type  2   force =    -0.00000212   -0.00000140    0.00009172
     atom   71 type  2   force =     0.00000464   -0.00000032    0.00009606
     atom   72 type  2   force =     0.00000309    0.00000046    0.00010802
     atom   73 type  1   force =    -0.00001303   -0.00000024   -0.00008758
     atom   74 type  1   force =    -0.00000885   -0.00000484   -0.00009211
     atom   75 type  1   force =    -0.00002207   -0.00000779   -0.00012141
     atom   76 type  1   force =     0.00000672   -0.00000057   -0.00008515
     atom   77 type  2   force =     0.00000962    0.00000059    0.00003826
     atom   78 type  2   force =     0.00001625    0.00000024    0.00005810
     atom   79 type  2   force =    -0.00000654   -0.00000459    0.00004884
     atom   80 type  2   force =     0.00001872    0.00000015    0.00010065
     atom   81 type  1   force =     0.00001844   -0.00000460   -0.00005756
     atom   82 type  1   force =    -0.00001768   -0.00005228   -0.00008696
     atom   83 type  1   force =     0.00000154   -0.00005046    0.00010564
     atom   84 type  1   force =    -0.00003767   -0.00000080   -0.00006196
     atom   85 type  2   force =    -0.00004259    0.00001981    0.00015907
     atom   86 type  2   force =    -0.00000820   -0.00002504    0.00014449
     atom   87 type  2   force =     0.00003824    0.00000446    0.00013819
     atom   88 type  2   force =     0.00000120    0.00004136    0.00007037
     atom   89 type  1   force =    -0.00002617    0.00003329    0.00010165
     atom   90 type  1   force =     0.00009587    0.00021322   -0.00012578
     atom   91 type  1   force =     0.00024092    0.00000024    0.00002736
     atom   92 type  1   force =    -0.00001379    0.00006375    0.00011171
     atom   93 type  2   force =    -0.00007058    0.00005954    0.00052553
     atom   94 type  2   force =    -0.00023437    0.00015851    0.00030834
     atom   95 type  2   force =     0.00009943    0.00023917    0.00046638
     atom   96 type  2   force =    -0.00025957    0.00002495    0.00000496
     atom   97 type  1   force =     0.00000138    0.00000044   -0.00009688
     atom   98 type  1   force =    -0.00001195    0.00000136   -0.00012625
     atom   99 type  1   force =    -0.00000461    0.00000050   -0.00012279
     atom  100 type  1   force =    -0.00000215    0.00000036   -0.00009650
     atom  101 type  2   force =     0.00000821    0.00000017    0.00012577
     atom  102 type  2   force =    -0.00000215    0.00000182    0.00009127
     atom  103 type  2   force =     0.00000461    0.00000076    0.00009605
     atom  104 type  2   force =     0.00000283    0.00000003    0.00010216
     atom  105 type  1   force =    -0.00001556    0.00000063   -0.00009803
     atom  106 type  1   force =    -0.00001040    0.00000441   -0.00008992
     atom  107 type  1   force =    -0.00002243    0.00000810   -0.00012007
     atom  108 type  1   force =     0.00000563    0.00000104   -0.00009870
     atom  109 type  2   force =     0.00000477   -0.00000159   -0.00000286
     atom  110 type  2   force =     0.00001622    0.00000009    0.00005777
     atom  111 type  2   force =    -0.00000659    0.00000499    0.00004625
     atom  112 type  2   force =     0.00001562    0.00000021    0.00010788
     atom  113 type  1   force =     0.00001929    0.00000090   -0.00021225
     atom  114 type  1   force =    -0.00002324    0.00006620   -0.00008132
     atom  115 type  1   force =    -0.00000740    0.00007629    0.00009707
     atom  116 type  1   force =    -0.00004144    0.00000137   -0.00015913
     atom  117 type  2   force =    -0.00008474    0.00000686    0.00016077
     atom  118 type  2   force =    -0.00001087    0.00002334    0.00012945
     atom  119 type  2   force =     0.00003400   -0.00000140    0.00013421
     atom  120 type  2   force =    -0.00003615    0.00001774   -0.00012230
     atom  121 type  1   force =     0.00042018    0.00006569   -0.00063665
     atom  122 type  1   force =     0.00010358   -0.00003272   -0.00018650
     atom  123 type  1   force =     0.00023070    0.00003143    0.00003322
     atom  124 type  1   force =    -0.00016419    0.00014619   -0.00108132
     atom  125 type  2   force =    -0.00029050    0.00015412    0.00053137
     atom  126 type  2   force =    -0.00018686   -0.00002000    0.00023483
     atom  127 type  2   force =     0.00010707    0.00008455    0.00029874
     atom  128 type  2   force =    -0.00048466    0.00001326    0.00001017
     atom  129 type  3   force =     0.00054719   -0.00015396   -0.00002907
     atom  130 type  3   force =    -0.00022455   -0.00053059    0.00081773
     atom  131 type  4   force =     0.00000901   -0.00005137   -0.00009888
     atom  132 type  4   force =    -0.00006692    0.00019362    0.00005071
     atom  133 type  4   force =     0.00002584   -0.00004879   -0.00051073
     atom  134 type  3   force =     0.00036801    0.00008662   -0.00041161
     atom  135 type  2   force =    -0.00000751   -0.00070073    0.00033658
     atom  136 type  4   force =     0.00011294    0.00042489    0.00046888
     atom  137 type  3   force =    -0.00068179   -0.00012961    0.00083357
     atom  138 type  2   force =     0.00016428   -0.00110568   -0.00120582
     atom  139 type  4   force =     0.00006754   -0.00023972   -0.00006533
     atom  140 type  2   force =     0.00013738   -0.00045736   -0.00038559
     atom  141 type  2   force =     0.00006723   -0.00000768    0.00028216
     atom  142 type  4   force =     0.00009786    0.00023790   -0.00008306

     Total force =     0.003920     Total SCF correction =     0.000017


     Computing stress (Cartesian axis) and pressure

          total   stress  (Ry/bohr**3)                   (kbar)     P=      -51.75
  -0.00029191   0.00000009  -0.00000014          -42.94        0.01       -0.02
   0.00000009  -0.00042977  -0.00000047            0.01      -63.22       -0.07
  -0.00000014  -0.00000047  -0.00033365           -0.02       -0.07      -49.08

     Energy error            =      4.1E-05 Ry
     Gradient error          =      1.2E-03 Ry/Bohr

     number of scf cycles    =   8
     number of bfgs steps    =   7

     energy             old  =   -4345.7123764502 Ry
     energy             new  =   -4345.7124174732 Ry

     CASE: energy            _new < energy            _old

     new trust radius        =       0.0114388544 bohr
     new conv_thr            =            1.0E-10 Ry


ATOMIC_POSITIONS (angstrom)
Li              -0.0000086647       -0.0000003756       15.2268596298
Li               4.3312841267        2.0417294985       16.3547741686
Li               1.4437717363        2.0417140345       16.3546694778
Li               2.8874426821       -0.0000009062       15.2268764586
F                4.3310275032        0.0000029759       16.4350780781
F                0.0000193852        2.0417114221       15.0826578618
F                2.8873720536        2.0417051612       15.0826067433
F                1.4436678682        0.0000021271       16.4352644386
Li               2.8876595238        8.1668507048       17.9577009926
Li               1.4439360240        2.0416927508       19.3054338620
Li               4.3317124536        2.0418248935       19.3061533408
Li              11.5495723063        8.1668532564       17.9575934864
F                1.4435219239        0.0000102243       19.3294322545
F                2.8871677045        2.0416819051       17.9148964931
F                0.0001049688        2.0417177784       17.9150929692
F                4.3306677503        0.0000192926       19.3283930904
Li              11.5491637550        8.1668419688       20.8025614067
Li               4.3334882915        2.0422581006       22.1533550014
Li               1.4447277575        2.0413546166       22.1489074814
Li               2.8885452237        8.1668081767       20.8030153040
F                4.3293566995        0.0002895403       22.1866345205
F               11.5501214990        2.0418152890       20.7753710320
F                2.8863396179        2.0415596530       20.7747691479
F                1.4427051039        0.0002257200       22.1908444524
Li               2.8914061043       -0.0000654170       23.7526691575
Li               1.4443136871        2.0390837418       24.8696169553
Li               4.3373763485        2.0506052572       24.8893636026
Li              11.5476186667        0.0000375008       23.7513879374
F                1.4427550149        0.0004787864       25.0298013436
F                2.8873464373        2.0404085582       23.6704255870
F               -0.0005068298        2.0420344483       23.6710175585
F                4.3285061402        0.0023029405       25.0217410854
Li              -0.0000095025        4.0834296281       15.2268577630
Li               4.3312847134        6.1251281396       16.3547807619
Li               1.4437733954        6.1251436131       16.3546738287
Li               2.8874454241        4.0834300896       15.2268760026
F                4.3310258099        4.0834257265       16.4349884639
F                0.0000194449        6.1251458405       15.0826574944
F                2.8873720887        6.1251520395       15.0826045606
F                1.4436664430        4.0834265925       16.4352858851
Li               2.8877320991        4.0834352380       17.9577187719
Li               1.4439487735        6.1251625696       19.3054649716
Li               4.3317176125        6.1250310993       19.3062117742
Li              11.5495503811        4.0834322552       17.9575852364
F                1.4435199614        4.0834151916       19.3297188154
F                2.8871671856        6.1251756087       17.9148794582
F                0.0001050761        6.1251392542       17.9150898184
F                4.3306639106        4.0834054004       19.3275740704
Li              -0.0007041912        4.0834535787       20.8023894779
Li               4.3335171021        6.1245964516       22.1539297198
Li               1.4449040442        6.1256074367       22.1491048133
Li               2.8890632829        4.0834601729       20.8026974194
F                4.3293691498        4.0832373801       22.1803357165
F               11.5501280421        6.1250617949       20.7753765856
F                2.8863616646        6.1252795310       20.7746765510
F                1.4429432111        4.0834115631       22.1927218169
Li               2.8871485602        4.0846237591       23.7468282654
Li               1.4446286902        6.1281140475       24.8696698797
Li               4.3380452357        6.1193587715       24.8904461417
Li              -0.0009681748        4.0835622466       23.7509338242
F                1.4435306240        4.0835024077       25.0373085630
F                2.8864847797        6.1286476908       23.6694495791
F               11.5492249286        6.1250799597       23.6710362067
F                4.3184077225        4.0919825273       24.9912882408
Li               5.7748469061       -0.0000010282       15.2269160921
Li              10.1058113967        2.0417184171       16.3547129963
Li               7.2184852136        2.0417283446       16.3548163411
Li               8.6622335220       -0.0000005288       15.2268989182
F               10.1060676368        0.0000015595       16.4351771483
F                5.7748200998        2.0416969120       15.0824742712
F                8.6623030355        2.0417032517       15.0825253136
F                7.2185895975        8.1668593278       16.4349898766
Li               8.6620169624        8.1668527256       17.9578650345
Li               7.2183123288        2.0418107804       19.3064549040
Li              10.1053915046        2.0417353363       19.3057606208
Li               5.7749416077        8.1668498317       17.9579744844
F                7.2187456326        0.0000130377       19.3278799104
F                8.6624945330        2.0416711523       17.9145777189
F                5.7747466801        2.0416356596       17.9143789225
F               10.1064170254        8.1668639392       19.3289162367
Li               5.7753235545        8.1667944867       20.8041134235
Li              10.1033785113        2.0417559384       22.1512213835
Li               7.2177297111        2.0421906725       22.1553837477
Li               8.6611566791        8.1668298654       20.8036834066
F               10.1079494959        0.0001261859       22.1885499041
F                5.7745359843        2.0411871661       20.7732600183
F                8.6631960780        2.0414780101       20.7738199313
F                7.2192992709        0.0002508081       22.1845029304
Li               8.6589582850        8.1670054710       23.7554348465
Li               7.2169223746        2.0524178025       24.8992975806
Li              10.1006688787        2.0445138328       24.8811876227
Li               5.7761869677        0.0001636424       23.7568830647
F                7.2193548541        0.0013629549       25.0168469004
F                8.6616497241        2.0412420368       23.6697997140
F                5.7754384564        2.0414232939       23.6696972322
F               10.1086734647        0.0004283269       25.0239406677
Li               5.7748462981        4.0834301978       15.2269173391
Li              10.1058110742        6.1251392419       16.3547161698
Li               7.2184832882        6.1251293228       16.3548215354
Li               8.6622321268        4.0834296934       15.2268986815
F               10.1060691580        4.0834271741       16.4351630035
F                5.7748200251        6.1251602955       15.0824713108
F                8.6623029338        6.1251540985       15.0825247230
F                7.2185909114        4.0834263087       16.4349150161
Li               8.6619748873        4.0834330405       17.9579009273
Li               7.2182973599        6.1250444089       19.3064889566
Li              10.1053885425        6.1251214964       19.3057798435
Li               5.7749329276        4.0834363520       17.9580392799
F                7.2187458027        4.0834111388       19.3272927314
F                8.6624950377        6.1251862261       17.9145715688
F                5.7747468152        6.1252222513       17.9143558189
F               10.1064214331        4.0834207271       19.3288383455
Li               5.7752484487        4.0834589185       20.8041397765
Li              10.1033222650        6.1251518972       22.1513145394
Li               7.2175762110        6.1247033016       22.1555365132
Li               8.6609148466        4.0834481413       20.8036942629
F               10.1078794976        4.0834144245       22.1879017847
F                5.7745238412        6.1256287990       20.7731034543
F                8.6631793668        6.1253733554       20.7737813995
F                7.2192459986        4.0833387110       22.1804029078
Li               8.6609912119        4.0840482049       23.7533801231
Li               7.2164171003        6.1178647219       24.8978466181
Li              10.1007373447        6.1229918708       24.8812157199
Li               5.7746189873        4.0849110839       23.7533221668
F                7.2194276648        4.0881495240       24.9962449184
F                8.6622888493        6.1269475608       23.6691730846
F                5.7757426782        6.1285539271       23.6678151071
F               10.1110257372        4.0838080229       25.0196528690
C                3.7955050659        4.0094450287       29.4479905883
C                5.1575870502        4.1957012544       28.8074269279
H                3.0241296142        4.2003293121       28.6933292723
H                3.6883880945        2.9823704711       29.8154165628
H                3.6639715441        4.7075699859       30.2830444817
C                6.3334661776        3.9749685504       29.7645466638
F                5.2658322624        3.3263022439       27.7415489672
H                6.2414895598        2.9609461823       30.1782027310
C                7.7501787393        4.1101141274       29.2168985410
F                5.2224179841        5.4770733068       28.2795285231
H                6.2337691638        4.6823087015       30.5998027029
F                7.9802653019        5.3630842646       28.7014555825
F                8.0042276284        3.1973394657       28.2257728985
H                8.4969063061        3.9431929496       30.0122704279



     Writing config-only to output data dir ./tmp/LiF_PVDF/LiF_PVDF.save/ :
     XML data file
     NEW-OLD atomic charge density approx. for the potential

     total cpu time spent up to now is     3275.1 secs

     per-process dynamical memory:   151.3 Mb

     Self-consistent Calculation

     iteration #  1     ecut=    60.00 Ry     beta= 0.30
     Davidson diagonalization with overlap
     ethr =  1.00E-06,  avg # of iterations =  4.0

     Threshold (ethr) on eigenvalues was too large:
     Diagonalizing with lowered threshold

     Davidson diagonalization with overlap
     ethr =  5.16E-09,  avg # of iterations =  4.0

     total cpu time spent up to now is     3357.5 secs

     total energy              =   -4345.71245941 Ry
     estimated scf accuracy    <       0.00003957 Ry

     iteration #  2     ecut=    60.00 Ry     beta= 0.30
     Davidson diagonalization with overlap
     ethr =  5.73E-09,  avg # of iterations =  2.0

     total cpu time spent up to now is     3386.5 secs

     total energy              =   -4345.71245654 Ry
     estimated scf accuracy    <       0.00001446 Ry

     iteration #  3     ecut=    60.00 Ry     beta= 0.30
     Davidson diagonalization with overlap
     ethr =  2.10E-09,  avg # of iterations =  3.0

     total cpu time spent up to now is     3422.4 secs

     total energy              =   -4345.71245810 Ry
     estimated scf accuracy    <       0.00000100 Ry

     iteration #  4     ecut=    60.00 Ry     beta= 0.30
     Davidson diagonalization with overlap
     ethr =  1.45E-10,  avg # of iterations =  4.0

     total cpu time spent up to now is     3458.6 secs

     total energy              =   -4345.71245821 Ry
     estimated scf accuracy    <       0.00000009 Ry

     iteration #  5     ecut=    60.00 Ry     beta= 0.30
     Davidson diagonalization with overlap
     ethr =  1.29E-11,  avg # of iterations =  4.0

     total cpu time spent up to now is     3491.4 secs

     total energy              =   -4345.71245823 Ry
     estimated scf accuracy    <       0.00000002 Ry

     iteration #  6     ecut=    60.00 Ry     beta= 0.30
     Davidson diagonalization with overlap
     ethr =  2.29E-12,  avg # of iterations =  2.0

     total cpu time spent up to now is     3524.4 secs

     total energy              =   -4345.71245823 Ry
     estimated scf accuracy    <          1.9E-09 Ry

     iteration #  7     ecut=    60.00 Ry     beta= 0.30
     Davidson diagonalization with overlap
     ethr =  2.71E-13,  avg # of iterations =  3.5

     total cpu time spent up to now is     3556.2 secs

     total energy              =   -4345.71245822 Ry
     estimated scf accuracy    <          3.7E-10 Ry

     iteration #  8     ecut=    60.00 Ry     beta= 0.30
     Davidson diagonalization with overlap
     ethr =  1.00E-13,  avg # of iterations =  2.1

     total cpu time spent up to now is     3586.5 secs

     End of self-consistent calculation

          k = 0.0000 0.0000 0.0000 (200173 PWs)   bands (ev):

   -46.3869 -46.3847 -46.3777 -46.3776 -46.3765 -46.3764 -46.3690 -46.3677
   -46.3556 -46.3538 -46.3391 -46.3375 -46.3345 -46.3175 -46.3162 -46.3057
   -45.8639 -45.8596 -45.8541 -45.8537 -45.8530 -45.8519 -45.8512 -45.8497
   -45.8443 -45.8429 -45.8398 -45.8374 -45.8332 -45.8304 -45.8200 -45.8179
   -45.7103 -45.7018 -45.6990 -45.6980 -45.6947 -45.6938 -45.6931 -45.6867
   -45.6861 -45.6846 -45.6846 -45.6810 -45.6795 -45.6744 -45.6711 -45.6669
   -45.4172 -45.4164 -45.4086 -45.4085 -45.4081 -45.4080 -45.4006 -45.3992
   -45.3981 -45.3925 -45.3730 -45.3598 -45.3508 -45.3449 -45.3360 -45.3231
   -28.9467 -28.7152 -27.4515 -27.2521 -24.7988 -24.7590 -24.7507 -24.7125
   -24.7027 -24.7026 -24.6863 -24.6863 -24.6622 -24.6562 -24.6463 -24.6373
   -24.6209 -24.5994 -24.5700 -24.5674 -24.5509 -24.4408 -24.4405 -24.3958
   -24.3877 -24.3191 -24.3187 -24.3111 -24.3103 -24.2872 -24.2406 -24.2324
   -24.2189 -24.2117 -24.1971 -24.1960 -24.1948 -24.1804 -24.1114 -24.1114
   -24.0951 -24.0924 -24.0524 -24.0364 -24.0328 -24.0246 -24.0224 -24.0058
   -24.0010 -24.0004 -23.9971 -23.9785 -23.4759 -23.4352 -23.4270 -23.4010
   -23.4010 -23.3874 -23.3651 -23.3651 -23.3565 -23.3481 -23.3238 -23.3195
   -23.3080 -23.3011 -23.2723 -23.2423 -17.9929 -16.4125 -14.2299 -12.9756
   -11.3255 -11.2513 -10.8891 -10.6923  -9.7347  -9.2189  -8.5252  -8.1255
    -7.6980  -7.6101  -7.5952  -7.5843  -7.3751  -7.3497  -7.3377  -7.3165
    -7.3096  -7.3012  -7.2625  -7.1543  -7.1463  -7.1456  -7.1454  -7.1314
    -7.1307  -7.1297  -7.1287  -7.0164  -7.0091  -7.0079  -6.9892  -6.9889
    -6.9877  -6.9843  -6.9407  -6.9377  -6.9243  -6.9234  -6.9102  -6.9019
    -6.9012  -6.8605  -6.8578  -6.8493  -6.8253  -6.8248  -6.7769  -6.7724
    -6.7693  -6.7688  -6.7571  -6.7558  -6.7512  -6.7493  -6.7444  -6.7085
    -6.7071  -6.7070  -6.6791  -6.6770  -6.6081  -6.5940  -6.5937  -6.5547
    -6.5544  -6.5298  -6.5285  -6.5108  -6.5051  -6.5042  -6.5039  -6.4923
    -6.3914  -6.2823  -6.2660  -6.2649  -6.2637  -6.2395  -6.2337  -6.2112
    -6.2065  -6.2037  -6.2033  -6.2023  -6.2004  -6.1932  -6.1906  -6.1735
    -6.0900  -6.0552  -6.0547  -6.0097  -6.0018  -5.9955  -5.9876  -5.9663
    -5.9077  -5.9046  -5.8414  -5.8097  -5.8035  -5.8032  -5.8004  -5.8003
    -5.7972  -5.7963  -5.7960  -5.7479  -5.7080  -5.7069  -5.7051  -5.6999
    -5.6994  -5.5741  -5.5523  -5.5520  -5.5314  -5.5302  -5.5254  -5.5226
    -5.5218  -5.5134  -5.5117  -5.5075  -5.5071  -5.4957  -5.4949  -5.4906
    -5.4893  -5.4384  -5.4341  -5.4085  -5.4019  -5.3371  -5.2898  -5.2805
    -5.2801  -5.2636  -5.2628  -5.2527  -5.2490  -5.2469  -5.2418  -5.2406
    -5.2391  -5.2374  -5.2319  -5.2223  -5.2101  -5.2101  -5.2059  -5.2039
    -5.1784  -5.1753  -5.1708  -5.1656  -5.1581  -5.1575  -5.1503  -5.1501
    -5.1369  -5.0900  -5.0900  -5.0773  -5.0476  -5.0454  -5.0405  -5.0257
    -5.0109  -5.0067  -4.9866  -4.9865  -4.9853  -4.9428  -4.9304  -4.9248
    -4.9187  -4.9115  -4.9115  -4.8688  -4.8641  -4.8617  -4.8544  -4.8429
    -4.8428  -4.8388  -4.8370  -4.8308  -4.8079  -4.8018  -4.7336  -4.7255
    -4.6821  -4.6793  -4.6727  -4.6549  -4.6259  -4.6220  -4.6156  -4.6014
    -4.6014  -4.5942  -4.5613  -4.5402  -4.5367  -4.2531  -4.2150  -4.2125
    -4.1691

          k = 0.0000 0.3536 0.0000 (200366 PWs)   bands (ev):

   -46.3866 -46.3851 -46.3776 -46.3775 -46.3767 -46.3766 -46.3687 -46.3683
   -46.3554 -46.3541 -46.3389 -46.3378 -46.3345 -46.3176 -46.3163 -46.3058
   -45.8633 -45.8604 -45.8539 -45.8534 -45.8526 -45.8522 -45.8515 -45.8503
   -45.8441 -45.8434 -45.8395 -45.8378 -45.8330 -45.8308 -45.8199 -45.8183
   -45.7095 -45.7042 -45.6985 -45.6974 -45.6949 -45.6943 -45.6922 -45.6867
   -45.6858 -45.6853 -45.6842 -45.6814 -45.6786 -45.6750 -45.6713 -45.6671
   -45.4170 -45.4166 -45.4087 -45.4086 -45.4082 -45.4081 -45.4004 -45.3997
   -45.3981 -45.3926 -45.3731 -45.3599 -45.3508 -45.3450 -45.3361 -45.3232
   -28.9467 -28.7152 -27.4515 -27.2521 -24.7918 -24.7578 -24.7526 -24.7196
   -24.7003 -24.7002 -24.6887 -24.6887 -24.6601 -24.6537 -24.6486 -24.6402
   -24.6178 -24.6025 -24.5675 -24.5578 -24.5537 -24.4691 -24.4338 -24.4336
   -24.3708 -24.3706 -24.3261 -24.2904 -24.2580 -24.2575 -24.2374 -24.2290
   -24.2221 -24.2150 -24.2012 -24.2000 -24.1809 -24.1515 -24.1081 -24.1076
   -24.0755 -24.0731 -24.0685 -24.0543 -24.0474 -24.0430 -24.0193 -24.0131
   -24.0093 -24.0034 -24.0008 -23.9829 -23.4688 -23.4343 -23.4285 -23.3958
   -23.3958 -23.3942 -23.3704 -23.3704 -23.3515 -23.3432 -23.3245 -23.3205
   -23.3130 -23.3044 -23.2697 -23.2450 -17.9929 -16.4125 -14.2299 -12.9755
   -11.3256 -11.2512 -10.8894 -10.6924  -9.7347  -9.2188  -8.5261  -8.1264
    -7.6980  -7.5460  -7.5326  -7.5022  -7.3725  -7.3326  -7.3167  -7.2959
    -7.2874  -7.2849  -7.2624  -7.1541  -7.1471  -7.1414  -7.1245  -7.1242
    -7.1207  -7.1196  -7.0928  -7.0839  -7.0625  -7.0494  -7.0480  -7.0134
    -6.9818  -6.9669  -6.9659  -6.9636  -6.9615  -6.9593  -6.9574  -6.9240
    -6.9230  -6.9085  -6.8986  -6.8984  -6.8920  -6.8578  -6.8555  -6.8317
    -6.8308  -6.7873  -6.7865  -6.7779  -6.7668  -6.7472  -6.7447  -6.7095
    -6.7080  -6.6810  -6.6476  -6.6094  -6.6034  -6.5871  -6.5868  -6.5855
    -6.5847  -6.5268  -6.5253  -6.5193  -6.5187  -6.4864  -6.4469  -6.4455
    -6.4418  -6.4408  -6.2960  -6.2953  -6.2823  -6.2816  -6.2399  -6.1672
    -6.1665  -6.1416  -6.1167  -6.0906  -6.0838  -6.0719  -6.0668  -6.0667
    -6.0425  -6.0329  -6.0299  -5.9774  -5.9500  -5.9304  -5.9302  -5.8811
    -5.8768  -5.8658  -5.8594  -5.8233  -5.8076  -5.8074  -5.7881  -5.7879
    -5.7820  -5.7812  -5.7711  -5.7233  -5.7229  -5.7058  -5.6697  -5.6695
    -5.6567  -5.5646  -5.5639  -5.5623  -5.5615  -5.5555  -5.5507  -5.5481
    -5.5406  -5.5395  -5.5218  -5.5185  -5.5175  -5.4887  -5.4863  -5.4855
    -5.4574  -5.4553  -5.4510  -5.4439  -5.4414  -5.4313  -5.4287  -5.4067
    -5.3909  -5.3900  -5.3391  -5.2656  -5.2604  -5.2571  -5.2462  -5.2449
    -5.2431  -5.2370  -5.2333  -5.2325  -5.1978  -5.1850  -5.1828  -5.1821
    -5.1793  -5.1771  -5.1761  -5.1674  -5.1630  -5.1572  -5.1202  -5.0931
    -5.0760  -5.0752  -5.0674  -5.0674  -5.0473  -5.0262  -5.0256  -5.0197
    -5.0177  -5.0175  -4.9965  -4.9868  -4.9860  -4.9700  -4.9630  -4.9615
    -4.9334  -4.9168  -4.8884  -4.8873  -4.8870  -4.8773  -4.8584  -4.8459
    -4.8420  -4.8415  -4.8379  -4.7877  -4.7837  -4.7759  -4.7346  -4.7299
    -4.6884  -4.6749  -4.6708  -4.6417  -4.6254  -4.6200  -4.6150  -4.6150
    -4.6095  -4.5947  -4.5628  -4.5529  -4.5449  -4.2472  -4.2205  -4.2072
    -4.1740

          k = 0.0000-0.7071 0.0000 (200506 PWs)   bands (ev):

   -46.3859 -46.3859 -46.3772 -46.3772 -46.3771 -46.3771 -46.3685 -46.3685
   -46.3551 -46.3546 -46.3388 -46.3380 -46.3346 -46.3176 -46.3164 -46.3058
   -45.8620 -45.8619 -45.8531 -45.8531 -45.8526 -45.8524 -45.8521 -45.8510
   -45.8440 -45.8436 -45.8391 -45.8383 -45.8325 -45.8314 -45.8197 -45.8186
   -45.7078 -45.7071 -45.6971 -45.6969 -45.6961 -45.6959 -45.6899 -45.6877
   -45.6858 -45.6856 -45.6832 -45.6823 -45.6773 -45.6760 -45.6714 -45.6672
   -45.4169 -45.4169 -45.4085 -45.4085 -45.4084 -45.4084 -45.4001 -45.4001
   -45.3982 -45.3926 -45.3731 -45.3600 -45.3508 -45.3450 -45.3361 -45.3233
   -28.9468 -28.7152 -27.4515 -27.2521 -24.7748 -24.7748 -24.7373 -24.7356
   -24.6945 -24.6945 -24.6945 -24.6944 -24.6556 -24.6532 -24.6483 -24.6461
   -24.6102 -24.6102 -24.5620 -24.5594 -24.5268 -24.5261 -24.4117 -24.4114
   -24.4110 -24.4108 -24.3006 -24.2995 -24.2305 -24.2295 -24.2245 -24.2242
   -24.2192 -24.2186 -24.2166 -24.2160 -24.1199 -24.1192 -24.1054 -24.0984
   -24.0824 -24.0809 -24.0807 -24.0797 -24.0437 -24.0398 -24.0385 -24.0371
   -24.0115 -24.0113 -23.9946 -23.9902 -23.4517 -23.4516 -23.4151 -23.4077
   -23.3832 -23.3832 -23.3832 -23.3832 -23.3430 -23.3354 -23.3333 -23.3208
   -23.3125 -23.3125 -23.2663 -23.2485 -17.9930 -16.4125 -14.2298 -12.9753
   -11.3259 -11.2511 -10.8896 -10.6924  -9.7348  -9.2186  -8.5269  -8.1272
    -7.6980  -7.4288  -7.4287  -7.4021  -7.4011  -7.3171  -7.2645  -7.2528
    -7.2526  -7.2500  -7.2487  -7.2148  -7.2135  -7.1393  -7.1375  -7.0953
    -7.0937  -7.0935  -7.0929  -7.0635  -7.0631  -7.0568  -7.0549  -7.0518
    -7.0517  -7.0513  -7.0507  -7.0470  -7.0460  -7.0215  -7.0039  -6.9885
    -6.9249  -6.9242  -6.9242  -6.9241  -6.8694  -6.8674  -6.8668  -6.8663
    -6.8569  -6.8198  -6.8189  -6.8180  -6.8179  -6.7800  -6.7738  -6.7724
    -6.6286  -6.6278  -6.6276  -6.6276  -6.6154  -6.6154  -6.6085  -6.5764
    -6.5734  -6.5576  -6.5564  -6.5560  -6.5549  -6.3806  -6.3802  -6.3801
    -6.3796  -6.3289  -6.3284  -6.3281  -6.3277  -6.2849  -6.2841  -6.0916
    -6.0504  -6.0495  -6.0355  -6.0349  -6.0064  -6.0057  -6.0056  -6.0049
    -5.9677  -5.9666  -5.9577  -5.9527  -5.9410  -5.9401  -5.9266  -5.9262
    -5.9255  -5.9254  -5.8271  -5.8269  -5.7793  -5.7789  -5.7779  -5.7756
    -5.7654  -5.7647  -5.7643  -5.7632  -5.6505  -5.6503  -5.6475  -5.6464
    -5.6243  -5.6234  -5.5946  -5.5927  -5.5672  -5.5666  -5.5661  -5.5660
    -5.5395  -5.5381  -5.5361  -5.5355  -5.5006  -5.4997  -5.4956  -5.4944
    -5.4941  -5.4939  -5.4481  -5.4480  -5.4472  -5.4458  -5.3890  -5.3884
    -5.3883  -5.3881  -5.3766  -5.3761  -5.3755  -5.3752  -5.2597  -5.2594
    -5.2574  -5.2570  -5.2563  -5.2557  -5.2403  -5.2399  -5.2122  -5.2077
    -5.1809  -5.1620  -5.1606  -5.1517  -5.1496  -5.0957  -5.0955  -5.0848
    -5.0834  -5.0821  -5.0812  -5.0612  -5.0554  -5.0455  -5.0450  -5.0446
    -5.0432  -5.0070  -5.0022  -5.0001  -4.9933  -4.9578  -4.9557  -4.9520
    -4.9500  -4.9064  -4.9023  -4.8918  -4.8890  -4.8471  -4.8464  -4.8461
    -4.8459  -4.8007  -4.7945  -4.7937  -4.7929  -4.7530  -4.7529  -4.7121
    -4.7083  -4.6487  -4.6482  -4.6477  -4.6471  -4.6282  -4.6282  -4.6173
    -4.6099  -4.5911  -4.5746  -4.5638  -4.5516  -4.2344  -4.2344  -4.2005
    -4.1818

          k = 0.2500 0.0000 0.0000 (200254 PWs)   bands (ev):

   -46.3861 -46.3841 -46.3811 -46.3796 -46.3743 -46.3733 -46.3695 -46.3686
   -46.3555 -46.3538 -46.3394 -46.3377 -46.3341 -46.3175 -46.3163 -46.3058
   -45.8632 -45.8592 -45.8573 -45.8543 -45.8530 -45.8504 -45.8497 -45.8487
   -45.8448 -45.8436 -45.8403 -45.8377 -45.8328 -45.8302 -45.8201 -45.8181
   -45.7097 -45.7021 -45.7014 -45.6962 -45.6951 -45.6939 -45.6907 -45.6877
   -45.6864 -45.6853 -45.6849 -45.6810 -45.6790 -45.6744 -45.6713 -45.6670
   -45.4165 -45.4158 -45.4118 -45.4113 -45.4055 -45.4048 -45.4011 -45.4001
   -45.3981 -45.3925 -45.3731 -45.3599 -45.3507 -45.3449 -45.3361 -45.3232
   -28.9467 -28.7152 -27.4515 -27.2521 -24.7917 -24.7529 -24.7458 -24.7399
   -24.7111 -24.7090 -24.6953 -24.6646 -24.6641 -24.6614 -24.6259 -24.6224
   -24.6187 -24.6075 -24.5737 -24.5588 -24.5579 -24.4919 -24.3900 -24.3826
   -24.3820 -24.3484 -24.3400 -24.2892 -24.2812 -24.2801 -24.2652 -24.2466
   -24.2383 -24.2294 -24.1907 -24.1775 -24.1747 -24.1680 -24.1445 -24.1256
   -24.0778 -24.0615 -24.0489 -24.0360 -24.0332 -24.0294 -24.0260 -24.0143
   -24.0100 -24.0083 -23.9873 -23.9751 -23.4703 -23.4315 -23.4300 -23.4223
   -23.3890 -23.3850 -23.3775 -23.3718 -23.3409 -23.3343 -23.3298 -23.3257
   -23.3061 -23.2928 -23.2768 -23.2455 -17.9929 -16.4125 -14.2299 -12.9756
   -11.3255 -11.2513 -10.8891 -10.6924  -9.7348  -9.2189  -8.5253  -8.1256
    -7.6979  -7.5786  -7.5630  -7.5340  -7.3413  -7.3337  -7.3215  -7.3166
    -7.3101  -7.2964  -7.2756  -7.2659  -7.2531  -7.2149  -7.1428  -7.1342
    -7.1093  -7.0923  -7.0908  -7.0606  -7.0473  -7.0460  -7.0139  -7.0108
    -6.9871  -6.9779  -6.9568  -6.9136  -6.9135  -6.9034  -6.8844  -6.8816
    -6.8716  -6.8709  -6.8573  -6.8475  -6.8379  -6.8088  -6.7996  -6.7879
    -6.7861  -6.7768  -6.7672  -6.7582  -6.7577  -6.7493  -6.7382  -6.7366
    -6.7309  -6.6988  -6.6866  -6.6358  -6.6355  -6.6071  -6.5761  -6.5661
    -6.5295  -6.5042  -6.4987  -6.4912  -6.4526  -6.4411  -6.4340  -6.4099
    -6.3902  -6.3543  -6.3387  -6.3365  -6.3340  -6.2923  -6.2706  -6.2624
    -6.2509  -6.1961  -6.1646  -6.1477  -6.1365  -6.1315  -6.1199  -6.1081
    -6.0896  -6.0689  -6.0414  -6.0173  -6.0169  -5.9962  -5.9792  -5.9715
    -5.9475  -5.9405  -5.9086  -5.8935  -5.8811  -5.8632  -5.7837  -5.7751
    -5.7708  -5.7341  -5.7121  -5.7044  -5.6987  -5.6827  -5.6771  -5.6632
    -5.6607  -5.6438  -5.6057  -5.5958  -5.5919  -5.5788  -5.5524  -5.5462
    -5.5236  -5.5130  -5.5015  -5.4919  -5.4302  -5.4282  -5.4201  -5.4134
    -5.4087  -5.4048  -5.4029  -5.3732  -5.3675  -5.3659  -5.3630  -5.3308
    -5.3227  -5.2673  -5.2663  -5.2630  -5.2447  -5.2436  -5.2424  -5.2382
    -5.2367  -5.2285  -5.2226  -5.2070  -5.2059  -5.2029  -5.2008  -5.1936
    -5.1862  -5.1834  -5.1800  -5.1663  -5.1625  -5.1513  -5.1504  -5.1409
    -5.1129  -5.1051  -5.1011  -5.0833  -5.0725  -5.0674  -5.0629  -5.0394
    -5.0351  -5.0143  -4.9954  -4.9906  -4.9799  -4.9779  -4.9686  -4.9552
    -4.9394  -4.9383  -4.9272  -4.9196  -4.9126  -4.9030  -4.8984  -4.8685
    -4.8517  -4.8155  -4.7860  -4.7567  -4.7422  -4.7230  -4.7207  -4.7080
    -4.6694  -4.6624  -4.6506  -4.6320  -4.6275  -4.6137  -4.6051  -4.6028
    -4.5723  -4.5599  -4.5419  -4.5346  -4.4799  -4.2982  -4.2705  -4.2571
    -4.2237

          k = 0.2500 0.3536 0.0000 (200411 PWs)   bands (ev):

   -46.3859 -46.3846 -46.3809 -46.3799 -46.3742 -46.3735 -46.3694 -46.3688
   -46.3553 -46.3542 -46.3393 -46.3379 -46.3341 -46.3175 -46.3164 -46.3058
   -45.8627 -45.8600 -45.8569 -45.8548 -45.8526 -45.8503 -45.8502 -45.8490
   -45.8447 -45.8438 -45.8400 -45.8381 -45.8325 -45.8305 -45.8200 -45.8184
   -45.7090 -45.7039 -45.7015 -45.6976 -45.6941 -45.6925 -45.6913 -45.6875
   -45.6862 -45.6857 -45.6846 -45.6814 -45.6782 -45.6749 -45.6714 -45.6671
   -45.4164 -45.4161 -45.4117 -45.4114 -45.4055 -45.4050 -45.4010 -45.4003
   -45.3982 -45.3926 -45.3731 -45.3600 -45.3508 -45.3450 -45.3361 -45.3232
   -28.9467 -28.7152 -27.4515 -27.2521 -24.7850 -24.7526 -24.7469 -24.7357
   -24.7159 -24.7151 -24.6911 -24.6693 -24.6637 -24.6618 -24.6233 -24.6221
   -24.6191 -24.6102 -24.5716 -24.5605 -24.5491 -24.4838 -24.4620 -24.4095
   -24.3773 -24.3292 -24.3205 -24.2834 -24.2817 -24.2651 -24.2572 -24.2365
   -24.2335 -24.2220 -24.1839 -24.1759 -24.1751 -24.1469 -24.1360 -24.1023
   -24.0768 -24.0653 -24.0544 -24.0494 -24.0456 -24.0403 -24.0269 -24.0261
   -24.0138 -24.0055 -23.9957 -23.9805 -23.4634 -23.4295 -23.4250 -23.4240
   -23.3951 -23.3916 -23.3720 -23.3673 -23.3455 -23.3400 -23.3263 -23.3217
   -23.3095 -23.2970 -23.2741 -23.2483 -17.9929 -16.4125 -14.2299 -12.9755
   -11.3257 -11.2513 -10.8894 -10.6924  -9.7348  -9.2187  -8.5262  -8.1265
    -7.6979  -7.5138  -7.4857  -7.4748  -7.3313  -7.3171  -7.2918  -7.2762
    -7.2730  -7.2677  -7.2595  -7.2574  -7.2376  -7.1728  -7.1448  -7.1262
    -7.0975  -7.0807  -7.0802  -7.0785  -7.0681  -7.0543  -7.0444  -7.0222
    -7.0146  -7.0070  -6.9948  -6.9943  -6.9846  -6.9823  -6.9725  -6.9605
    -6.9286  -6.9171  -6.8983  -6.8789  -6.8667  -6.8625  -6.8579  -6.8546
    -6.8520  -6.8434  -6.7955  -6.7781  -6.7719  -6.7557  -6.7283  -6.7098
    -6.7048  -6.6759  -6.6443  -6.6324  -6.6176  -6.6070  -6.5823  -6.5743
    -6.5566  -6.4959  -6.4759  -6.4724  -6.4604  -6.4527  -6.4515  -6.4399
    -6.4020  -6.3547  -6.3004  -6.2839  -6.2573  -6.2478  -6.1996  -6.1890
    -6.1774  -6.1487  -6.1475  -6.1116  -6.0910  -6.0786  -6.0655  -6.0430
    -6.0328  -6.0162  -5.9994  -5.9932  -5.9831  -5.9606  -5.9577  -5.9546
    -5.9292  -5.9257  -5.9138  -5.8703  -5.8697  -5.8278  -5.7924  -5.7642
    -5.7619  -5.7467  -5.7390  -5.7060  -5.6782  -5.6748  -5.6625  -5.6506
    -5.6472  -5.6427  -5.6153  -5.5986  -5.5860  -5.5830  -5.5575  -5.4972
    -5.4841  -5.4806  -5.4786  -5.4770  -5.4711  -5.4650  -5.4569  -5.4470
    -5.4454  -5.4362  -5.4274  -5.4258  -5.4241  -5.4103  -5.3913  -5.3881
    -5.3398  -5.3374  -5.3256  -5.3183  -5.2901  -5.2833  -5.2828  -5.2720
    -5.2640  -5.2481  -5.2377  -5.2251  -5.2180  -5.2142  -5.2029  -5.1938
    -5.1884  -5.1792  -5.1571  -5.1535  -5.1503  -5.1211  -5.1080  -5.1020
    -5.1008  -5.0969  -5.0946  -5.0813  -5.0737  -5.0482  -5.0429  -5.0393
    -5.0116  -5.0105  -5.0000  -4.9957  -4.9950  -4.9869  -4.9820  -4.9703
    -4.9653  -4.9473  -4.9324  -4.9274  -4.9247  -4.9134  -4.8936  -4.8697
    -4.8658  -4.7826  -4.7728  -4.7544  -4.7373  -4.7289  -4.7216  -4.7025
    -4.6741  -4.6636  -4.6462  -4.6389  -4.6318  -4.6061  -4.6039  -4.5941
    -4.5730  -4.5618  -4.5442  -4.5370  -4.4899  -4.2948  -4.2739  -4.2543
    -4.2265

          k = 0.2500-0.7071 0.0000 (200442 PWs)   bands (ev):

   -46.3853 -46.3853 -46.3804 -46.3804 -46.3738 -46.3738 -46.3692 -46.3691
   -46.3550 -46.3545 -46.3392 -46.3381 -46.3341 -46.3175 -46.3164 -46.3058
   -45.8614 -45.8613 -45.8560 -45.8558 -45.8521 -45.8509 -45.8496 -45.8496
   -45.8445 -45.8441 -45.8395 -45.8386 -45.8321 -45.8310 -45.8197 -45.8186
   -45.7073 -45.7066 -45.7000 -45.6998 -45.6930 -45.6927 -45.6899 -45.6877
   -45.6866 -45.6864 -45.6831 -45.6824 -45.6770 -45.6759 -45.6714 -45.6672
   -45.4163 -45.4163 -45.4116 -45.4116 -45.4052 -45.4052 -45.4007 -45.4007
   -45.3982 -45.3926 -45.3731 -45.3600 -45.3508 -45.3450 -45.3361 -45.3232
   -28.9467 -28.7153 -27.4515 -27.2521 -24.7688 -24.7688 -24.7324 -24.7308
   -24.7255 -24.7255 -24.6816 -24.6792 -24.6627 -24.6627 -24.6218 -24.6195
   -24.6168 -24.6167 -24.5675 -24.5649 -24.5186 -24.5179 -24.4577 -24.4570
   -24.3605 -24.3598 -24.2940 -24.2929 -24.2637 -24.2630 -24.2477 -24.2469
   -24.2012 -24.2009 -24.1975 -24.1969 -24.1173 -24.1163 -24.1031 -24.0976
   -24.0942 -24.0920 -24.0643 -24.0621 -24.0617 -24.0593 -24.0248 -24.0216
   -24.0175 -24.0156 -23.9948 -23.9913 -23.4465 -23.4465 -23.4117 -23.4096
   -23.4096 -23.4049 -23.3623 -23.3564 -23.3564 -23.3497 -23.3180 -23.3179
   -23.3151 -23.3037 -23.2706 -23.2520 -17.9929 -16.4125 -14.2298 -12.9753
   -11.3258 -11.2512 -10.8895 -10.6923  -9.7346  -9.2186  -8.5269  -8.1272
    -7.6978  -7.3910  -7.3907  -7.3610  -7.3599  -7.3170  -7.2638  -7.2326
    -7.2321  -7.2028  -7.2022  -7.1980  -7.1966  -7.1783  -7.1774  -7.1230
    -7.1213  -7.0925  -7.0924  -7.0889  -7.0887  -7.0882  -7.0880  -7.0614
    -7.0605  -7.0342  -7.0326  -7.0294  -7.0283  -7.0185  -6.9962  -6.9852
    -6.9800  -6.9786  -6.9546  -6.9538  -6.9394  -6.9384  -6.9267  -6.9263
    -6.9097  -6.9068  -6.8564  -6.7912  -6.7904  -6.7801  -6.7734  -6.7722
    -6.6548  -6.6548  -6.6116  -6.6085  -6.6069  -6.5618  -6.5593  -6.5591
    -6.5584  -6.5091  -6.5085  -6.4373  -6.4369  -6.4245  -6.4236  -6.3886
    -6.3872  -6.2886  -6.2879  -6.2722  -6.2712  -6.1864  -6.1858  -6.1820
    -6.1816  -6.0915  -6.0661  -6.0656  -6.0193  -6.0175  -6.0039  -6.0035
    -5.9898  -5.9892  -5.9538  -5.9535  -5.9380  -5.9373  -5.9046  -5.9011
    -5.8871  -5.8859  -5.8777  -5.8770  -5.8300  -5.8285  -5.7653  -5.7645
    -5.7480  -5.7471  -5.7029  -5.7023  -5.6965  -5.6958  -5.6679  -5.6669
    -5.6344  -5.6340  -5.6276  -5.6252  -5.6225  -5.6224  -5.6160  -5.6149
    -5.5258  -5.5243  -5.4879  -5.4868  -5.4707  -5.4697  -5.4596  -5.4582
    -5.4380  -5.4366  -5.4223  -5.4205  -5.4005  -5.3996  -5.3936  -5.3927
    -5.3534  -5.3518  -5.3483  -5.3481  -5.3374  -5.3350  -5.3184  -5.3167
    -5.3006  -5.2995  -5.2282  -5.2278  -5.2044  -5.2034  -5.1941  -5.1927
    -5.1866  -5.1750  -5.1740  -5.1622  -5.1608  -5.1561  -5.1551  -5.1142
    -5.1142  -5.0892  -5.0891  -5.0757  -5.0740  -5.0439  -5.0369  -5.0314
    -5.0238  -4.9961  -4.9949  -4.9822  -4.9820  -4.9703  -4.9693  -4.9572
    -4.9568  -4.9565  -4.9560  -4.9404  -4.9365  -4.9117  -4.9100  -4.8718
    -4.8703  -4.7658  -4.7651  -4.7467  -4.7466  -4.7279  -4.7217  -4.6938
    -4.6822  -4.6599  -4.6566  -4.6362  -4.6358  -4.6035  -4.6023  -4.5723
    -4.5690  -4.5689  -4.5616  -4.5162  -4.5141  -4.2842  -4.2841  -4.2492
    -4.2312

          k =-0.5000 0.0000 0.0000 (200370 PWs)   bands (ev):

   -46.3847 -46.3835 -46.3830 -46.3819 -46.3720 -46.3711 -46.3709 -46.3700
   -46.3555 -46.3539 -46.3397 -46.3378 -46.3338 -46.3174 -46.3164 -46.3058
   -45.8622 -45.8593 -45.8586 -45.8559 -45.8529 -45.8497 -45.8485 -45.8472
   -45.8458 -45.8444 -45.8407 -45.8380 -45.8323 -45.8299 -45.8202 -45.8182
   -45.7090 -45.7038 -45.7009 -45.6977 -45.6948 -45.6912 -45.6899 -45.6893
   -45.6868 -45.6860 -45.6851 -45.6809 -45.6785 -45.6744 -45.6714 -45.6670
   -45.4151 -45.4146 -45.4141 -45.4136 -45.4035 -45.4026 -45.4024 -45.4015
   -45.3981 -45.3926 -45.3731 -45.3600 -45.3507 -45.3449 -45.3361 -45.3232
   -28.9467 -28.7152 -27.4515 -27.2521 -24.7725 -24.7701 -24.7416 -24.7327
   -24.7312 -24.7166 -24.7039 -24.6763 -24.6409 -24.6395 -24.6311 -24.6299
   -24.6075 -24.5990 -24.5790 -24.5706 -24.5362 -24.5288 -24.3758 -24.3710
   -24.3689 -24.3614 -24.3231 -24.3219 -24.2661 -24.2633 -24.2614 -24.2592
   -24.2558 -24.2520 -24.1736 -24.1711 -24.1638 -24.1612 -24.1588 -24.1457
   -24.0502 -24.0476 -24.0429 -24.0403 -24.0382 -24.0321 -24.0267 -24.0235
   -24.0228 -24.0137 -23.9823 -23.9730 -23.4547 -23.4537 -23.4266 -23.4096
   -23.4086 -23.3903 -23.3817 -23.3472 -23.3462 -23.3431 -23.3206 -23.3196
   -23.3114 -23.2844 -23.2820 -23.2497 -17.9929 -16.4125 -14.2299 -12.9758
   -11.3256 -11.2514 -10.8892 -10.6926  -9.7347  -9.2189  -8.5253  -8.1257
    -7.6978  -7.4917  -7.4831  -7.4653  -7.4619  -7.4102  -7.4018  -7.3171
    -7.2635  -7.2480  -7.2346  -7.2130  -7.2113  -7.1857  -7.1669  -7.1644
    -7.1611  -7.1410  -7.1390  -7.1129  -7.1066  -7.1043  -7.0932  -7.0095
    -6.9818  -6.9805  -6.9761  -6.9714  -6.8583  -6.8446  -6.8432  -6.8396
    -6.8323  -6.8271  -6.8259  -6.8247  -6.8212  -6.8185  -6.8160  -6.8099
    -6.8092  -6.8061  -6.7919  -6.7755  -6.7594  -6.7584  -6.7581  -6.7468
    -6.6595  -6.6565  -6.6515  -6.6474  -6.6076  -6.5937  -6.5839  -6.5634
    -6.5578  -6.5324  -6.5228  -6.5183  -6.5126  -6.5101  -6.4945  -6.3355
    -6.3324  -6.3274  -6.3270  -6.2899  -6.2816  -6.2600  -6.2564  -6.2105
    -6.2018  -6.1942  -6.1939  -6.1631  -6.1545  -6.1002  -6.0931  -6.0906
    -6.0885  -6.0864  -6.0597  -6.0443  -6.0344  -6.0269  -6.0265  -6.0247
    -6.0114  -5.9931  -5.9038  -5.9008  -5.8622  -5.8609  -5.8409  -5.8259
    -5.7273  -5.7267  -5.6883  -5.6881  -5.6487  -5.6444  -5.6378  -5.6343
    -5.6027  -5.5976  -5.5952  -5.5910  -5.5883  -5.5872  -5.5562  -5.5521
    -5.5120  -5.5072  -5.5042  -5.5036  -5.5029  -5.4999  -5.4627  -5.4601
    -5.3417  -5.3374  -5.3367  -5.3327  -5.3309  -5.3275  -5.3268  -5.3258
    -5.3248  -5.3229  -5.3024  -5.3012  -5.2967  -5.2932  -5.2274  -5.2267
    -5.2026  -5.2003  -5.1968  -5.1956  -5.1940  -5.1929  -5.1869  -5.1819
    -5.1810  -5.1801  -5.1772  -5.1684  -5.1673  -5.1626  -5.1542  -5.1436
    -5.1347  -5.0936  -5.0900  -5.0892  -5.0865  -5.0855  -5.0824  -5.0379
    -5.0360  -5.0336  -5.0278  -5.0164  -4.9942  -4.9934  -4.9899  -4.9769
    -4.9653  -4.9551  -4.9502  -4.9457  -4.9419  -4.9102  -4.9089  -4.8844
    -4.8730  -4.7994  -4.7855  -4.7289  -4.7226  -4.7216  -4.7010  -4.6917
    -4.6562  -4.6457  -4.6450  -4.6411  -4.6403  -4.6061  -4.5963  -4.5741
    -4.5594  -4.4202  -4.4193  -4.4134  -4.4128  -4.3830  -4.3779  -4.3664
    -4.3536

          k =-0.5000 0.3536 0.0000 (200424 PWs)   bands (ev):

   -46.3844 -46.3833 -46.3832 -46.3821 -46.3719 -46.3713 -46.3708 -46.3702
   -46.3553 -46.3541 -46.3396 -46.3380 -46.3338 -46.3174 -46.3164 -46.3059
   -45.8617 -45.8591 -45.8589 -45.8564 -45.8525 -45.8502 -45.8483 -45.8474
   -45.8456 -45.8446 -45.8404 -45.8384 -45.8321 -45.8303 -45.8200 -45.8185
   -45.7084 -45.7033 -45.7031 -45.6991 -45.6925 -45.6909 -45.6897 -45.6893
   -45.6870 -45.6859 -45.6850 -45.6814 -45.6779 -45.6749 -45.6714 -45.6671
   -45.4151 -45.4147 -45.4140 -45.4136 -45.4033 -45.4028 -45.4023 -45.4017
   -45.3982 -45.3926 -45.3731 -45.3600 -45.3507 -45.3449 -45.3361 -45.3232
   -28.9467 -28.7152 -27.4515 -27.2521 -24.7666 -24.7645 -24.7385 -24.7370
   -24.7366 -24.7112 -24.7096 -24.6823 -24.6394 -24.6381 -24.6325 -24.6313
   -24.6064 -24.6002 -24.5779 -24.5717 -24.5272 -24.5199 -24.4445 -24.4381
   -24.3200 -24.3189 -24.3077 -24.3014 -24.2898 -24.2893 -24.2668 -24.2594
   -24.2251 -24.2228 -24.1692 -24.1669 -24.1639 -24.1579 -24.1350 -24.1206
   -24.0589 -24.0561 -24.0514 -24.0480 -24.0477 -24.0358 -24.0305 -24.0275
   -24.0266 -24.0150 -23.9893 -23.9797 -23.4482 -23.4472 -23.4202 -23.4163
   -23.4153 -23.3884 -23.3840 -23.3493 -23.3433 -23.3423 -23.3245 -23.3235
   -23.3078 -23.2863 -23.2809 -23.2528 -17.9929 -16.4125 -14.2298 -12.9755
   -11.3257 -11.2512 -10.8893 -10.6924  -9.7346  -9.2187  -8.5262  -8.1266
    -7.6977  -7.4186  -7.4155  -7.4004  -7.3920  -7.3638  -7.3554  -7.3170
    -7.2634  -7.2204  -7.2194  -7.1907  -7.1899  -7.1766  -7.1712  -7.1631
    -7.1568  -7.1233  -7.1216  -7.1205  -7.1129  -7.0479  -7.0388  -7.0311
    -7.0294  -7.0228  -7.0220  -7.0094  -6.9788  -6.9780  -6.9687  -6.9624
    -6.9170  -6.9111  -6.9056  -6.8991  -6.8938  -6.8917  -6.8739  -6.8636
    -6.8573  -6.8452  -6.8325  -6.7781  -6.7714  -6.7563  -6.6987  -6.6954
    -6.6624  -6.6619  -6.6604  -6.6526  -6.6222  -6.6112  -6.6048  -6.5499
    -6.5493  -6.5233  -6.5116  -6.4374  -6.4277  -6.4127  -6.4089  -6.3638
    -6.3603  -6.3063  -6.3008  -6.2465  -6.2454  -6.2225  -6.2217  -6.1346
    -6.1280  -6.1154  -6.1145  -6.0921  -6.0882  -6.0830  -6.0791  -6.0773
    -6.0709  -6.0652  -6.0250  -6.0128  -6.0053  -5.9994  -5.9701  -5.9673
    -5.9558  -5.9408  -5.9330  -5.9316  -5.9296  -5.9295  -5.7675  -5.7634
    -5.7156  -5.7152  -5.7067  -5.7061  -5.7033  -5.7017  -5.6617  -5.6573
    -5.6391  -5.6380  -5.6263  -5.6240  -5.5571  -5.5558  -5.5412  -5.5365
    -5.4710  -5.4674  -5.4597  -5.4594  -5.4479  -5.4405  -5.4288  -5.4257
    -5.4091  -5.4076  -5.3656  -5.3644  -5.3586  -5.3578  -5.3561  -5.3489
    -5.3482  -5.3433  -5.3214  -5.3168  -5.3037  -5.2969  -5.2956  -5.2927
    -5.2627  -5.2609  -5.2495  -5.2446  -5.2218  -5.2204  -5.2141  -5.2130
    -5.1862  -5.1754  -5.1669  -5.1625  -5.1589  -5.1569  -5.1555  -5.1103
    -5.1030  -5.0927  -5.0891  -5.0821  -5.0732  -5.0722  -5.0714  -5.0621
    -5.0600  -5.0454  -5.0379  -5.0324  -5.0237  -4.9770  -4.9750  -4.9648
    -4.9645  -4.9609  -4.9346  -4.9333  -4.9261  -4.9121  -4.9008  -4.8919
    -4.8802  -4.7802  -4.7681  -4.7281  -4.7266  -4.7259  -4.7054  -4.6886
    -4.6622  -4.6491  -4.6471  -4.6453  -4.6438  -4.6026  -4.5955  -4.5722
    -4.5590  -4.4188  -4.4180  -4.4138  -4.4132  -4.3825  -4.3762  -4.3678
    -4.3532

          k =-0.5000-0.7071 0.0000 (200236 PWs)   bands (ev):

   -46.3839 -46.3838 -46.3828 -46.3827 -46.3714 -46.3714 -46.3704 -46.3703
   -46.3549 -46.3545 -46.3395 -46.3380 -46.3337 -46.3174 -46.3163 -46.3058
   -45.8606 -45.8603 -45.8579 -45.8575 -45.8520 -45.8508 -45.8478 -45.8476
   -45.8453 -45.8447 -45.8398 -45.8389 -45.8317 -45.8305 -45.8197 -45.8186
   -45.7069 -45.7059 -45.7017 -45.7014 -45.6904 -45.6903 -45.6901 -45.6881
   -45.6877 -45.6872 -45.6830 -45.6825 -45.6766 -45.6757 -45.6712 -45.6670
   -45.4149 -45.4149 -45.4138 -45.4138 -45.4029 -45.4029 -45.4018 -45.4018
   -45.3981 -45.3925 -45.3731 -45.3599 -45.3507 -45.3449 -45.3360 -45.3231
   -28.9467 -28.7152 -27.4515 -27.2521 -24.7526 -24.7525 -24.7509 -24.7508
   -24.7243 -24.7228 -24.6982 -24.6956 -24.6360 -24.6359 -24.6347 -24.6346
   -24.6044 -24.6023 -24.5761 -24.5734 -24.4983 -24.4974 -24.4912 -24.4908
   -24.3099 -24.3095 -24.3093 -24.3083 -24.2786 -24.2772 -24.2712 -24.2706
   -24.1921 -24.1919 -24.1901 -24.1894 -24.1125 -24.1101 -24.1063 -24.1060
   -24.0928 -24.0858 -24.0759 -24.0736 -24.0435 -24.0406 -24.0399 -24.0393
   -24.0094 -24.0044 -23.9976 -23.9956 -23.4323 -23.4323 -23.4313 -23.4313
   -23.4073 -23.4014 -23.3737 -23.3599 -23.3339 -23.3339 -23.3329 -23.3329
   -23.3017 -23.2924 -23.2771 -23.2566 -17.9929 -16.4125 -14.2297 -12.9752
   -11.3257 -11.2510 -10.8894 -10.6922  -9.7344  -9.2184  -8.5267  -8.1271
    -7.6975  -7.3173  -7.2951  -7.2934  -7.2932  -7.2922  -7.2645  -7.2464
    -7.2460  -7.2352  -7.2329  -7.1541  -7.1528  -7.1470  -7.1457  -7.1387
    -7.1385  -7.1356  -7.1349  -7.1158  -7.1154  -7.1112  -7.1104  -7.0875
    -7.0864  -7.0764  -7.0758  -7.0494  -7.0477  -7.0420  -7.0411  -7.0158
    -6.9886  -6.9885  -6.9849  -6.9847  -6.9734  -6.9729  -6.9552  -6.9438
    -6.8564  -6.7887  -6.7884  -6.7855  -6.7850  -6.7822  -6.7818  -6.7798
    -6.7738  -6.7726  -6.6115  -6.6078  -6.6063  -6.6031  -6.6029  -6.5256
    -6.5253  -6.5148  -6.5103  -6.3411  -6.3408  -6.3390  -6.3387  -6.3118
    -6.3110  -6.3030  -6.3017  -6.1622  -6.1618  -6.1616  -6.1608  -6.1320
    -6.1300  -6.1205  -6.1185  -6.0921  -6.0635  -6.0623  -6.0609  -6.0589
    -6.0302  -6.0293  -6.0245  -6.0237  -5.9860  -5.9851  -5.9812  -5.9806
    -5.8602  -5.8577  -5.8524  -5.8499  -5.7435  -5.7426  -5.7423  -5.7400
    -5.7195  -5.7184  -5.7179  -5.7172  -5.6989  -5.6969  -5.6962  -5.6957
    -5.6601  -5.6597  -5.6569  -5.6563  -5.6549  -5.6538  -5.6481  -5.6467
    -5.4494  -5.4471  -5.4446  -5.4444  -5.4351  -5.4346  -5.4341  -5.4337
    -5.4237  -5.4228  -5.4212  -5.4205  -5.4098  -5.4090  -5.4046  -5.4033
    -5.3703  -5.3677  -5.3643  -5.3627  -5.2710  -5.2697  -5.2694  -5.2691
    -5.2600  -5.2589  -5.2565  -5.2563  -5.2019  -5.2008  -5.1947  -5.1939
    -5.1834  -5.1745  -5.1739  -5.1712  -5.1710  -5.1401  -5.1390  -5.1386
    -5.1371  -5.1235  -5.1228  -5.1121  -5.1118  -5.0490  -5.0490  -5.0489
    -5.0489  -5.0153  -5.0129  -5.0036  -5.0008  -4.9953  -4.9921  -4.9910
    -4.9821  -4.9635  -4.9626  -4.9589  -4.9576  -4.9067  -4.9058  -4.8844
    -4.8809  -4.7418  -4.7418  -4.7397  -4.7396  -4.7253  -4.7179  -4.6832
    -4.6701  -4.6511  -4.6477  -4.6470  -4.6454  -4.5991  -4.5945  -4.5695
    -4.5582  -4.4157  -4.4157  -4.4150  -4.4150  -4.3818  -4.3718  -4.3714
    -4.3527

          k =-0.2500 0.3536 0.0000 (200411 PWs)   bands (ev):

   -46.3859 -46.3846 -46.3809 -46.3799 -46.3742 -46.3735 -46.3694 -46.3688
   -46.3553 -46.3542 -46.3393 -46.3379 -46.3341 -46.3175 -46.3164 -46.3058
   -45.8627 -45.8600 -45.8569 -45.8548 -45.8526 -45.8503 -45.8502 -45.8490
   -45.8447 -45.8438 -45.8400 -45.8381 -45.8325 -45.8305 -45.8200 -45.8184
   -45.7090 -45.7039 -45.7015 -45.6976 -45.6941 -45.6925 -45.6913 -45.6875
   -45.6861 -45.6857 -45.6846 -45.6814 -45.6782 -45.6749 -45.6714 -45.6671
   -45.4164 -45.4161 -45.4117 -45.4114 -45.4055 -45.4050 -45.4010 -45.4003
   -45.3982 -45.3926 -45.3731 -45.3600 -45.3508 -45.3450 -45.3361 -45.3232
   -28.9467 -28.7152 -27.4515 -27.2521 -24.7850 -24.7526 -24.7469 -24.7357
   -24.7159 -24.7151 -24.6911 -24.6693 -24.6637 -24.6618 -24.6233 -24.6221
   -24.6191 -24.6102 -24.5716 -24.5605 -24.5491 -24.4838 -24.4620 -24.4095
   -24.3773 -24.3292 -24.3205 -24.2834 -24.2817 -24.2651 -24.2572 -24.2365
   -24.2335 -24.2220 -24.1839 -24.1759 -24.1751 -24.1469 -24.1360 -24.1023
   -24.0768 -24.0653 -24.0545 -24.0494 -24.0456 -24.0403 -24.0269 -24.0261
   -24.0138 -24.0055 -23.9957 -23.9805 -23.4634 -23.4295 -23.4250 -23.4240
   -23.3951 -23.3916 -23.3720 -23.3673 -23.3455 -23.3400 -23.3263 -23.3217
   -23.3095 -23.2970 -23.2741 -23.2483 -17.9929 -16.4125 -14.2298 -12.9755
   -11.3257 -11.2512 -10.8894 -10.6924  -9.7347  -9.2187  -8.5262  -8.1265
    -7.6979  -7.5138  -7.4857  -7.4748  -7.3313  -7.3171  -7.2917  -7.2762
    -7.2731  -7.2673  -7.2600  -7.2573  -7.2376  -7.1728  -7.1448  -7.1262
    -7.0975  -7.0807  -7.0802  -7.0785  -7.0682  -7.0543  -7.0444  -7.0223
    -7.0144  -7.0070  -6.9948  -6.9942  -6.9847  -6.9823  -6.9726  -6.9605
    -6.9286  -6.9171  -6.8983  -6.8787  -6.8668  -6.8627  -6.8573  -6.8547
    -6.8525  -6.8433  -6.7956  -6.7782  -6.7717  -6.7557  -6.7283  -6.7098
    -6.7048  -6.6759  -6.6444  -6.6323  -6.6178  -6.6071  -6.5822  -6.5742
    -6.5566  -6.4959  -6.4759  -6.4724  -6.4605  -6.4527  -6.4514  -6.4399
    -6.4020  -6.3547  -6.3004  -6.2839  -6.2573  -6.2478  -6.1996  -6.1890
    -6.1774  -6.1487  -6.1474  -6.1116  -6.0916  -6.0783  -6.0655  -6.0429
    -6.0329  -6.0162  -5.9993  -5.9932  -5.9831  -5.9606  -5.9577  -5.9546
    -5.9293  -5.9256  -5.9138  -5.8703  -5.8697  -5.8278  -5.7924  -5.7642
    -5.7619  -5.7467  -5.7390  -5.7060  -5.6782  -5.6748  -5.6625  -5.6506
    -5.6472  -5.6427  -5.6153  -5.5986  -5.5860  -5.5830  -5.5575  -5.4972
    -5.4841  -5.4806  -5.4785  -5.4772  -5.4712  -5.4650  -5.4569  -5.4470
    -5.4454  -5.4362  -5.4274  -5.4259  -5.4240  -5.4104  -5.3914  -5.3880
    -5.3399  -5.3374  -5.3256  -5.3183  -5.2901  -5.2832  -5.2828  -5.2719
    -5.2640  -5.2481  -5.2377  -5.2251  -5.2181  -5.2142  -5.2029  -5.1945
    -5.1877  -5.1789  -5.1573  -5.1534  -5.1502  -5.1210  -5.1085  -5.1020
    -5.1008  -5.0966  -5.0946  -5.0813  -5.0736  -5.0482  -5.0430  -5.0393
    -5.0116  -5.0105  -5.0001  -4.9957  -4.9950  -4.9869  -4.9819  -4.9703
    -4.9654  -4.9470  -4.9326  -4.9277  -4.9248  -4.9128  -4.8936  -4.8697
    -4.8659  -4.7828  -4.7727  -4.7544  -4.7374  -4.7289  -4.7215  -4.7023
    -4.6742  -4.6637  -4.6462  -4.6389  -4.6318  -4.6064  -4.6038  -4.5940
    -4.5730  -4.5618  -4.5442  -4.5368  -4.4900  -4.2948  -4.2739  -4.2543
    -4.2265

     highest occupied level (ev):    -4.1691

!    total energy              =   -4345.71245822 Ry
     estimated scf accuracy    <          4.7E-11 Ry

     The total energy is the sum of the following terms:
     one-electron contribution = -103131.47055942 Ry
     hartree contribution      =   51709.69902857 Ry
     xc contribution           =    -998.21774814 Ry
     ewald contribution        =   48074.27682077 Ry

     convergence has been achieved in   8 iterations

     Forces acting on atoms (cartesian axes, Ry/au):

     atom    1 type  1   force =    -0.00000255    0.00000021   -0.00001456
     atom    2 type  1   force =     0.00001463   -0.00000041    0.00005436
     atom    3 type  1   force =     0.00000495   -0.00000265    0.00005099
     atom    4 type  1   force =     0.00000442    0.00000010   -0.00001468
     atom    5 type  2   force =    -0.00001135    0.00000065   -0.00012918
     atom    6 type  2   force =     0.00000369    0.00000215    0.00001457
     atom    7 type  2   force =    -0.00000721    0.00000058    0.00000959
     atom    8 type  2   force =    -0.00000401    0.00000041   -0.00010803
     atom    9 type  1   force =     0.00001860   -0.00000027    0.00009804
     atom   10 type  1   force =     0.00000498   -0.00002093    0.00000764
     atom   11 type  1   force =     0.00003578   -0.00001177    0.00004799
     atom   12 type  1   force =    -0.00001040    0.00000003    0.00009658
     atom   13 type  2   force =    -0.00000930   -0.00000057    0.00001978
     atom   14 type  2   force =    -0.00002597    0.00000384    0.00001982
     atom   15 type  2   force =     0.00001334    0.00000991    0.00002867
     atom   16 type  2   force =    -0.00003206    0.00000080   -0.00004849
     atom   17 type  1   force =    -0.00003817    0.00000299    0.00008297
     atom   18 type  1   force =     0.00003314   -0.00009251    0.00005056
     atom   19 type  1   force =    -0.00001642   -0.00016488   -0.00016245
     atom   20 type  1   force =     0.00006092    0.00000111    0.00008231
     atom   21 type  2   force =     0.00006903    0.00005875   -0.00003121
     atom   22 type  2   force =     0.00004613    0.00006036   -0.00005975
     atom   23 type  2   force =    -0.00008332    0.00002379   -0.00005810
     atom   24 type  2   force =    -0.00001588    0.00003726   -0.00000080
     atom   25 type  1   force =     0.00020805    0.00005009    0.00035231
     atom   26 type  1   force =     0.00001174   -0.00015251    0.00052235
     atom   27 type  1   force =    -0.00016909    0.00014563   -0.00016500
     atom   28 type  1   force =    -0.00012083    0.00001371    0.00027314
     atom   29 type  2   force =    -0.00002100    0.00003049   -0.00054849
     atom   30 type  2   force =    -0.00011342    0.00012547   -0.00024449
     atom   31 type  2   force =     0.00005919    0.00007140   -0.00025407
     atom   32 type  2   force =     0.00004843    0.00006491    0.00017857
     atom   33 type  1   force =    -0.00000244    0.00000045   -0.00001595
     atom   34 type  1   force =     0.00001484    0.00000106    0.00005527
     atom   35 type  1   force =     0.00000526    0.00000329    0.00005139
     atom   36 type  1   force =     0.00000362    0.00000055   -0.00001781
     atom   37 type  2   force =    -0.00001049    0.00000008   -0.00014217
     atom   38 type  2   force =     0.00000372   -0.00000149    0.00001482
     atom   39 type  2   force =    -0.00000716    0.00000008    0.00000934
     atom   40 type  2   force =    -0.00000314    0.00000028   -0.00009597
     atom   41 type  1   force =     0.00002482    0.00000084    0.00007274
     atom   42 type  1   force =     0.00000587    0.00002083    0.00000930
     atom   43 type  1   force =     0.00003719    0.00001087    0.00005440
     atom   44 type  1   force =    -0.00001419    0.00000042    0.00008350
     atom   45 type  2   force =    -0.00000109    0.00000056    0.00008960
     atom   46 type  2   force =    -0.00002588   -0.00000347    0.00001940
     atom   47 type  2   force =     0.00001346   -0.00000960    0.00003015
     atom   48 type  2   force =    -0.00002388   -0.00000253   -0.00014623
     atom   49 type  1   force =    -0.00007474    0.00000439    0.00001671
     atom   50 type  1   force =     0.00004144    0.00014113    0.00005365
     atom   51 type  1   force =    -0.00001374    0.00020069   -0.00016269
     atom   52 type  1   force =     0.00009568    0.00000081   -0.00013438
     atom   53 type  2   force =     0.00005109    0.00004355   -0.00026945
     atom   54 type  2   force =     0.00004840   -0.00004749   -0.00004989
     atom   55 type  2   force =    -0.00007698   -0.00001541   -0.00005715
     atom   56 type  2   force =     0.00012746    0.00002536    0.00022647
     atom   57 type  1   force =    -0.00053658    0.00009020   -0.00018208
     atom   58 type  1   force =     0.00000638    0.00017646    0.00053253
     atom   59 type  1   force =    -0.00018062   -0.00000251   -0.00024469
     atom   60 type  1   force =     0.00010306    0.00000754    0.00040685
     atom   61 type  2   force =     0.00001676    0.00002596   -0.00073621
     atom   62 type  2   force =    -0.00014370    0.00007824   -0.00032004
     atom   63 type  2   force =     0.00007026   -0.00004530   -0.00023056
     atom   64 type  2   force =     0.00041510    0.00011935    0.00067753
     atom   65 type  1   force =     0.00000264    0.00000004   -0.00001475
     atom   66 type  1   force =    -0.00001470   -0.00000162    0.00005375
     atom   67 type  1   force =    -0.00000483   -0.00000099    0.00005743
     atom   68 type  1   force =    -0.00000444    0.00000016   -0.00001465
     atom   69 type  2   force =     0.00001149    0.00000032   -0.00011955
     atom   70 type  2   force =    -0.00000318   -0.00000141   -0.00000480
     atom   71 type  2   force =     0.00000675    0.00000016    0.00000028
     atom   72 type  2   force =     0.00000391    0.00000056   -0.00014173
     atom   73 type  1   force =    -0.00001900   -0.00000010    0.00010225
     atom   74 type  1   force =    -0.00000952   -0.00001322    0.00007744
     atom   75 type  1   force =    -0.00003109   -0.00001234    0.00003602
     atom   76 type  1   force =     0.00001086   -0.00000048    0.00010429
     atom   77 type  2   force =     0.00001223   -0.00000005   -0.00009274
     atom   78 type  2   force =     0.00002275    0.00000206    0.00000173
     atom   79 type  2   force =    -0.00001010   -0.00000427   -0.00000680
     atom   80 type  2   force =     0.00002927   -0.00000039   -0.00001917
     atom   81 type  1   force =     0.00003588   -0.00000204    0.00008062
     atom   82 type  1   force =    -0.00002495   -0.00007047   -0.00000789
     atom   83 type  1   force =    -0.00000135   -0.00007458    0.00021471
     atom   84 type  1   force =    -0.00005924    0.00000202    0.00007481
     atom   85 type  2   force =    -0.00006516    0.00002540   -0.00001781
     atom   86 type  2   force =    -0.00002377   -0.00002236   -0.00001561
     atom   87 type  2   force =     0.00006153    0.00000977   -0.00002529
     atom   88 type  2   force =    -0.00000077    0.00005636   -0.00005070
     atom   89 type  1   force =    -0.00018324    0.00004858    0.00029019
     atom   90 type  1   force =     0.00001443    0.00013918   -0.00024459
     atom   91 type  1   force =     0.00006116   -0.00002800    0.00017174
     atom   92 type  1   force =     0.00008568    0.00009303    0.00033346
     atom   93 type  2   force =     0.00001381    0.00004245    0.00053495
     atom   94 type  2   force =     0.00006524    0.00014651    0.00007441
     atom   95 type  2   force =    -0.00007969    0.00020314    0.00012372
     atom   96 type  2   force =    -0.00005816    0.00002346   -0.00013329
     atom   97 type  1   force =     0.00000262    0.00000060   -0.00001969
     atom   98 type  1   force =    -0.00001484    0.00000224    0.00005399
     atom   99 type  1   force =    -0.00000520    0.00000164    0.00005802
     atom  100 type  1   force =    -0.00000375    0.00000049   -0.00001793
     atom  101 type  2   force =     0.00001057    0.00000036   -0.00011673
     atom  102 type  2   force =    -0.00000321    0.00000205   -0.00000534
     atom  103 type  2   force =     0.00000671    0.00000049    0.00000034
     atom  104 type  2   force =     0.00000311    0.00000016   -0.00014804
     atom  105 type  1   force =    -0.00002050    0.00000065    0.00008272
     atom  106 type  1   force =    -0.00001132    0.00001232    0.00007810
     atom  107 type  1   force =    -0.00003160    0.00001292    0.00003657
     atom  108 type  1   force =     0.00000986    0.00000112    0.00007500
     atom  109 type  2   force =     0.00000276   -0.00000154   -0.00013666
     atom  110 type  2   force =     0.00002265   -0.00000167    0.00000163
     atom  111 type  2   force =    -0.00001020    0.00000469   -0.00000967
     atom  112 type  2   force =     0.00002213    0.00000131   -0.00001177
     atom  113 type  1   force =     0.00004412    0.00000014   -0.00015674
     atom  114 type  1   force =    -0.00002944    0.00009253   -0.00000551
     atom  115 type  1   force =    -0.00000780    0.00012149    0.00018717
     atom  116 type  1   force =    -0.00006174    0.00000115   -0.00006637
     atom  117 type  2   force =    -0.00011713    0.00001419   -0.00001905
     atom  118 type  2   force =    -0.00002694    0.00002729   -0.00003244
     atom  119 type  2   force =     0.00005582   -0.00000082   -0.00002985
     atom  120 type  2   force =    -0.00005720    0.00003910   -0.00021487
     atom  121 type  1   force =     0.00016734    0.00006270   -0.00044150
     atom  122 type  1   force =     0.00003941    0.00002622   -0.00028282
     atom  123 type  1   force =     0.00005396    0.00005800    0.00018043
     atom  124 type  1   force =     0.00000093    0.00013950   -0.00092189
     atom  125 type  2   force =    -0.00014326    0.00009683    0.00088692
     atom  126 type  2   force =     0.00009989   -0.00001251    0.00000250
     atom  127 type  2   force =    -0.00008111    0.00010440   -0.00002793
     atom  128 type  2   force =    -0.00027454    0.00001679   -0.00004836
     atom  129 type  3   force =     0.00025567   -0.00013079   -0.00014446
     atom  130 type  3   force =    -0.00011783   -0.00049170    0.00079372
     atom  131 type  4   force =     0.00016243   -0.00009573   -0.00007003
     atom  132 type  4   force =    -0.00000244    0.00023662    0.00004892
     atom  133 type  4   force =     0.00027280   -0.00011726   -0.00069195
     atom  134 type  3   force =     0.00011049   -0.00000197   -0.00036792
     atom  135 type  2   force =    -0.00018665   -0.00029654    0.00065516
     atom  136 type  4   force =     0.00032976    0.00072026    0.00055280
     atom  137 type  3   force =    -0.00086989   -0.00010559    0.00055623
     atom  138 type  2   force =     0.00014836   -0.00136580   -0.00109692
     atom  139 type  4   force =     0.00008302   -0.00057640   -0.00056255
     atom  140 type  2   force =     0.00016450   -0.00073285   -0.00016306
     atom  141 type  2   force =     0.00009228    0.00018808    0.00056090
     atom  142 type  4   force =     0.00014515    0.00030063   -0.00017290

     Total force =     0.004063     Total SCF correction =     0.000013


     Computing stress (Cartesian axis) and pressure

          total   stress  (Ry/bohr**3)                   (kbar)     P=      -51.76
  -0.00029199   0.00000009  -0.00000011          -42.95        0.01       -0.02
   0.00000009  -0.00042989  -0.00000056            0.01      -63.24       -0.08
  -0.00000011  -0.00000056  -0.00033379           -0.02       -0.08      -49.10

     Energy error            =      4.1E-05 Ry
     Gradient error          =      1.4E-03 Ry/Bohr

     number of scf cycles    =   9
     number of bfgs steps    =   8

     energy             old  =   -4345.7124174732 Ry
     energy             new  =   -4345.7124582167 Ry

     CASE: energy            _new < energy            _old

     new trust radius        =       0.0081810058 bohr
     new conv_thr            =            1.0E-10 Ry


ATOMIC_POSITIONS (angstrom)
Li              -0.0000096031       -0.0000002116       15.2268832111
Li               4.3313155160        2.0417315166       16.3544780203
Li               1.4437842726        2.0417110130       16.3543637491
Li               2.8874449460       -0.0000009494       15.2269010706
F                4.3310081212        0.0000043279       16.4354404213
F                0.0000240402        2.0417133628       15.0827934285
F                2.8873614190        2.0417043708       15.0827300819
F                1.4436596984        0.0000030784       16.4356677476
Li               2.8876945606        8.1668493064       17.9573673386
Li               1.4439619708        2.0416644915       19.3050591044
Li               4.3317911770        2.0418277231       19.3058825511
Li              11.5495570634        8.1668526040       17.9572492686
F                1.4434960264        0.0000117261       19.3296949140
F                2.8871192146        2.0416818944       17.9148112585
F                0.0001255949        2.0417303267       17.9150404776
F                4.3306060603        0.0000238878       19.3284670069
Li              11.5491007663        8.1668418154       20.8025092837
Li               4.3336348846        2.0421933116       22.1536539146
Li               1.4448079919        2.0411094421       22.1484898380
Li               2.8886839017        8.1667998178       20.8030002459
F                4.3293684200        0.0004038539       22.1869642818
F               11.5501877797        2.0419076494       20.7757334090
F                2.8861768028        2.0415734931       20.7750829384
F                1.4425776593        0.0003070048       22.1916626511
Li               2.8917396301       -0.0000217490       23.7530444085
Li               1.4442062336        2.0385239884       24.8687910196
Li               4.3370056453        2.0517550721       24.8894250541
Li              11.5474638723        0.0000603448       23.7516043028
F                1.4427613262        0.0005827529       25.0300424001
F                2.8879885685        2.0404074558       23.6702739948
F               -0.0009640495        2.0422024409       23.6707312666
F                4.3290802986        0.0027027453       25.0224458526
Li              -0.0000104862        4.0834305528       15.2268790489
Li               4.3313164195        6.1251273823       16.3544868235
Li               1.4437865413        6.1251478801       16.3543693904
Li               2.8874473283        4.0834312063       15.2268969027
F                4.3310070241        4.0834255409       16.4353225479
F                0.0000241532        6.1251450913       15.0827931605
F                2.8873615085        6.1251540041       15.0827271449
F                1.4436588929        4.0834267788       16.4357064843
Li               2.8877854762        4.0834376392       17.9573590175
Li               1.4439778263        6.1251908691       19.3050978673
Li               4.3317987701        6.1250277246       19.3059586885
Li              11.5495277697        4.0834337070       17.9572225633
F                1.4435030477        4.0834133752       19.3301151609
F                2.8871186877        6.1251765558       17.9147904575
F                0.0001258701        6.1251274720       17.9150381144
F                4.3306116799        4.0833987535       19.3274107168
Li              -0.0008289252        4.0834630298       20.8022149845
Li               4.3336766658        6.1247106061       22.1543402644
Li               1.4450199976        6.1259097974       22.1487233261
Li               2.8893023557        4.0834666360       20.8023587396
F                4.3293936549        4.0832484859       22.1794024676
F               11.5501983670        6.1249860670       20.7757504140
F                2.8862102172        6.1252695741       20.7749750307
F                1.4430315358        4.0834354111       22.1941220238
Li               2.8852989149        4.0849453707       23.7452608185
Li               1.4445786837        6.1287402626       24.8688586391
Li               4.3377363035        6.1187930579       24.8905318348
Li              -0.0004419082        4.0835945402       23.7511662732
F                1.4437135384        4.0835243396       25.0382556393
F                2.8869404244        6.1292912555       23.6690381806
F               11.5487929944        6.1249880095       23.6707830521
F                4.3188652832        4.0932135934       24.9893424999
Li               5.7748479732       -0.0000011529       15.2269419993
Li              10.1057800336        2.0417171891       16.3544114148
Li               7.2184727396        2.0417295166       16.3545243487
Li               8.6622312279       -0.0000004442       15.2269237283
F               10.1060871212        0.0000023241       16.4355602379
F                5.7748162093        2.0416926134       15.0825652364
F                8.6623130081        2.0417016974       15.0826287019
F                7.2185977465        8.1668604955       16.4353308466
Li               8.6619815132        8.1668518332       17.9575430012
Li               7.2182802491        2.0418085320       19.3062336947
Li              10.1053190642        2.0417224915       19.3054388460
Li               5.7749573116        8.1668480436       17.9576639964
F                7.2187767406        0.0000156463       19.3278516284
F                8.6625372038        2.0416676256       17.9144412612
F                5.7747318493        2.0416194257       17.9142095469
F               10.1064736428        8.1668651004       19.3290820269
Li               5.7753808406        8.1667801550       20.8041401964
Li              10.1031840851        2.0416572814       22.1512166932
Li               7.2176824737        2.0421232674       22.1560644819
Li               8.6610228749        8.1668260332       20.8036730361
F               10.1079903399        0.0001773822       22.1891046163
F                5.7745178273        2.0410934105       20.7735384257
F                8.6633119533        2.0414668022       20.7741258755
F                7.2193533309        0.0003564592       22.1845864643
Li               8.6587554286        8.1670841739       23.7557777296
Li               7.2170499160        2.0537478500       24.9002973008
Li              10.1009044435        2.0447479658       24.8810119002
Li               5.7761978926        0.0003042912       23.7573529270
F                7.2192170629        0.0016044019       25.0176410751
F                8.6609050977        2.0415472425       23.6705576968
F                5.7758116638        2.0419258048       23.6708191489
F               10.1082053608        0.0005168827       25.0242553675
Li               5.7748471845        4.0834313851       15.2269380122
Li              10.1057795036        6.1251417039       16.3544154984
Li               7.2184700907        6.1251294162       16.3545311884
Li               8.6622303852        4.0834306750       15.2269195659
F               10.1060879581        4.0834275375       16.4355475873
F                5.7748160810        6.1251657563       15.0825610982
F                8.6623128462        6.1251568484       15.0826279878
F                7.2185985093        4.0834263189       16.4352373748
Li               8.6619315730        4.0834348792       17.9575607605
Li               7.2182608677        6.1250459506       19.3062751972
Li              10.1053149571        6.1251353332       19.3054625634
Li               5.7749454377        4.0834392711       17.9577058552
F                7.2187663232        4.0834064789       19.3271306156
F                8.6625376815        6.1251906745       17.9144337372
F                5.7747318853        6.1252395583       17.9141790533
F               10.1064698210        4.0834206367       19.3290093687
Li               5.7752955113        4.0834643856       20.8038579538
Li              10.1031104326        6.1252831894       22.1513311269
Li               7.2174967759        6.1248256718       22.1562171844
Li               8.6607582794        4.0834533958       20.8034887905
F               10.1078180888        4.0834260115       22.1884107326
F                5.7744995330        6.1257179848       20.7733361354
F                8.6632856141        6.1253917476       20.7740748853
F                7.2192159049        4.0833631494       22.1797606715
Li               8.6619194431        4.0842396818       23.7520029487
Li               7.2165132443        6.1171977357       24.8985974241
Li              10.1009546216        6.1228779407       24.8810533817
Li               5.7741675678        4.0853435125       23.7510091930
F                7.2188058307        4.0888623849       24.9952915897
F                8.6617011598        6.1270452048       23.6697252785
F                5.7761608545        6.1289909433       23.6684269124
F               10.1102573647        4.0838653930       25.0196156467
C                3.7957092522        4.0092601835       29.4478134698
C                5.1579611576        4.1943805130       28.8074518300
H                3.0244400185        4.1999396130       28.6931775395
H                3.6880832280        2.9824643837       29.8158195615
H                3.6637561384        4.7077877181       30.2824165940
C                6.3336505936        3.9752003467       29.7649652138
F                5.2664384145        3.3226411108       27.7432813416
H                6.2414125989        2.9614066207       30.1789886489
C                7.7502346446        4.1099468282       29.2174274633
F                5.2228980186        5.4742644549       28.2762693964
H                6.2338409260        4.6826072793       30.6001287584
F                7.9803445819        5.3623212294       28.7005210561
F                8.0042617016        3.1965152399       28.2268351857
H                8.4972542336        3.9437316300       30.0125943097



     Writing config-only to output data dir ./tmp/LiF_PVDF/LiF_PVDF.save/ :
     XML data file
     NEW-OLD atomic charge density approx. for the potential

     total cpu time spent up to now is     3629.2 secs

     per-process dynamical memory:   151.3 Mb

     Self-consistent Calculation

     iteration #  1     ecut=    60.00 Ry     beta= 0.30
     Davidson diagonalization with overlap
     ethr =  1.00E-06,  avg # of iterations =  4.0

     Threshold (ethr) on eigenvalues was too large:
     Diagonalizing with lowered threshold

     Davidson diagonalization with overlap
     ethr =  2.20E-09,  avg # of iterations =  4.0

     total cpu time spent up to now is     3712.4 secs

     total energy              =   -4345.71248244 Ry
     estimated scf accuracy    <       0.00001737 Ry

     iteration #  2     ecut=    60.00 Ry     beta= 0.30
     Davidson diagonalization with overlap
     ethr =  2.52E-09,  avg # of iterations =  2.0

     total cpu time spent up to now is     3741.3 secs

     total energy              =   -4345.71248124 Ry
     estimated scf accuracy    <       0.00000662 Ry

     iteration #  3     ecut=    60.00 Ry     beta= 0.30
     Davidson diagonalization with overlap
     ethr =  9.60E-10,  avg # of iterations =  3.0

     total cpu time spent up to now is     3776.6 secs

     total energy              =   -4345.71248189 Ry
     estimated scf accuracy    <       0.00000043 Ry

     iteration #  4     ecut=    60.00 Ry     beta= 0.30
     Davidson diagonalization with overlap
     ethr =  6.28E-11,  avg # of iterations =  4.0

     total cpu time spent up to now is     3812.8 secs

     total energy              =   -4345.71248193 Ry
     estimated scf accuracy    <       0.00000004 Ry

     iteration #  5     ecut=    60.00 Ry     beta= 0.30
     Davidson diagonalization with overlap
     ethr =  5.49E-12,  avg # of iterations =  4.0

     total cpu time spent up to now is     3845.3 secs

     total energy              =   -4345.71248194 Ry
     estimated scf accuracy    <          7.0E-09 Ry

     iteration #  6     ecut=    60.00 Ry     beta= 0.30
     Davidson diagonalization with overlap
     ethr =  1.02E-12,  avg # of iterations =  3.0

     total cpu time spent up to now is     3879.9 secs

     total energy              =   -4345.71248193 Ry
     estimated scf accuracy    <          7.7E-10 Ry

     iteration #  7     ecut=    60.00 Ry     beta= 0.30
     Davidson diagonalization with overlap
     ethr =  1.12E-13,  avg # of iterations =  3.0

     total cpu time spent up to now is     3911.5 secs

     total energy              =   -4345.71248193 Ry
     estimated scf accuracy    <          1.3E-10 Ry

     iteration #  8     ecut=    60.00 Ry     beta= 0.30
     Davidson diagonalization with overlap
     ethr =  1.00E-13,  avg # of iterations =  2.0

     total cpu time spent up to now is     3941.1 secs

     End of self-consistent calculation

          k = 0.0000 0.0000 0.0000 (200173 PWs)   bands (ev):

   -46.3951 -46.3929 -46.3858 -46.3857 -46.3847 -46.3846 -46.3771 -46.3759
   -46.3510 -46.3494 -46.3317 -46.3303 -46.3253 -46.3067 -46.3042 -46.2929
   -45.8666 -45.8624 -45.8567 -45.8560 -45.8545 -45.8537 -45.8500 -45.8469
   -45.8465 -45.8454 -45.8358 -45.8333 -45.8289 -45.8261 -45.8150 -45.8128
   -45.7105 -45.7027 -45.6993 -45.6982 -45.6947 -45.6940 -45.6939 -45.6873
   -45.6855 -45.6854 -45.6838 -45.6802 -45.6772 -45.6726 -45.6685 -45.6641
   -45.4227 -45.4219 -45.4141 -45.4140 -45.4136 -45.4135 -45.4061 -45.4046
   -45.3944 -45.3883 -45.3675 -45.3559 -45.3423 -45.3371 -45.3262 -45.3132
   -28.9401 -28.7086 -27.4437 -27.2445 -24.8039 -24.7567 -24.7544 -24.7082
   -24.7081 -24.7076 -24.6923 -24.6922 -24.6570 -24.6500 -24.6411 -24.6301
   -24.6268 -24.6053 -24.5663 -24.5622 -24.5438 -24.4398 -24.4394 -24.3960
   -24.3854 -24.3192 -24.3188 -24.3088 -24.3079 -24.2863 -24.2406 -24.2301
   -24.2189 -24.2097 -24.1998 -24.1949 -24.1935 -24.1771 -24.1141 -24.1140
   -24.0917 -24.0887 -24.0536 -24.0367 -24.0340 -24.0250 -24.0237 -24.0030
   -24.0028 -23.9979 -23.9944 -23.9743 -23.4840 -23.4352 -23.4281 -23.4092
   -23.4092 -23.3809 -23.3733 -23.3733 -23.3484 -23.3382 -23.3320 -23.3115
   -23.3093 -23.2973 -23.2619 -23.2304 -17.9885 -16.4074 -14.2244 -12.9697
   -11.3189 -11.2453 -10.8818 -10.6873  -9.7290  -9.2133  -8.5188  -8.1191
    -7.6919  -7.6099  -7.5966  -7.5826  -7.3806  -7.3494  -7.3322  -7.3104
    -7.3093  -7.2997  -7.2567  -7.1554  -7.1456  -7.1456  -7.1446  -7.1309
    -7.1300  -7.1294  -7.1286  -7.0140  -7.0116  -7.0082  -6.9890  -6.9860
    -6.9849  -6.9834  -6.9407  -6.9373  -6.9256  -6.9221  -6.9075  -6.9012
    -6.9002  -6.8611  -6.8523  -6.8460  -6.8248  -6.8241  -6.7755  -6.7716
    -6.7707  -6.7685  -6.7555  -6.7540  -6.7509  -6.7491  -6.7403  -6.7106
    -6.7104  -6.7087  -6.6742  -6.6722  -6.6013  -6.5929  -6.5922  -6.5585
    -6.5581  -6.5249  -6.5238  -6.5100  -6.5044  -6.5039  -6.5028  -6.4898
    -6.3907  -6.2879  -6.2653  -6.2642  -6.2631  -6.2384  -6.2334  -6.2164
    -6.2071  -6.2043  -6.2030  -6.2009  -6.1962  -6.1904  -6.1879  -6.1674
    -6.0847  -6.0544  -6.0539  -6.0088  -6.0016  -5.9940  -5.9914  -5.9615
    -5.9080  -5.9075  -5.8377  -5.8115  -5.8039  -5.8035  -5.8003  -5.8001
    -5.7957  -5.7947  -5.7929  -5.7538  -5.7069  -5.7056  -5.7052  -5.6984
    -5.6932  -5.5730  -5.5531  -5.5528  -5.5337  -5.5327  -5.5254  -5.5230
    -5.5206  -5.5105  -5.5085  -5.5062  -5.5058  -5.4942  -5.4932  -5.4901
    -5.4887  -5.4386  -5.4331  -5.4100  -5.4008  -5.3366  -5.2897  -5.2882
    -5.2782  -5.2642  -5.2627  -5.2517  -5.2501  -5.2482  -5.2419  -5.2407
    -5.2376  -5.2360  -5.2242  -5.2172  -5.2100  -5.2096  -5.2046  -5.2031
    -5.1758  -5.1735  -5.1698  -5.1631  -5.1583  -5.1576  -5.1483  -5.1481
    -5.1369  -5.0970  -5.0970  -5.0811  -5.0418  -5.0378  -5.0323  -5.0282
    -5.0121  -5.0075  -4.9937  -4.9937  -4.9810  -4.9381  -4.9358  -4.9205
    -4.9196  -4.9196  -4.9147  -4.8606  -4.8565  -4.8539  -4.8534  -4.8492
    -4.8480  -4.8353  -4.8337  -4.8315  -4.8007  -4.7940  -4.7330  -4.7306
    -4.6842  -4.6817  -4.6695  -4.6615  -4.6328  -4.6170  -4.6102  -4.6089
    -4.6088  -4.5877  -4.5511  -4.5310  -4.5265  -4.2615  -4.2235  -4.2030
    -4.1596

          k = 0.0000 0.3536 0.0000 (200366 PWs)   bands (ev):

   -46.3947 -46.3933 -46.3858 -46.3856 -46.3848 -46.3847 -46.3768 -46.3764
   -46.3508 -46.3497 -46.3316 -46.3306 -46.3254 -46.3068 -46.3043 -46.2930
   -45.8660 -45.8631 -45.8565 -45.8558 -45.8549 -45.8541 -45.8496 -45.8470
   -45.8466 -45.8459 -45.8356 -45.8337 -45.8286 -45.8265 -45.8148 -45.8132
   -45.7098 -45.7048 -45.6988 -45.6977 -45.6956 -45.6949 -45.6919 -45.6871
   -45.6861 -45.6857 -45.6834 -45.6806 -45.6765 -45.6732 -45.6687 -45.6643
   -45.4225 -45.4221 -45.4142 -45.4141 -45.4136 -45.4135 -45.4058 -45.4052
   -45.3945 -45.3883 -45.3675 -45.3560 -45.3423 -45.3371 -45.3263 -45.3133
   -28.9401 -28.7086 -27.4437 -27.2445 -24.7971 -24.7637 -24.7479 -24.7146
   -24.7059 -24.7058 -24.6946 -24.6946 -24.6548 -24.6473 -24.6434 -24.6332
   -24.6237 -24.6084 -24.5598 -24.5567 -24.5466 -24.4681 -24.4328 -24.4325
   -24.3699 -24.3696 -24.3249 -24.2895 -24.2568 -24.2563 -24.2374 -24.2267
   -24.2221 -24.2131 -24.2001 -24.1986 -24.1825 -24.1494 -24.1095 -24.1091
   -24.0737 -24.0707 -24.0700 -24.0532 -24.0484 -24.0426 -24.0218 -24.0110
   -24.0072 -24.0053 -23.9972 -23.9787 -23.4770 -23.4424 -23.4214 -23.4040
   -23.4040 -23.3877 -23.3786 -23.3786 -23.3435 -23.3335 -23.3287 -23.3165
   -23.3126 -23.3023 -23.2594 -23.2331 -17.9885 -16.4074 -14.2244 -12.9695
   -11.3190 -11.2452 -10.8821 -10.6873  -9.7291  -9.2131  -8.5197  -8.1200
    -7.6920  -7.5480  -7.5307  -7.5021  -7.3784  -7.3267  -7.3096  -7.2964
    -7.2858  -7.2846  -7.2566  -7.1541  -7.1470  -7.1393  -7.1247  -7.1244
    -7.1202  -7.1194  -7.0927  -7.0872  -7.0597  -7.0497  -7.0473  -7.0084
    -6.9814  -6.9664  -6.9652  -6.9634  -6.9610  -6.9585  -6.9565  -6.9235
    -6.9224  -6.9078  -6.8986  -6.8981  -6.8919  -6.8564  -6.8493  -6.8311
    -6.8299  -6.7876  -6.7867  -6.7713  -6.7656  -6.7462  -6.7427  -6.7093
    -6.7078  -6.6856  -6.6425  -6.6053  -6.5998  -6.5880  -6.5868  -6.5848
    -6.5841  -6.5251  -6.5237  -6.5177  -6.5172  -6.4919  -6.4447  -6.4419
    -6.4407  -6.4385  -6.2952  -6.2946  -6.2815  -6.2808  -6.2395  -6.1668
    -6.1661  -6.1408  -6.1206  -6.0854  -6.0786  -6.0760  -6.0659  -6.0657
    -6.0393  -6.0321  -6.0274  -5.9766  -5.9496  -5.9299  -5.9297  -5.8850
    -5.8764  -5.8661  -5.8578  -5.8192  -5.8094  -5.8091  -5.7874  -5.7870
    -5.7789  -5.7780  -5.7768  -5.7254  -5.7170  -5.7023  -5.6691  -5.6690
    -5.6559  -5.5641  -5.5632  -5.5630  -5.5622  -5.5546  -5.5508  -5.5475
    -5.5407  -5.5388  -5.5221  -5.5169  -5.5156  -5.4884  -5.4855  -5.4847
    -5.4567  -5.4554  -5.4499  -5.4439  -5.4409  -5.4318  -5.4280  -5.4056
    -5.3898  -5.3889  -5.3389  -5.2661  -5.2604  -5.2587  -5.2455  -5.2439
    -5.2436  -5.2363  -5.2328  -5.2319  -5.1988  -5.1839  -5.1813  -5.1806
    -5.1770  -5.1764  -5.1748  -5.1664  -5.1628  -5.1562  -5.1135  -5.0928
    -5.0752  -5.0744  -5.0737  -5.0735  -5.0466  -5.0267  -5.0249  -5.0248
    -5.0186  -5.0117  -4.9966  -4.9945  -4.9869  -4.9638  -4.9628  -4.9614
    -4.9249  -4.9052  -4.8950  -4.8950  -4.8843  -4.8790  -4.8553  -4.8481
    -4.8470  -4.8355  -4.8290  -4.7819  -4.7797  -4.7769  -4.7418  -4.7253
    -4.6822  -4.6793  -4.6747  -4.6483  -4.6322  -4.6223  -4.6223  -4.6157
    -4.6032  -4.5877  -4.5526  -4.5435  -4.5347  -4.2557  -4.2289  -4.1978
    -4.1644

          k = 0.0000-0.7071 0.0000 (200506 PWs)   bands (ev):

   -46.3941 -46.3941 -46.3854 -46.3853 -46.3852 -46.3852 -46.3767 -46.3767
   -46.3503 -46.3503 -46.3314 -46.3309 -46.3254 -46.3069 -46.3044 -46.2931
   -45.8647 -45.8645 -45.8558 -45.8557 -45.8551 -45.8549 -45.8490 -45.8477
   -45.8465 -45.8461 -45.8352 -45.8342 -45.8282 -45.8271 -45.8146 -45.8135
   -45.7081 -45.7074 -45.6976 -45.6973 -45.6966 -45.6964 -45.6900 -45.6872
   -45.6865 -45.6862 -45.6826 -45.6813 -45.6753 -45.6741 -45.6688 -45.6644
   -45.4224 -45.4224 -45.4140 -45.4139 -45.4139 -45.4138 -45.4056 -45.4055
   -45.3945 -45.3884 -45.3676 -45.3560 -45.3423 -45.3372 -45.3263 -45.3133
   -28.9401 -28.7086 -27.4437 -27.2445 -24.7805 -24.7804 -24.7323 -24.7307
   -24.7003 -24.7003 -24.7002 -24.7002 -24.6502 -24.6480 -24.6414 -24.6395
   -24.6161 -24.6160 -24.5545 -24.5521 -24.5259 -24.5250 -24.4108 -24.4104
   -24.4099 -24.4096 -24.2998 -24.2983 -24.2308 -24.2292 -24.2231 -24.2227
   -24.2182 -24.2173 -24.2147 -24.2140 -24.1218 -24.1213 -24.1040 -24.0949
   -24.0834 -24.0819 -24.0817 -24.0804 -24.0427 -24.0381 -24.0357 -24.0340
   -24.0140 -24.0138 -23.9916 -23.9855 -23.4598 -23.4598 -23.4077 -23.4015
   -23.3914 -23.3914 -23.3914 -23.3914 -23.3351 -23.3259 -23.3253 -23.3207
   -23.3207 -23.3097 -23.2562 -23.2364 -17.9885 -16.4075 -14.2244 -12.9694
   -11.3193 -11.2451 -10.8824 -10.6873  -9.7291  -9.2130  -8.5204  -8.1207
    -7.6919  -7.4331  -7.4328  -7.3984  -7.3973  -7.3100  -7.2594  -7.2522
    -7.2521  -7.2489  -7.2473  -7.2156  -7.2141  -7.1386  -7.1362  -7.0955
    -7.0940  -7.0935  -7.0929  -7.0638  -7.0632  -7.0554  -7.0534  -7.0517
    -7.0513  -7.0502  -7.0501  -7.0474  -7.0471  -7.0185  -7.0018  -6.9848
    -6.9248  -6.9238  -6.9238  -6.9237  -6.8687  -6.8669  -6.8662  -6.8657
    -6.8499  -6.8194  -6.8187  -6.8175  -6.8172  -6.7757  -6.7727  -6.7683
    -6.6282  -6.6277  -6.6276  -6.6275  -6.6211  -6.6210  -6.6017  -6.5710
    -6.5680  -6.5564  -6.5552  -6.5541  -6.5530  -6.3798  -6.3794  -6.3792
    -6.3787  -6.3281  -6.3274  -6.3271  -6.3268  -6.2842  -6.2835  -6.0863
    -6.0526  -6.0516  -6.0336  -6.0330  -6.0057  -6.0050  -6.0049  -6.0041
    -5.9683  -5.9667  -5.9553  -5.9492  -5.9404  -5.9396  -5.9264  -5.9259
    -5.9252  -5.9249  -5.8320  -5.8317  -5.7788  -5.7782  -5.7736  -5.7713
    -5.7647  -5.7632  -5.7630  -5.7612  -5.6510  -5.6506  -5.6467  -5.6454
    -5.6244  -5.6235  -5.5936  -5.5918  -5.5679  -5.5673  -5.5666  -5.5665
    -5.5382  -5.5368  -5.5342  -5.5336  -5.4996  -5.4984  -5.4949  -5.4934
    -5.4931  -5.4929  -5.4480  -5.4479  -5.4471  -5.4452  -5.3888  -5.3880
    -5.3876  -5.3873  -5.3760  -5.3753  -5.3746  -5.3742  -5.2591  -5.2588
    -5.2569  -5.2564  -5.2557  -5.2549  -5.2447  -5.2444  -5.2066  -5.2023
    -5.1758  -5.1611  -5.1592  -5.1518  -5.1496  -5.1026  -5.1024  -5.0858
    -5.0848  -5.0837  -5.0830  -5.0572  -5.0543  -5.0498  -5.0492  -5.0472
    -5.0438  -5.0001  -4.9953  -4.9916  -4.9831  -4.9595  -4.9570  -4.9527
    -4.9504  -4.9056  -4.8996  -4.8870  -4.8839  -4.8529  -4.8524  -4.8522
    -4.8520  -4.7939  -4.7877  -4.7865  -4.7856  -4.7593  -4.7592  -4.7051
    -4.7021  -4.6546  -4.6544  -4.6540  -4.6536  -4.6350  -4.6349  -4.6120
    -4.6042  -4.5829  -4.5661  -4.5527  -4.5417  -4.2429  -4.2428  -4.1911
    -4.1721

          k = 0.2500 0.0000 0.0000 (200254 PWs)   bands (ev):

   -46.3943 -46.3923 -46.3892 -46.3878 -46.3824 -46.3815 -46.3776 -46.3767
   -46.3510 -46.3494 -46.3319 -46.3304 -46.3251 -46.3067 -46.3043 -46.2930
   -45.8659 -45.8619 -45.8598 -45.8569 -45.8530 -45.8514 -45.8498 -45.8473
   -45.8464 -45.8461 -45.8362 -45.8336 -45.8285 -45.8259 -45.8150 -45.8130
   -45.7099 -45.7023 -45.7022 -45.6971 -45.6950 -45.6936 -45.6916 -45.6882
   -45.6861 -45.6856 -45.6841 -45.6802 -45.6768 -45.6727 -45.6687 -45.6642
   -45.4219 -45.4213 -45.4173 -45.4168 -45.4110 -45.4103 -45.4066 -45.4055
   -45.3944 -45.3883 -45.3675 -45.3559 -45.3422 -45.3371 -45.3263 -45.3132
   -28.9401 -28.7086 -27.4437 -27.2445 -24.7969 -24.7518 -24.7489 -24.7449
   -24.7170 -24.7043 -24.6893 -24.6698 -24.6673 -24.6581 -24.6318 -24.6169
   -24.6134 -24.6129 -24.5657 -24.5575 -24.5508 -24.4908 -24.3902 -24.3816
   -24.3797 -24.3485 -24.3376 -24.2893 -24.2793 -24.2790 -24.2642 -24.2466
   -24.2360 -24.2284 -24.1934 -24.1763 -24.1714 -24.1668 -24.1472 -24.1219
   -24.0804 -24.0583 -24.0503 -24.0365 -24.0348 -24.0319 -24.0249 -24.0136
   -24.0072 -24.0059 -23.9855 -23.9718 -23.4784 -23.4381 -23.4305 -23.4247
   -23.3972 -23.3800 -23.3788 -23.3682 -23.3491 -23.3380 -23.3250 -23.3170
   -23.3143 -23.2838 -23.2661 -23.2332 -17.9885 -16.4074 -14.2244 -12.9697
   -11.3189 -11.2453 -10.8818 -10.6874  -9.7291  -9.2133  -8.5189  -8.1192
    -7.6919  -7.5785  -7.5634  -7.5334  -7.3413  -7.3392  -7.3211  -7.3102
    -7.3094  -7.2910  -7.2752  -7.2624  -7.2506  -7.2146  -7.1439  -7.1327
    -7.1089  -7.0919  -7.0899  -7.0624  -7.0520  -7.0437  -7.0090  -7.0059
    -6.9869  -6.9769  -6.9567  -6.9137  -6.9125  -6.9025  -6.8857  -6.8827
    -6.8700  -6.8683  -6.8506  -6.8479  -6.8362  -6.8079  -6.8013  -6.7896
    -6.7859  -6.7702  -6.7673  -6.7578  -6.7547  -6.7468  -6.7376  -6.7369
    -6.7300  -6.6977  -6.6859  -6.6345  -6.6340  -6.5996  -6.5767  -6.5638
    -6.5287  -6.5048  -6.4988  -6.4886  -6.4517  -6.4403  -6.4334  -6.4121
    -6.3958  -6.3482  -6.3392  -6.3340  -6.3322  -6.2913  -6.2716  -6.2610
    -6.2502  -6.2004  -6.1595  -6.1468  -6.1355  -6.1346  -6.1191  -6.1034
    -6.0844  -6.0690  -6.0459  -6.0190  -6.0125  -5.9918  -5.9797  -5.9707
    -5.9462  -5.9417  -5.9104  -5.8905  -5.8786  -5.8623  -5.7829  -5.7801
    -5.7709  -5.7284  -5.7122  -5.7041  -5.6974  -5.6815  -5.6761  -5.6631
    -5.6597  -5.6435  -5.6077  -5.5946  -5.5892  -5.5779  -5.5527  -5.5445
    -5.5237  -5.5125  -5.5007  -5.4913  -5.4303  -5.4295  -5.4186  -5.4133
    -5.4089  -5.4037  -5.4017  -5.3721  -5.3671  -5.3665  -5.3616  -5.3304
    -5.3214  -5.2743  -5.2678  -5.2621  -5.2447  -5.2446  -5.2420  -5.2385
    -5.2376  -5.2262  -5.2154  -5.2065  -5.2049  -5.1995  -5.1987  -5.1935
    -5.1845  -5.1823  -5.1754  -5.1741  -5.1633  -5.1502  -5.1476  -5.1403
    -5.1047  -5.1043  -5.0997  -5.0910  -5.0774  -5.0684  -5.0624  -5.0329
    -5.0265  -5.0193  -5.0022  -4.9941  -4.9847  -4.9768  -4.9632  -4.9569
    -4.9461  -4.9339  -4.9282  -4.9208  -4.9052  -4.8967  -4.8958  -4.8571
    -4.8469  -4.8179  -4.7917  -4.7634  -4.7396  -4.7280  -4.7164  -4.7013
    -4.6706  -4.6579  -4.6571  -4.6381  -4.6345  -4.6104  -4.6065  -4.5996
    -4.5631  -4.5507  -4.5426  -4.5329  -4.4704  -4.3067  -4.2789  -4.2477
    -4.2141

          k = 0.2500 0.3536 0.0000 (200411 PWs)   bands (ev):

   -46.3940 -46.3928 -46.3890 -46.3880 -46.3824 -46.3816 -46.3775 -46.3770
   -46.3508 -46.3498 -46.3318 -46.3307 -46.3252 -46.3068 -46.3044 -46.2930
   -45.8653 -45.8627 -45.8594 -45.8574 -45.8529 -45.8517 -45.8494 -45.8472
   -45.8470 -45.8464 -45.8359 -45.8340 -45.8282 -45.8263 -45.8149 -45.8133
   -45.7092 -45.7044 -45.7017 -45.6983 -45.6945 -45.6925 -45.6917 -45.6880
   -45.6866 -45.6857 -45.6837 -45.6807 -45.6762 -45.6732 -45.6688 -45.6643
   -45.4219 -45.4216 -45.4172 -45.4169 -45.4110 -45.4104 -45.4065 -45.4058
   -45.3945 -45.3883 -45.3676 -45.3560 -45.3423 -45.3371 -45.3263 -45.3133
   -28.9401 -28.7086 -27.4437 -27.2445 -24.7903 -24.7585 -24.7431 -24.7404
   -24.7213 -24.7109 -24.6850 -24.6694 -24.6677 -24.6628 -24.6291 -24.6167
   -24.6159 -24.6134 -24.5637 -24.5531 -24.5480 -24.4827 -24.4611 -24.4085
   -24.3763 -24.3283 -24.3193 -24.2826 -24.2805 -24.2642 -24.2564 -24.2352
   -24.2325 -24.2205 -24.1827 -24.1774 -24.1738 -24.1453 -24.1371 -24.0997
   -24.0783 -24.0674 -24.0543 -24.0497 -24.0431 -24.0403 -24.0290 -24.0232
   -24.0149 -24.0022 -23.9939 -23.9772 -23.4715 -23.4376 -23.4322 -23.4182
   -23.4033 -23.3853 -23.3755 -23.3627 -23.3537 -23.3345 -23.3305 -23.3178
   -23.3131 -23.2880 -23.2635 -23.2360 -17.9885 -16.4074 -14.2244 -12.9695
   -11.3191 -11.2453 -10.8821 -10.6874  -9.7291  -9.2131  -8.5198  -8.1200
    -7.6918  -7.5147  -7.4848  -7.4747  -7.3371  -7.3099  -7.2861  -7.2760
    -7.2731  -7.2658  -7.2570  -7.2558  -7.2366  -7.1728  -7.1448  -7.1255
    -7.0965  -7.0839  -7.0805  -7.0785  -7.0676  -7.0512  -7.0468  -7.0187
    -7.0102  -7.0082  -6.9940  -6.9938  -6.9837  -6.9805  -6.9713  -6.9599
    -6.9299  -6.9147  -6.8976  -6.8790  -6.8662  -6.8614  -6.8550  -6.8533
    -6.8473  -6.8425  -6.7986  -6.7717  -6.7696  -6.7515  -6.7276  -6.7091
    -6.7053  -6.6801  -6.6414  -6.6303  -6.6167  -6.5997  -6.5809  -6.5743
    -6.5553  -6.5008  -6.4756  -6.4721  -6.4584  -6.4529  -6.4465  -6.4389
    -6.4012  -6.3572  -6.2968  -6.2835  -6.2563  -6.2477  -6.1990  -6.1883
    -6.1769  -6.1491  -6.1467  -6.1109  -6.0859  -6.0781  -6.0668  -6.0422
    -6.0329  -6.0136  -5.9983  -5.9921  -5.9834  -5.9627  -5.9572  -5.9552
    -5.9260  -5.9235  -5.9129  -5.8711  -5.8695  -5.8271  -5.7901  -5.7635
    -5.7611  -5.7473  -5.7371  -5.7062  -5.6767  -5.6738  -5.6622  -5.6502
    -5.6469  -5.6432  -5.6146  -5.5968  -5.5850  -5.5818  -5.5572  -5.4967
    -5.4838  -5.4799  -5.4784  -5.4767  -5.4705  -5.4644  -5.4581  -5.4470
    -5.4445  -5.4359  -5.4266  -5.4248  -5.4232  -5.4095  -5.3910  -5.3881
    -5.3396  -5.3369  -5.3245  -5.3176  -5.2896  -5.2822  -5.2818  -5.2713
    -5.2635  -5.2520  -5.2370  -5.2251  -5.2174  -5.2130  -5.2019  -5.1943
    -5.1863  -5.1755  -5.1579  -5.1561  -5.1514  -5.1207  -5.1067  -5.1019
    -5.0999  -5.0943  -5.0884  -5.0807  -5.0701  -5.0558  -5.0464  -5.0423
    -5.0119  -5.0108  -5.0014  -4.9949  -4.9912  -4.9901  -4.9879  -4.9727
    -4.9595  -4.9435  -4.9323  -4.9246  -4.9217  -4.9035  -4.8956  -4.8651
    -4.8574  -4.7867  -4.7768  -4.7608  -4.7358  -4.7343  -4.7157  -4.6953
    -4.6711  -4.6636  -4.6518  -4.6452  -4.6378  -4.6014  -4.6002  -4.5989
    -4.5634  -4.5528  -4.5522  -4.5278  -4.4804  -4.3033  -4.2824  -4.2449
    -4.2169

          k = 0.2500-0.7071 0.0000 (200442 PWs)   bands (ev):

   -46.3935 -46.3934 -46.3886 -46.3885 -46.3820 -46.3819 -46.3773 -46.3773
   -46.3503 -46.3503 -46.3316 -46.3309 -46.3252 -46.3068 -46.3044 -46.2931
   -45.8642 -45.8639 -45.8585 -45.8584 -45.8523 -45.8522 -45.8489 -45.8476
   -45.8470 -45.8466 -45.8355 -45.8345 -45.8278 -45.8267 -45.8147 -45.8135
   -45.7077 -45.7069 -45.7004 -45.7002 -45.6935 -45.6932 -45.6900 -45.6875
   -45.6872 -45.6866 -45.6825 -45.6815 -45.6751 -45.6740 -45.6688 -45.6644
   -45.4218 -45.4217 -45.4171 -45.4170 -45.4107 -45.4107 -45.4062 -45.4061
   -45.3945 -45.3884 -45.3676 -45.3560 -45.3423 -45.3371 -45.3263 -45.3133
   -28.9401 -28.7086 -27.4437 -27.2445 -24.7746 -24.7745 -24.7316 -24.7315
   -24.7274 -24.7259 -24.6752 -24.6730 -24.6686 -24.6685 -24.6227 -24.6226
   -24.6160 -24.6139 -24.5597 -24.5573 -24.5178 -24.5168 -24.4567 -24.4559
   -24.3596 -24.3587 -24.2932 -24.2917 -24.2630 -24.2620 -24.2467 -24.2456
   -24.2002 -24.1997 -24.1962 -24.1954 -24.1190 -24.1182 -24.1028 -24.0979
   -24.0945 -24.0894 -24.0647 -24.0626 -24.0609 -24.0560 -24.0252 -24.0226
   -24.0179 -24.0136 -23.9924 -23.9872 -23.4547 -23.4547 -23.4178 -23.4178
   -23.4046 -23.3990 -23.3646 -23.3646 -23.3533 -23.3399 -23.3262 -23.3261
   -23.3068 -23.2945 -23.2601 -23.2395 -17.9885 -16.4075 -14.2244 -12.9693
   -11.3192 -11.2452 -10.8822 -10.6873  -9.7290  -9.2130  -8.5204  -8.1207
    -7.6918  -7.3946  -7.3942  -7.3581  -7.3569  -7.3099  -7.2579  -7.2321
    -7.2315  -7.2018  -7.2014  -7.1988  -7.1972  -7.1786  -7.1776  -7.1223
    -7.1201  -7.0929  -7.0926  -7.0894  -7.0891  -7.0882  -7.0879  -7.0603
    -7.0596  -7.0342  -7.0331  -7.0292  -7.0289  -7.0156  -6.9936  -6.9821
    -6.9782  -6.9768  -6.9538  -6.9527  -6.9383  -6.9374  -6.9288  -6.9283
    -6.9067  -6.9037  -6.8490  -6.7905  -6.7900  -6.7757  -6.7719  -6.7678
    -6.6553  -6.6551  -6.6138  -6.6133  -6.6018  -6.5593  -6.5587  -6.5567
    -6.5532  -6.5073  -6.5069  -6.4394  -6.4392  -6.4235  -6.4226  -6.3864
    -6.3851  -6.2882  -6.2876  -6.2711  -6.2700  -6.1863  -6.1856  -6.1811
    -6.1807  -6.0863  -6.0656  -6.0649  -6.0190  -6.0168  -6.0036  -6.0032
    -5.9900  -5.9895  -5.9538  -5.9534  -5.9398  -5.9391  -5.9035  -5.8990
    -5.8850  -5.8837  -5.8760  -5.8756  -5.8295  -5.8272  -5.7652  -5.7642
    -5.7481  -5.7470  -5.7022  -5.7016  -5.6954  -5.6945  -5.6682  -5.6672
    -5.6341  -5.6336  -5.6269  -5.6238  -5.6213  -5.6210  -5.6147  -5.6139
    -5.5255  -5.5237  -5.4892  -5.4880  -5.4701  -5.4688  -5.4594  -5.4579
    -5.4359  -5.4339  -5.4223  -5.4200  -5.4011  -5.3999  -5.3921  -5.3911
    -5.3529  -5.3512  -5.3475  -5.3474  -5.3370  -5.3336  -5.3178  -5.3159
    -5.2997  -5.2986  -5.2318  -5.2316  -5.2040  -5.2031  -5.1934  -5.1915
    -5.1819  -5.1708  -5.1694  -5.1619  -5.1603  -5.1553  -5.1542  -5.1215
    -5.1215  -5.0964  -5.0963  -5.0691  -5.0682  -5.0393  -5.0359  -5.0284
    -5.0164  -4.9978  -4.9966  -4.9857  -4.9856  -4.9685  -4.9670  -4.9633
    -4.9630  -4.9578  -4.9557  -4.9348  -4.9305  -4.9046  -4.9026  -4.8668
    -4.8647  -4.7703  -4.7699  -4.7529  -4.7528  -4.7240  -4.7173  -4.6858
    -4.6767  -4.6643  -4.6601  -4.6420  -4.6416  -4.5986  -4.5971  -4.5768
    -4.5768  -4.5627  -4.5527  -4.5068  -4.5047  -4.2926  -4.2926  -4.2399
    -4.2215

          k =-0.5000 0.0000 0.0000 (200370 PWs)   bands (ev):

   -46.3929 -46.3916 -46.3912 -46.3899 -46.3802 -46.3793 -46.3790 -46.3781
   -46.3510 -46.3495 -46.3321 -46.3306 -46.3250 -46.3067 -46.3044 -46.2930
   -45.8649 -45.8618 -45.8614 -45.8584 -45.8512 -45.8499 -45.8497 -45.8483
   -45.8468 -45.8465 -45.8366 -45.8339 -45.8281 -45.8257 -45.8151 -45.8131
   -45.7093 -45.7040 -45.7018 -45.6986 -45.6941 -45.6919 -45.6902 -45.6900
   -45.6868 -45.6857 -45.6844 -45.6802 -45.6765 -45.6727 -45.6688 -45.6643
   -45.4206 -45.4201 -45.4195 -45.4190 -45.4089 -45.4081 -45.4078 -45.4069
   -45.3945 -45.3883 -45.3676 -45.3560 -45.3423 -45.3371 -45.3263 -45.3133
   -28.9401 -28.7086 -27.4437 -27.2445 -24.7776 -24.7755 -24.7387 -24.7380
   -24.7372 -24.7099 -24.6997 -24.6691 -24.6468 -24.6454 -24.6370 -24.6356
   -24.6023 -24.5944 -24.5703 -24.5626 -24.5353 -24.5273 -24.3761 -24.3710
   -24.3670 -24.3586 -24.3222 -24.3208 -24.2662 -24.2627 -24.2614 -24.2573
   -24.2547 -24.2494 -24.1763 -24.1737 -24.1609 -24.1602 -24.1573 -24.1416
   -24.0528 -24.0501 -24.0443 -24.0404 -24.0389 -24.0301 -24.0269 -24.0228
   -24.0192 -24.0103 -23.9808 -23.9700 -23.4629 -23.4618 -23.4203 -23.4178
   -23.4167 -23.3803 -23.3758 -23.3555 -23.3543 -23.3330 -23.3289 -23.3277
   -23.3038 -23.2748 -23.2720 -23.2368 -17.9885 -16.4074 -14.2244 -12.9698
   -11.3190 -11.2455 -10.8819 -10.6875  -9.7290  -9.2133  -8.5189  -8.1193
    -7.6917  -7.4918  -7.4827  -7.4656  -7.4617  -7.4103  -7.4011  -7.3099
    -7.2577  -7.2484  -7.2335  -7.2183  -7.2165  -7.1816  -7.1670  -7.1616
    -7.1579  -7.1398  -7.1380  -7.1145  -7.1078  -7.1030  -7.0908  -7.0039
    -6.9821  -6.9795  -6.9759  -6.9698  -6.8512  -6.8439  -6.8427  -6.8383
    -6.8308  -6.8292  -6.8280  -6.8250  -6.8220  -6.8183  -6.8167  -6.8092
    -6.8089  -6.8054  -6.7889  -6.7686  -6.7583  -6.7571  -6.7563  -6.7437
    -6.6601  -6.6571  -6.6510  -6.6463  -6.6002  -6.5937  -6.5822  -6.5630
    -6.5571  -6.5322  -6.5212  -6.5193  -6.5132  -6.5082  -6.4908  -6.3355
    -6.3320  -6.3266  -6.3262  -6.2894  -6.2800  -6.2606  -6.2566  -6.2100
    -6.2008  -6.1999  -6.1995  -6.1572  -6.1484  -6.1002  -6.0935  -6.0930
    -6.0871  -6.0835  -6.0570  -6.0403  -6.0331  -6.0302  -6.0278  -6.0250
    -6.0074  -5.9882  -5.9032  -5.8998  -5.8657  -5.8643  -5.8376  -5.8198
    -5.7270  -5.7267  -5.6880  -5.6875  -5.6476  -5.6429  -5.6371  -5.6331
    -5.6038  -5.5983  -5.5939  -5.5916  -5.5879  -5.5857  -5.5546  -5.5498
    -5.5120  -5.5069  -5.5034  -5.5026  -5.5020  -5.4990  -5.4625  -5.4594
    -5.3418  -5.3374  -5.3364  -5.3322  -5.3307  -5.3268  -5.3264  -5.3252
    -5.3240  -5.3229  -5.3029  -5.3015  -5.2956  -5.2920  -5.2354  -5.2347
    -5.2041  -5.2018  -5.1992  -5.1974  -5.1926  -5.1908  -5.1855  -5.1812
    -5.1787  -5.1785  -5.1742  -5.1657  -5.1623  -5.1582  -5.1505  -5.1409
    -5.1258  -5.0935  -5.0898  -5.0891  -5.0857  -5.0845  -5.0815  -5.0437
    -5.0419  -5.0329  -5.0262  -5.0126  -4.9998  -4.9990  -4.9862  -4.9727
    -4.9681  -4.9582  -4.9565  -4.9484  -4.9349  -4.9065  -4.9018  -4.8769
    -4.8611  -4.8019  -4.7898  -4.7296  -4.7285  -4.7272  -4.6953  -4.6851
    -4.6535  -4.6510  -4.6478  -4.6469  -4.6448  -4.5990  -4.5907  -4.5639
    -4.5501  -4.4285  -4.4276  -4.4218  -4.4211  -4.3726  -4.3705  -4.3591
    -4.3413

          k =-0.5000 0.3536 0.0000 (200424 PWs)   bands (ev):

   -46.3926 -46.3914 -46.3914 -46.3902 -46.3801 -46.3795 -46.3788 -46.3783
   -46.3508 -46.3497 -46.3320 -46.3307 -46.3250 -46.3067 -46.3044 -46.2931
   -45.8644 -45.8619 -45.8614 -45.8589 -45.8510 -45.8501 -45.8494 -45.8481
   -45.8471 -45.8469 -45.8363 -45.8343 -45.8279 -45.8260 -45.8150 -45.8134
   -45.7086 -45.7037 -45.7034 -45.6997 -45.6923 -45.6917 -45.6905 -45.6895
   -45.6875 -45.6856 -45.6840 -45.6807 -45.6759 -45.6731 -45.6689 -45.6643
   -45.4205 -45.4202 -45.4194 -45.4191 -45.4088 -45.4083 -45.4077 -45.4071
   -45.3945 -45.3883 -45.3676 -45.3560 -45.3423 -45.3371 -45.3263 -45.3133
   -28.9401 -28.7086 -27.4437 -27.2445 -24.7720 -24.7700 -24.7444 -24.7429
   -24.7328 -24.7057 -24.7041 -24.6751 -24.6454 -24.6439 -24.6384 -24.6370
   -24.6014 -24.5956 -24.5693 -24.5635 -24.5264 -24.5185 -24.4437 -24.4369
   -24.3192 -24.3178 -24.3068 -24.2999 -24.2889 -24.2884 -24.2661 -24.2583
   -24.2240 -24.2212 -24.1682 -24.1654 -24.1651 -24.1596 -24.1338 -24.1173
   -24.0613 -24.0583 -24.0509 -24.0501 -24.0471 -24.0343 -24.0307 -24.0264
   -24.0249 -24.0113 -23.9877 -23.9768 -23.4564 -23.4553 -23.4245 -23.4234
   -23.4139 -23.3824 -23.3742 -23.3516 -23.3505 -23.3391 -23.3328 -23.3317
   -23.3001 -23.2782 -23.2695 -23.2398 -17.9885 -16.4075 -14.2244 -12.9695
   -11.3191 -11.2453 -10.8821 -10.6874  -9.7290  -9.2131  -8.5198  -8.1201
    -7.6917  -7.4190  -7.4154  -7.4006  -7.3917  -7.3641  -7.3547  -7.3099
    -7.2576  -7.2255  -7.2242  -7.1903  -7.1870  -7.1754  -7.1653  -7.1631
    -7.1569  -7.1222  -7.1210  -7.1205  -7.1126  -7.0481  -7.0381  -7.0314
    -7.0295  -7.0213  -7.0208  -7.0042  -6.9778  -6.9768  -6.9688  -6.9615
    -6.9190  -6.9127  -6.9035  -6.8983  -6.8920  -6.8882  -6.8736  -6.8621
    -6.8513  -6.8452  -6.8330  -6.7717  -6.7698  -6.7527  -6.6982  -6.6947
    -6.6639  -6.6630  -6.6624  -6.6510  -6.6204  -6.6057  -6.5982  -6.5540
    -6.5532  -6.5194  -6.5061  -6.4374  -6.4264  -6.4126  -6.4085  -6.3636
    -6.3597  -6.3058  -6.2996  -6.2469  -6.2457  -6.2219  -6.2210  -6.1344
    -6.1270  -6.1203  -6.1194  -6.0878  -6.0840  -6.0834  -6.0806  -6.0773
    -6.0652  -6.0631  -6.0233  -6.0093  -6.0046  -5.9984  -5.9727  -5.9697
    -5.9525  -5.9367  -5.9327  -5.9310  -5.9285  -5.9283  -5.7667  -5.7624
    -5.7154  -5.7150  -5.7065  -5.7058  -5.7031  -5.7014  -5.6610  -5.6560
    -5.6380  -5.6367  -5.6255  -5.6234  -5.5565  -5.5550  -5.5411  -5.5361
    -5.4708  -5.4665  -5.4595  -5.4590  -5.4476  -5.4398  -5.4277  -5.4244
    -5.4084  -5.4068  -5.3656  -5.3640  -5.3589  -5.3570  -5.3552  -5.3494
    -5.3478  -5.3442  -5.3214  -5.3165  -5.3025  -5.2948  -5.2941  -5.2915
    -5.2627  -5.2609  -5.2484  -5.2432  -5.2216  -5.2207  -5.2200  -5.2188
    -5.1811  -5.1705  -5.1643  -5.1624  -5.1614  -5.1592  -5.1578  -5.1029
    -5.0978  -5.0943  -5.0929  -5.0816  -5.0735  -5.0719  -5.0710  -5.0601
    -5.0582  -5.0457  -5.0377  -5.0293  -5.0184  -4.9816  -4.9793  -4.9718
    -4.9717  -4.9567  -4.9372  -4.9293  -4.9263  -4.9031  -4.8978  -4.8808
    -4.8728  -4.7831  -4.7724  -4.7343  -4.7325  -4.7248  -4.7002  -4.6816
    -4.6593  -4.6537  -4.6526  -4.6512  -4.6442  -4.5971  -4.5899  -4.5624
    -4.5499  -4.4271  -4.4262  -4.4222  -4.4215  -4.3717  -4.3690  -4.3605
    -4.3409

          k =-0.5000-0.7071 0.0000 (200236 PWs)   bands (ev):

   -46.3921 -46.3920 -46.3909 -46.3908 -46.3797 -46.3796 -46.3784 -46.3784
   -46.3502 -46.3502 -46.3318 -46.3308 -46.3249 -46.3067 -46.3043 -46.2930
   -45.8635 -45.8629 -45.8604 -45.8600 -45.8506 -45.8503 -45.8488 -45.8477
   -45.8475 -45.8471 -45.8357 -45.8348 -45.8274 -45.8263 -45.8146 -45.8135
   -45.7072 -45.7062 -45.7020 -45.7018 -45.6911 -45.6909 -45.6905 -45.6884
   -45.6880 -45.6865 -45.6824 -45.6815 -45.6748 -45.6738 -45.6686 -45.6642
   -45.4204 -45.4204 -45.4193 -45.4193 -45.4084 -45.4084 -45.4073 -45.4072
   -45.3944 -45.3883 -45.3675 -45.3560 -45.3422 -45.3371 -45.3262 -45.3132
   -28.9401 -28.7086 -27.4437 -27.2445 -24.7584 -24.7582 -24.7565 -24.7565
   -24.7202 -24.7188 -24.6910 -24.6887 -24.6419 -24.6418 -24.6405 -24.6405
   -24.5996 -24.5975 -24.5676 -24.5652 -24.4977 -24.4965 -24.4900 -24.4894
   -24.3091 -24.3085 -24.3084 -24.3071 -24.2780 -24.2763 -24.2701 -24.2691
   -24.1912 -24.1908 -24.1887 -24.1879 -24.1136 -24.1115 -24.1082 -24.1078
   -24.0925 -24.0831 -24.0731 -24.0694 -24.0442 -24.0415 -24.0413 -24.0408
   -24.0089 -24.0020 -23.9952 -23.9917 -23.4406 -23.4405 -23.4394 -23.4394
   -23.4005 -23.3960 -23.3642 -23.3491 -23.3422 -23.3422 -23.3411 -23.3410
   -23.2942 -23.2842 -23.2659 -23.2434 -17.9885 -16.4074 -14.2243 -12.9692
   -11.3191 -11.2450 -10.8821 -10.6871  -9.7287  -9.2128  -8.5203  -8.1207
    -7.6915  -7.3102  -7.2967  -7.2951  -7.2944  -7.2933  -7.2598  -7.2464
    -7.2460  -7.2342  -7.2320  -7.1548  -7.1534  -7.1477  -7.1462  -7.1382
    -7.1381  -7.1349  -7.1343  -7.1148  -7.1145  -7.1087  -7.1078  -7.0871
    -7.0856  -7.0747  -7.0737  -7.0494  -7.0472  -7.0408  -7.0396  -7.0104
    -6.9919  -6.9917  -6.9878  -6.9875  -6.9703  -6.9700  -6.9504  -6.9391
    -6.8489  -6.7887  -6.7884  -6.7848  -6.7842  -6.7810  -6.7806  -6.7757
    -6.7718  -6.7677  -6.6108  -6.6101  -6.6070  -6.6057  -6.5998  -6.5240
    -6.5237  -6.5108  -6.5056  -6.3408  -6.3405  -6.3385  -6.3381  -6.3122
    -6.3112  -6.3020  -6.3009  -6.1651  -6.1646  -6.1641  -6.1633  -6.1301
    -6.1280  -6.1172  -6.1149  -6.0871  -6.0629  -6.0618  -6.0604  -6.0580
    -6.0296  -6.0287  -6.0223  -6.0217  -5.9858  -5.9848  -5.9805  -5.9800
    -5.8600  -5.8569  -5.8517  -5.8483  -5.7428  -5.7419  -5.7416  -5.7391
    -5.7213  -5.7201  -5.7194  -5.7190  -5.6958  -5.6947  -5.6930  -5.6926
    -5.6599  -5.6591  -5.6566  -5.6560  -5.6544  -5.6531  -5.6469  -5.6452
    -5.4493  -5.4467  -5.4444  -5.4442  -5.4367  -5.4364  -5.4355  -5.4353
    -5.4232  -5.4225  -5.4208  -5.4198  -5.4074  -5.4060  -5.4014  -5.4000
    -5.3701  -5.3670  -5.3634  -5.3612  -5.2705  -5.2692  -5.2685  -5.2683
    -5.2594  -5.2581  -5.2553  -5.2553  -5.2020  -5.2011  -5.1943  -5.1937
    -5.1816  -5.1792  -5.1768  -5.1762  -5.1750  -5.1399  -5.1382  -5.1381
    -5.1361  -5.1193  -5.1183  -5.1056  -5.1051  -5.0564  -5.0564  -5.0564
    -5.0563  -5.0104  -5.0097  -5.0008  -4.9981  -4.9933  -4.9910  -4.9850
    -4.9745  -4.9647  -4.9635  -4.9611  -4.9590  -4.9038  -4.9029  -4.8778
    -4.8736  -4.7479  -4.7478  -4.7456  -4.7456  -4.7204  -4.7127  -4.6749
    -4.6658  -4.6551  -4.6530  -4.6529  -4.6471  -4.5945  -4.5890  -4.5599
    -4.5493  -4.4241  -4.4240  -4.4233  -4.4232  -4.3708  -4.3651  -4.3639
    -4.3404

          k =-0.2500 0.3536 0.0000 (200411 PWs)   bands (ev):

   -46.3940 -46.3928 -46.3890 -46.3880 -46.3824 -46.3816 -46.3775 -46.3770
   -46.3508 -46.3498 -46.3318 -46.3307 -46.3252 -46.3068 -46.3044 -46.2930
   -45.8653 -45.8627 -45.8594 -45.8574 -45.8529 -45.8517 -45.8494 -45.8472
   -45.8470 -45.8464 -45.8359 -45.8340 -45.8282 -45.8263 -45.8149 -45.8133
   -45.7092 -45.7044 -45.7017 -45.6983 -45.6945 -45.6925 -45.6917 -45.6880
   -45.6866 -45.6857 -45.6837 -45.6807 -45.6762 -45.6732 -45.6688 -45.6643
   -45.4219 -45.4216 -45.4172 -45.4169 -45.4110 -45.4104 -45.4065 -45.4058
   -45.3945 -45.3883 -45.3676 -45.3560 -45.3423 -45.3371 -45.3263 -45.3133
   -28.9401 -28.7086 -27.4437 -27.2445 -24.7903 -24.7585 -24.7431 -24.7404
   -24.7213 -24.7109 -24.6850 -24.6694 -24.6677 -24.6628 -24.6291 -24.6167
   -24.6159 -24.6134 -24.5637 -24.5531 -24.5480 -24.4827 -24.4611 -24.4085
   -24.3763 -24.3283 -24.3193 -24.2825 -24.2805 -24.2641 -24.2564 -24.2352
   -24.2325 -24.2205 -24.1827 -24.1774 -24.1738 -24.1453 -24.1371 -24.0997
   -24.0783 -24.0674 -24.0543 -24.0497 -24.0431 -24.0403 -24.0290 -24.0232
   -24.0149 -24.0022 -23.9939 -23.9772 -23.4715 -23.4376 -23.4322 -23.4182
   -23.4033 -23.3853 -23.3755 -23.3627 -23.3537 -23.3345 -23.3305 -23.3178
   -23.3131 -23.2880 -23.2635 -23.2360 -17.9885 -16.4074 -14.2244 -12.9696
   -11.3191 -11.2453 -10.8821 -10.6874  -9.7290  -9.2131  -8.5197  -8.1201
    -7.6918  -7.5147  -7.4848  -7.4747  -7.3371  -7.3100  -7.2860  -7.2760
    -7.2732  -7.2655  -7.2572  -7.2560  -7.2365  -7.1728  -7.1448  -7.1255
    -7.0965  -7.0839  -7.0805  -7.0784  -7.0677  -7.0512  -7.0469  -7.0187
    -7.0100  -7.0083  -6.9940  -6.9936  -6.9838  -6.9804  -6.9714  -6.9600
    -6.9299  -6.9147  -6.8976  -6.8789  -6.8662  -6.8615  -6.8547  -6.8532
    -6.8479  -6.8424  -6.7986  -6.7719  -6.7693  -6.7515  -6.7276  -6.7091
    -6.7053  -6.6801  -6.6414  -6.6303  -6.6168  -6.5999  -6.5807  -6.5742
    -6.5553  -6.5008  -6.4756  -6.4721  -6.4586  -6.4529  -6.4463  -6.4389
    -6.4012  -6.3572  -6.2968  -6.2835  -6.2563  -6.2477  -6.1990  -6.1883
    -6.1769  -6.1491  -6.1467  -6.1109  -6.0866  -6.0778  -6.0667  -6.0422
    -6.0329  -6.0136  -5.9983  -5.9920  -5.9834  -5.9627  -5.9572  -5.9552
    -5.9261  -5.9233  -5.9129  -5.8711  -5.8695  -5.8271  -5.7901  -5.7636
    -5.7611  -5.7473  -5.7371  -5.7062  -5.6767  -5.6738  -5.6622  -5.6502
    -5.6469  -5.6432  -5.6146  -5.5968  -5.5850  -5.5818  -5.5572  -5.4967
    -5.4838  -5.4799  -5.4782  -5.4768  -5.4706  -5.4644  -5.4581  -5.4470
    -5.4445  -5.4360  -5.4266  -5.4248  -5.4231  -5.4095  -5.3910  -5.3881
    -5.3396  -5.3369  -5.3245  -5.3175  -5.2896  -5.2822  -5.2818  -5.2713
    -5.2636  -5.2519  -5.2370  -5.2250  -5.2174  -5.2130  -5.2019  -5.1949
    -5.1860  -5.1751  -5.1579  -5.1561  -5.1514  -5.1206  -5.1072  -5.1019
    -5.0999  -5.0944  -5.0883  -5.0807  -5.0700  -5.0558  -5.0464  -5.0423
    -5.0120  -5.0108  -5.0014  -4.9949  -4.9911  -4.9902  -4.9880  -4.9727
    -4.9596  -4.9432  -4.9323  -4.9247  -4.9222  -4.9028  -4.8956  -4.8650
    -4.8576  -4.7868  -4.7767  -4.7608  -4.7358  -4.7344  -4.7155  -4.6950
    -4.6711  -4.6638  -4.6518  -4.6452  -4.6378  -4.6015  -4.6006  -4.5986
    -4.5634  -4.5528  -4.5522  -4.5275  -4.4806  -4.3033  -4.2824  -4.2449
    -4.2169

     highest occupied level (ev):    -4.1596

!    total energy              =   -4345.71248193 Ry
     estimated scf accuracy    <          1.4E-11 Ry

     The total energy is the sum of the following terms:
     one-electron contribution = -103131.86484804 Ry
     hartree contribution      =   51709.92037276 Ry
     xc contribution           =    -998.21798349 Ry
     ewald contribution        =   48074.44997684 Ry

     convergence has been achieved in   8 iterations

     Forces acting on atoms (cartesian axes, Ry/au):

     atom    1 type  1   force =    -0.00000201    0.00000030    0.00004207
     atom    2 type  1   force =     0.00001314   -0.00000101    0.00016298
     atom    3 type  1   force =     0.00000450   -0.00000314    0.00016248
     atom    4 type  1   force =     0.00000353    0.00000016    0.00004133
     atom    5 type  2   force =    -0.00000997    0.00000070   -0.00027109
     atom    6 type  2   force =     0.00000353    0.00000292   -0.00005056
     atom    7 type  2   force =    -0.00000712    0.00000100   -0.00005560
     atom    8 type  2   force =    -0.00000382    0.00000040   -0.00024952
     atom    9 type  1   force =     0.00001723   -0.00000021    0.00020823
     atom   10 type  1   force =     0.00000287   -0.00002288    0.00010376
     atom   11 type  1   force =     0.00003343   -0.00001862    0.00014345
     atom   12 type  1   force =    -0.00000983    0.00000017    0.00020796
     atom   13 type  2   force =    -0.00000979   -0.00000096   -0.00005760
     atom   14 type  2   force =    -0.00002571    0.00000455   -0.00001989
     atom   15 type  2   force =     0.00001310    0.00001129   -0.00001203
     atom   16 type  2   force =    -0.00003055    0.00000057   -0.00012007
     atom   17 type  1   force =    -0.00004353    0.00000539    0.00016617
     atom   18 type  1   force =     0.00003650   -0.00010713    0.00008777
     atom   19 type  1   force =    -0.00002949   -0.00018267   -0.00010741
     atom   20 type  1   force =     0.00006343    0.00000414    0.00016313
     atom   21 type  2   force =     0.00007635    0.00006853   -0.00011630
     atom   22 type  2   force =     0.00004620    0.00006373   -0.00017144
     atom   23 type  2   force =    -0.00008099    0.00002253   -0.00017156
     atom   24 type  2   force =    -0.00000962    0.00004096   -0.00015252
     atom   25 type  1   force =     0.00028995    0.00006564    0.00038625
     atom   26 type  1   force =     0.00005536   -0.00013643    0.00062936
     atom   27 type  1   force =    -0.00001909    0.00015233   -0.00011959
     atom   28 type  1   force =    -0.00017519    0.00001621    0.00027012
     atom   29 type  2   force =    -0.00004997    0.00003175   -0.00062116
     atom   30 type  2   force =    -0.00030711    0.00014954   -0.00026656
     atom   31 type  2   force =     0.00017624    0.00005783   -0.00021515
     atom   32 type  2   force =    -0.00014240    0.00004628    0.00009318
     atom   33 type  1   force =    -0.00000173    0.00000050    0.00004104
     atom   34 type  1   force =     0.00001339    0.00000178    0.00016395
     atom   35 type  1   force =     0.00000487    0.00000389    0.00016284
     atom   36 type  1   force =     0.00000205    0.00000063    0.00003728
     atom   37 type  2   force =    -0.00000844    0.00000016   -0.00028663
     atom   38 type  2   force =     0.00000359   -0.00000212   -0.00005022
     atom   39 type  2   force =    -0.00000703   -0.00000021   -0.00005579
     atom   40 type  2   force =    -0.00000233    0.00000041   -0.00023545
     atom   41 type  1   force =     0.00002145    0.00000081    0.00017499
     atom   42 type  1   force =     0.00000391    0.00002295    0.00010476
     atom   43 type  1   force =     0.00003497    0.00001739    0.00014951
     atom   44 type  1   force =    -0.00001331    0.00000034    0.00019468
     atom   45 type  2   force =     0.00000264    0.00000152    0.00001198
     atom   46 type  2   force =    -0.00002553   -0.00000424   -0.00001977
     atom   47 type  2   force =     0.00001324   -0.00001095   -0.00000985
     atom   48 type  2   force =    -0.00001765   -0.00000247   -0.00022432
     atom   49 type  1   force =    -0.00007974    0.00000528    0.00011020
     atom   50 type  1   force =     0.00004677    0.00017344    0.00007211
     atom   51 type  1   force =    -0.00003083    0.00022661   -0.00011294
     atom   52 type  1   force =     0.00009397    0.00000134   -0.00007549
     atom   53 type  2   force =     0.00006435    0.00006106   -0.00025916
     atom   54 type  2   force =     0.00004849   -0.00004562   -0.00015923
     atom   55 type  2   force =    -0.00007427   -0.00000674   -0.00016946
     atom   56 type  2   force =     0.00015085    0.00003259    0.00005871
     atom   57 type  1   force =    -0.00028548    0.00007606    0.00001472
     atom   58 type  1   force =     0.00003971    0.00016611    0.00064196
     atom   59 type  1   force =    -0.00003650   -0.00001276   -0.00022261
     atom   60 type  1   force =    -0.00000815    0.00000701    0.00046547
     atom   61 type  2   force =    -0.00003028    0.00003894   -0.00091007
     atom   62 type  2   force =    -0.00032136    0.00002996   -0.00032932
     atom   63 type  2   force =     0.00018582   -0.00002944   -0.00018917
     atom   64 type  2   force =     0.00016029    0.00004441    0.00078803
     atom   65 type  1   force =     0.00000211    0.00000009    0.00003903
     atom   66 type  1   force =    -0.00001336   -0.00000195    0.00016410
     atom   67 type  1   force =    -0.00000425   -0.00000179    0.00016531
     atom   68 type  1   force =    -0.00000361    0.00000023    0.00003980
     atom   69 type  2   force =     0.00001020    0.00000030   -0.00026116
     atom   70 type  2   force =    -0.00000289   -0.00000141   -0.00006961
     atom   71 type  2   force =     0.00000650    0.00000051   -0.00006469
     atom   72 type  2   force =     0.00000361    0.00000061   -0.00028429
     atom   73 type  1   force =    -0.00001785   -0.00000002    0.00020939
     atom   74 type  1   force =    -0.00000743   -0.00001992    0.00017814
     atom   75 type  1   force =    -0.00002869   -0.00001418    0.00013456
     atom   76 type  1   force =     0.00001050   -0.00000041    0.00021007
     atom   77 type  2   force =     0.00001189   -0.00000033   -0.00016299
     atom   78 type  2   force =     0.00002210    0.00000287   -0.00003382
     atom   79 type  2   force =    -0.00000949   -0.00000435   -0.00004051
     atom   80 type  2   force =     0.00002859   -0.00000061   -0.00009329
     atom   81 type  1   force =     0.00004065    0.00000120    0.00016469
     atom   82 type  1   force =    -0.00001784   -0.00007421    0.00004890
     atom   83 type  1   force =    -0.00000123   -0.00008666    0.00026711
     atom   84 type  1   force =    -0.00006153    0.00000483    0.00015874
     atom   85 type  2   force =    -0.00008037    0.00002864   -0.00013092
     atom   86 type  2   force =    -0.00002491   -0.00001942   -0.00011725
     atom   87 type  2   force =     0.00006010    0.00001121   -0.00012674
     atom   88 type  2   force =    -0.00000173    0.00006574   -0.00010127
     atom   89 type  1   force =    -0.00027541    0.00005763    0.00040217
     atom   90 type  1   force =    -0.00005351    0.00013561   -0.00023823
     atom   91 type  1   force =    -0.00008084   -0.00002794    0.00023493
     atom   92 type  1   force =     0.00014552    0.00010930    0.00048073
     atom   93 type  2   force =     0.00007311    0.00003280    0.00046169
     atom   94 type  2   force =     0.00024374    0.00011628   -0.00009646
     atom   95 type  2   force =    -0.00018182    0.00014952   -0.00014463
     atom   96 type  2   force =     0.00009639    0.00002303   -0.00018880
     atom   97 type  1   force =     0.00000217    0.00000070    0.00003193
     atom   98 type  1   force =    -0.00001357    0.00000267    0.00016429
     atom   99 type  1   force =    -0.00000467    0.00000256    0.00016587
     atom  100 type  1   force =    -0.00000247    0.00000056    0.00003557
     atom  101 type  2   force =     0.00000859    0.00000048   -0.00025822
     atom  102 type  2   force =    -0.00000295    0.00000220   -0.00007024
     atom  103 type  2   force =     0.00000643    0.00000029   -0.00006457
     atom  104 type  2   force =     0.00000222    0.00000025   -0.00029102
     atom  105 type  1   force =    -0.00001782    0.00000063    0.00018332
     atom  106 type  1   force =    -0.00000930    0.00001875    0.00017723
     atom  107 type  1   force =    -0.00002943    0.00001513    0.00013440
     atom  108 type  1   force =     0.00000961    0.00000109    0.00016778
     atom  109 type  2   force =    -0.00000160   -0.00000135   -0.00020823
     atom  110 type  2   force =     0.00002192   -0.00000249   -0.00003386
     atom  111 type  2   force =    -0.00000963    0.00000466   -0.00004356
     atom  112 type  2   force =     0.00001658    0.00000232   -0.00008995
     atom  113 type  1   force =     0.00005100    0.00000030   -0.00011910
     atom  114 type  1   force =    -0.00002177    0.00010206    0.00004942
     atom  115 type  1   force =    -0.00000584    0.00014907    0.00022757
     atom  116 type  1   force =    -0.00006119    0.00000147   -0.00000444
     atom  117 type  2   force =    -0.00014201    0.00001895   -0.00013766
     atom  118 type  2   force =    -0.00002796    0.00003273   -0.00013596
     atom  119 type  2   force =     0.00005383    0.00000399   -0.00013225
     atom  120 type  2   force =    -0.00007253    0.00005265   -0.00023560
     atom  121 type  1   force =    -0.00003791    0.00005780   -0.00024129
     atom  122 type  1   force =    -0.00002133    0.00002313   -0.00026312
     atom  123 type  1   force =    -0.00008464    0.00005814    0.00024428
     atom  124 type  1   force =     0.00011406    0.00012762   -0.00068524
     atom  125 type  2   force =    -0.00001400    0.00006695    0.00091571
     atom  126 type  2   force =     0.00026756    0.00000671   -0.00016111
     atom  127 type  2   force =    -0.00018806    0.00012428   -0.00027388
     atom  128 type  2   force =    -0.00007336    0.00002107   -0.00007379
     atom  129 type  3   force =     0.00021383   -0.00018204    0.00002402
     atom  130 type  3   force =    -0.00017748   -0.00043806    0.00040537
     atom  131 type  4   force =     0.00010810   -0.00009441   -0.00024877
     atom  132 type  4   force =     0.00000836    0.00020884    0.00006719
     atom  133 type  4   force =     0.00036837   -0.00005767   -0.00064672
     atom  134 type  3   force =     0.00001603   -0.00010202   -0.00022696
     atom  135 type  2   force =    -0.00022437   -0.00035887    0.00071433
     atom  136 type  4   force =     0.00040570    0.00064040    0.00061926
     atom  137 type  3   force =    -0.00068197   -0.00007059    0.00016980
     atom  138 type  2   force =     0.00015889   -0.00124434   -0.00092776
     atom  139 type  4   force =     0.00003226   -0.00049006   -0.00062175
     atom  140 type  2   force =     0.00012493   -0.00065335   -0.00002905
     atom  141 type  2   force =     0.00009033    0.00009246    0.00062688
     atom  142 type  4   force =     0.00012991    0.00029462   -0.00007777

     Total force =     0.004096     Total SCF correction =     0.000010


     Computing stress (Cartesian axis) and pressure

          total   stress  (Ry/bohr**3)                   (kbar)     P=      -51.76
  -0.00029201   0.00000008  -0.00000011          -42.96        0.01       -0.02
   0.00000008  -0.00042984  -0.00000059            0.01      -63.23       -0.09
  -0.00000011  -0.00000059  -0.00033380           -0.02       -0.09      -49.10

     Energy error            =      2.4E-05 Ry
     Gradient error          =      1.2E-03 Ry/Bohr

     number of scf cycles    =  10
     number of bfgs steps    =   9

     energy             old  =   -4345.7124582167 Ry
     energy             new  =   -4345.7124819263 Ry

     CASE: energy            _new < energy            _old

     new trust radius        =       0.0089991063 bohr
     new conv_thr            =            1.0E-10 Ry


ATOMIC_POSITIONS (angstrom)
Li              -0.0000112047        0.0000001272       15.2269105752
Li               4.3313508110        2.0417326892       16.3542885215
Li               1.4437980696        2.0417063734       16.3541664945
Li               2.8874483144       -0.0000008846       15.2269287413
F                4.3309856632        0.0000059836       16.4356273357
F                0.0000300726        2.0417169438       15.0829002955
F                2.8873480114        2.0417042804       15.0828229283
F                1.4436502595        0.0000041832       16.4359037944
Li               2.8877346642        8.1668479033       17.9571766858
Li               1.4439862068        2.0416252839       19.3047691945
Li               4.3318786653        2.0418183652       19.3057074535
Li              11.5495385066        8.1668521189       17.9570494204
F                1.4434673198        0.0000125325       19.3299123390
F                2.8870615148        2.0416845559       17.9147398396
F                0.0001511227        2.0417484976       17.9150030307
F                4.3305353649        0.0000284421       19.3284797226
Li              11.5490207442        8.1668451717       20.8025487039
Li               4.3337770052        2.0420688510       22.1539555720
Li               1.4448597749        2.0407780099       22.1480370662
Li               2.8888416457        8.1667949959       20.8030699912
F                4.3294344386        0.0005499708       22.1872094126
F               11.5502710748        2.0420292403       20.7759704936
F                2.8859881872        2.0415987104       20.7752766778
F                1.4424582750        0.0004059385       22.1923127328
Li               2.8921988352        0.0000583739       23.7536072159
Li               1.4441359489        2.0379354439       24.8684283563
Li               4.3366266840        2.0528868176       24.8893896367
Li              11.5472278037        0.0000911114       23.7519538336
F                1.4427424125        0.0006966242       25.0298855077
F                2.8884118964        2.0404968319       23.6699892014
F               -0.0012878305        2.0423881415       23.6703536444
F                4.3295376982        0.0030925847       25.0231514235
Li              -0.0000119279        4.0834317000       15.2269038018
Li               4.3313521596        6.1251278345       16.3542999262
Li               1.4438011238        6.1251541142       16.3541735283
Li               2.8874493799        4.0834326119       15.2269186777
F                4.3309861255        4.0834254795       16.4354741184
F                0.0000302710        6.1251430881       15.0829003292
F                2.8873482041        6.1251556491       15.0828191921
F                1.4436510018        4.0834272095       16.4359667652
Li               2.8878443540        4.0834403175       17.9571239746
Li               1.4440055670        6.1252302016       19.3048154917
Li               4.3318893900        6.1250358317       19.3058033016
Li              11.5495005946        4.0834352313       17.9569982245
F                1.4434905633        4.0834127424       19.3304948802
F                2.8870611078        6.1251749176       17.9147157106
F                0.0001516338        6.1251102092       17.9150027460
F                4.3305581023        4.0833912325       19.3271447673
Li              -0.0009852110        4.0834749364       20.8021121908
Li               4.3338368638        6.1249212785       22.1547332196
Li               1.4451034738        6.1263203480       22.1483000764
Li               2.8895676429        4.0834735444       20.8019913085
F                4.3294686288        4.0832960520       22.1784210939
F               11.5502866842        6.1248910774       20.7760053500
F                2.8860359448        6.1252583553       20.7751558620
F                1.4432049206        4.0834770171       22.1954246442
Li               2.8834258067        4.0852835369       23.7438370391
Li               1.4445513645        6.1294074442       24.8685167269
Li               4.3374020383        6.1182756268       24.8904535086
Li               0.0000445026        4.0836283747       23.7516493283
F                1.4438652335        4.0835682666       25.0385583675
F                2.8871859979        6.1298935141       23.6684802283
F               11.5484977067        6.1248893267       23.6704511511
F                4.3194176433        4.0943493713       24.9880945989
Li               5.7748497533       -0.0000012086       15.2269687260
Li              10.1057446011        2.0417149045       16.3542182267
Li               7.2184591666        2.0417294214       16.3543394144
Li               8.6622277758       -0.0000002231       15.2269501186
F               10.1061098189        0.0000032048       16.4357715539
F                5.7748112668        2.0416878492       15.0826207934
F                8.6623254188        2.0417006158       15.0826983509
F                7.2186070151        8.1668619297       16.4354909850
Li               8.6619406232        8.1668510078       17.9573618293
Li               7.2182478699        2.0417937188       19.3061230571
Li              10.1052399547        2.0417022773       19.3052137297
Li               5.7749767142        8.1668461687       17.9574931118
F                7.2188112020        0.0000178526       19.3277481436
F                8.6625874310        2.0416661563       17.9143169516
F                5.7747137595        2.0416019993       17.9140519564
F               10.1065387849        8.1668658196       19.3291926336
Li               5.7754539045        8.1667682421       20.8042432927
Li              10.1030091652        2.0415231060       22.1512257264
Li               7.2176425293        2.0420073357       22.1568152527
Li               8.6608706926        8.1668257409       20.8037404071
F               10.1079697543        0.0002414873       22.1895383834
F                5.7744904905        2.0409972964       20.7737404344
F                8.6634458818        2.0414636066       20.7743457063
F                7.2193989060        0.0004929021       22.1846264110
Li               8.6584225302        8.1671909868       23.7563185995
Li               7.2171414692        2.0550300377       24.9010312294
Li              10.1010971353        2.0449413494       24.8809877612
Li               5.7762859856        0.0004990944       23.7580557683
F                7.2191288179        0.0018428663       25.0186565672
F                8.6603513597        2.0418974123       23.6712059305
F                5.7760541210        2.0424768750       23.6717712681
F               10.1078177047        0.0006112672       25.0244332761
Li               5.7748488405        4.0834328996       15.2269554513
Li              10.1057437497        6.1251455608       16.3542232494
Li               7.2184556012        6.1251311415       16.3543480828
Li               8.6622281799        4.0834319156       15.2269397525
F               10.1061089617        4.0834281690       16.4357619392
F                5.7748110482        6.1251720680       15.0826151911
F                8.6623251573        6.1251595111       15.0826975978
F                7.2186063579        4.0834264886       16.4353764705
Li               8.6618838389        4.0834369319       17.9573467854
Li               7.2182233515        6.1250594105       19.3061706450
Li              10.1052343133        6.1251570836       19.3052413970
Li               5.7749613762        4.0834425798       17.9574872597
F                7.2187825518        4.0834014490       19.3268782766
F                8.6625877626        6.1251932021       17.9143081300
F                5.7747136158        6.1252581263       17.9140128710
F               10.1065194267        4.0834220532       19.3291259838
Li               5.7753647345        4.0834697040       20.8035058181
Li              10.1029171574        6.1254642914       22.1513599564
Li               7.2174248544        6.1250304033       22.1569436932
Li               8.6605869098        4.0834592084       20.8032786124
F               10.1076646080        4.0834481713       22.1887999319
F                5.7744648291        6.1258191163       20.7734848693
F                8.6634070203        6.1254114113       20.7742798255
F                7.2191403885        4.0834176486       22.1790667939
Li               8.6627590288        4.0844489439       23.7505893413
Li               7.2165960770        6.1166130198       24.8990906604
Li              10.1011280760        6.1228118934       24.8810467535
Li               5.7738162807        4.0858137181       23.7484746062
F                7.2182219164        4.0895463626       24.9950126912
F                8.6613042867        6.1271354923       23.6701478045
F                5.7764404368        6.1294580814       23.6688385896
F               10.1094881130        4.0839301834       25.0195486169
C                3.7960041804        4.0089762302       29.4476745892
C                5.1582004003        4.1929161374       28.8075571665
H                3.0247963369        4.1995341800       28.6928725832
H                3.6878016977        2.9826163562       29.8162489774
H                3.6637558453        4.7080141590       30.2815321439
C                6.3337872740        3.9753346492       29.7652398180
F                5.2668473198        3.3189832815       27.7451926221
H                6.2415795977        2.9621076025       30.1801255832
C                7.7501123522        4.1097431458       29.2180155937
F                5.2234265221        5.4710735392       28.2727741788
H                6.2339158978        4.6826846804       30.6001777807
F                7.9804628392        5.3613647814       28.6996215472
F                8.0043256140        3.1957230307       28.2280960055
H                8.4975683090        3.9443909582       30.0128741237



     Writing config-only to output data dir ./tmp/LiF_PVDF/LiF_PVDF.save/ :
     XML data file
     NEW-OLD atomic charge density approx. for the potential

     total cpu time spent up to now is     3984.3 secs

     per-process dynamical memory:   151.3 Mb

     Self-consistent Calculation

     iteration #  1     ecut=    60.00 Ry     beta= 0.30
     Davidson diagonalization with overlap
     ethr =  1.00E-06,  avg # of iterations =  4.0

     Threshold (ethr) on eigenvalues was too large:
     Diagonalizing with lowered threshold

     Davidson diagonalization with overlap
     ethr =  2.15E-09,  avg # of iterations =  4.0

     total cpu time spent up to now is     4065.8 secs

     total energy              =   -4345.71250853 Ry
     estimated scf accuracy    <       0.00001599 Ry

     iteration #  2     ecut=    60.00 Ry     beta= 0.30
     Davidson diagonalization with overlap
     ethr =  2.32E-09,  avg # of iterations =  2.0

     total cpu time spent up to now is     4095.0 secs

     total energy              =   -4345.71250757 Ry
     estimated scf accuracy    <       0.00000645 Ry

     iteration #  3     ecut=    60.00 Ry     beta= 0.30
     Davidson diagonalization with overlap
     ethr =  9.35E-10,  avg # of iterations =  3.0

     total cpu time spent up to now is     4127.0 secs

     total energy              =   -4345.71250808 Ry
     estimated scf accuracy    <       0.00000037 Ry

     iteration #  4     ecut=    60.00 Ry     beta= 0.30
     Davidson diagonalization with overlap
     ethr =  5.30E-11,  avg # of iterations =  4.0

     total cpu time spent up to now is     4160.1 secs

     total energy              =   -4345.71250812 Ry
     estimated scf accuracy    <       0.00000003 Ry

     iteration #  5     ecut=    60.00 Ry     beta= 0.30
     Davidson diagonalization with overlap
     ethr =  4.99E-12,  avg # of iterations =  4.0

     total cpu time spent up to now is     4191.8 secs

     total energy              =   -4345.71250812 Ry
     estimated scf accuracy    <          7.2E-09 Ry

     iteration #  6     ecut=    60.00 Ry     beta= 0.30
     Davidson diagonalization with overlap
     ethr =  1.04E-12,  avg # of iterations =  3.0

     total cpu time spent up to now is     4223.9 secs

     total energy              =   -4345.71250812 Ry
     estimated scf accuracy    <          7.6E-10 Ry

     iteration #  7     ecut=    60.00 Ry     beta= 0.30
     Davidson diagonalization with overlap
     ethr =  1.10E-13,  avg # of iterations =  3.5

     total cpu time spent up to now is     4254.9 secs

     End of self-consistent calculation

          k = 0.0000 0.0000 0.0000 (200173 PWs)   bands (ev):

   -46.3997 -46.3975 -46.3904 -46.3903 -46.3893 -46.3892 -46.3817 -46.3804
   -46.3500 -46.3483 -46.3279 -46.3265 -46.3194 -46.2995 -46.2959 -46.2839
   -45.8681 -45.8639 -45.8582 -45.8575 -45.8561 -45.8552 -45.8483 -45.8472
   -45.8469 -45.8436 -45.8331 -45.8306 -45.8265 -45.8237 -45.8127 -45.8105
   -45.7105 -45.7031 -45.6996 -45.6985 -45.6952 -45.6946 -45.6934 -45.6878
   -45.6861 -45.6851 -45.6830 -45.6796 -45.6761 -45.6718 -45.6672 -45.6627
   -45.4257 -45.4249 -45.4171 -45.4170 -45.4166 -45.4165 -45.4091 -45.4077
   -45.3917 -45.3857 -45.3642 -45.3537 -45.3375 -45.3327 -45.3207 -45.3077
   -28.9369 -28.7058 -27.4384 -27.2393 -24.8069 -24.7601 -24.7515 -24.7114
   -24.7113 -24.7045 -24.6957 -24.6956 -24.6538 -24.6463 -24.6380 -24.6301
   -24.6259 -24.6087 -24.5656 -24.5577 -24.5396 -24.4391 -24.4387 -24.3961
   -24.3838 -24.3193 -24.3190 -24.3073 -24.3064 -24.2858 -24.2408 -24.2286
   -24.2189 -24.2083 -24.2014 -24.1943 -24.1928 -24.1750 -24.1156 -24.1155
   -24.0899 -24.0866 -24.0544 -24.0368 -24.0348 -24.0264 -24.0229 -24.0043
   -24.0012 -23.9960 -23.9928 -23.9724 -23.4887 -23.4398 -23.4247 -23.4139
   -23.4139 -23.3781 -23.3780 -23.3780 -23.3438 -23.3367 -23.3314 -23.3140
   -23.3074 -23.2903 -23.2540 -23.2224 -17.9874 -16.4061 -14.2214 -12.9666
   -11.3150 -11.2423 -10.8772 -10.6857  -9.7269  -9.2109  -8.5143  -8.1160
    -7.6882  -7.6098  -7.5974  -7.5816  -7.3838  -7.3492  -7.3289  -7.3105
    -7.3049  -7.2986  -7.2529  -7.1560  -7.1456  -7.1455  -7.1439  -7.1306
    -7.1296  -7.1291  -7.1286  -7.0144  -7.0131  -7.0069  -6.9889  -6.9842
    -6.9833  -6.9827  -6.9406  -6.9370  -6.9262  -6.9211  -6.9059  -6.9007
    -6.8995  -6.8616  -6.8498  -6.8422  -6.8244  -6.8236  -6.7773  -6.7720
    -6.7717  -6.7638  -6.7545  -6.7530  -6.7507  -6.7489  -6.7378  -6.7125
    -6.7122  -6.7089  -6.6712  -6.6695  -6.5971  -6.5922  -6.5899  -6.5606
    -6.5601  -6.5219  -6.5211  -6.5093  -6.5042  -6.5031  -6.5020  -6.4882
    -6.3903  -6.2910  -6.2648  -6.2637  -6.2626  -6.2410  -6.2298  -6.2193
    -6.2075  -6.2049  -6.2023  -6.2009  -6.1928  -6.1887  -6.1862  -6.1637
    -6.0816  -6.0540  -6.0533  -6.0082  -6.0015  -5.9935  -5.9929  -5.9585
    -5.9102  -5.9074  -5.8353  -5.8125  -5.8041  -5.8037  -5.8003  -5.8001
    -5.7948  -5.7938  -5.7910  -5.7572  -5.7062  -5.7052  -5.7047  -5.6976
    -5.6895  -5.5723  -5.5537  -5.5534  -5.5350  -5.5342  -5.5253  -5.5232
    -5.5200  -5.5089  -5.5068  -5.5053  -5.5049  -5.4932  -5.4920  -5.4898
    -5.4884  -5.4389  -5.4324  -5.4110  -5.4002  -5.3362  -5.2927  -5.2897
    -5.2766  -5.2647  -5.2627  -5.2517  -5.2513  -5.2477  -5.2418  -5.2407
    -5.2367  -5.2352  -5.2195  -5.2141  -5.2099  -5.2094  -5.2038  -5.2027
    -5.1757  -5.1710  -5.1692  -5.1615  -5.1584  -5.1577  -5.1472  -5.1470
    -5.1369  -5.1010  -5.1010  -5.0832  -5.0384  -5.0332  -5.0296  -5.0270
    -5.0152  -5.0056  -4.9978  -4.9977  -4.9791  -4.9425  -4.9320  -4.9242
    -4.9242  -4.9211  -4.9085  -4.8577  -4.8559  -4.8538  -4.8528  -4.8486
    -4.8440  -4.8333  -4.8330  -4.8293  -4.7965  -4.7892  -4.7373  -4.7287
    -4.6867  -4.6838  -4.6660  -4.6652  -4.6367  -4.6141  -4.6131  -4.6131
    -4.6071  -4.5834  -4.5445  -4.5251  -4.5194  -4.2664  -4.2284  -4.1966
    -4.1539

          k = 0.0000 0.3536 0.0000 (200366 PWs)   bands (ev):

   -46.3993 -46.3979 -46.3904 -46.3902 -46.3894 -46.3893 -46.3814 -46.3810
   -46.3498 -46.3486 -46.3278 -46.3268 -46.3195 -46.2996 -46.2960 -46.2840
   -45.8675 -45.8646 -45.8580 -45.8573 -45.8564 -45.8556 -45.8481 -45.8474
   -45.8467 -45.8441 -45.8329 -45.8310 -45.8263 -45.8241 -45.8125 -45.8109
   -45.7098 -45.7050 -45.6991 -45.6981 -45.6961 -45.6954 -45.6916 -45.6876
   -45.6867 -45.6854 -45.6826 -45.6801 -45.6754 -45.6723 -45.6674 -45.6628
   -45.4255 -45.4251 -45.4172 -45.4171 -45.4167 -45.4166 -45.4089 -45.4082
   -45.3917 -45.3857 -45.3643 -45.3538 -45.3376 -45.3328 -45.3208 -45.3077
   -28.9369 -28.7058 -27.4384 -27.2393 -24.8002 -24.7671 -24.7449 -24.7115
   -24.7091 -24.7091 -24.6980 -24.6979 -24.6516 -24.6436 -24.6402 -24.6291
   -24.6271 -24.6118 -24.5560 -24.5553 -24.5424 -24.4675 -24.4322 -24.4318
   -24.3693 -24.3690 -24.3241 -24.2889 -24.2560 -24.2554 -24.2376 -24.2252
   -24.2221 -24.2117 -24.1995 -24.1978 -24.1835 -24.1478 -24.1104 -24.1101
   -24.0727 -24.0711 -24.0689 -24.0525 -24.0492 -24.0422 -24.0232 -24.0094
   -24.0077 -24.0047 -23.9955 -23.9766 -23.4817 -23.4471 -23.4180 -23.4087
   -23.4087 -23.3849 -23.3833 -23.3833 -23.3389 -23.3334 -23.3266 -23.3173
   -23.3123 -23.2953 -23.2515 -23.2251 -17.9875 -16.4061 -14.2214 -12.9664
   -11.3151 -11.2422 -10.8774 -10.6857  -9.7269  -9.2108  -8.5152  -8.1169
    -7.6882  -7.5491  -7.5295  -7.5020  -7.3818  -7.3232  -7.3048  -7.2967
    -7.2849  -7.2843  -7.2529  -7.1540  -7.1469  -7.1380  -7.1249  -7.1246
    -7.1200  -7.1192  -7.0926  -7.0891  -7.0583  -7.0501  -7.0466  -7.0057
    -6.9810  -6.9660  -6.9648  -6.9633  -6.9607  -6.9579  -6.9560  -6.9231
    -6.9220  -6.9074  -6.8985  -6.8980  -6.8918  -6.8561  -6.8441  -6.8306
    -6.8293  -6.7878  -6.7869  -6.7677  -6.7634  -6.7455  -6.7413  -6.7091
    -6.7076  -6.6883  -6.6394  -6.6041  -6.5954  -6.5886  -6.5868  -6.5842
    -6.5831  -6.5240  -6.5227  -6.5166  -6.5162  -6.4950  -6.4442  -6.4404
    -6.4400  -6.4357  -6.2946  -6.2941  -6.2809  -6.2803  -6.2393  -6.1665
    -6.1659  -6.1402  -6.1227  -6.0824  -6.0784  -6.0754  -6.0652  -6.0651
    -6.0375  -6.0316  -6.0257  -5.9760  -5.9493  -5.9296  -5.9293  -5.8875
    -5.8761  -5.8664  -5.8568  -5.8167  -5.8105  -5.8101  -5.7869  -5.7865
    -5.7801  -5.7770  -5.7760  -5.7266  -5.7135  -5.7002  -5.6688  -5.6687
    -5.6554  -5.5638  -5.5635  -5.5630  -5.5625  -5.5539  -5.5508  -5.5472
    -5.5407  -5.5383  -5.5224  -5.5159  -5.5143  -5.4881  -5.4850  -5.4842
    -5.4566  -5.4550  -5.4493  -5.4439  -5.4405  -5.4322  -5.4276  -5.4048
    -5.3890  -5.3882  -5.3387  -5.2662  -5.2619  -5.2578  -5.2451  -5.2447
    -5.2433  -5.2359  -5.2324  -5.2316  -5.1984  -5.1837  -5.1805  -5.1800
    -5.1763  -5.1756  -5.1731  -5.1658  -5.1657  -5.1521  -5.1095  -5.0927
    -5.0772  -5.0768  -5.0748  -5.0739  -5.0462  -5.0291  -5.0290  -5.0270
    -5.0145  -5.0066  -4.9990  -4.9987  -4.9863  -4.9650  -4.9607  -4.9585
    -4.9193  -4.8994  -4.8994  -4.8973  -4.8816  -4.8801  -4.8534  -4.8508
    -4.8500  -4.8304  -4.8236  -4.7815  -4.7781  -4.7729  -4.7459  -4.7226
    -4.6823  -4.6809  -4.6745  -4.6520  -4.6361  -4.6265  -4.6264  -4.6131
    -4.5999  -4.5832  -4.5461  -4.5373  -4.5274  -4.2606  -4.2338  -4.1913
    -4.1588

          k = 0.0000-0.7071 0.0000 (200506 PWs)   bands (ev):

   -46.3987 -46.3987 -46.3900 -46.3899 -46.3898 -46.3898 -46.3813 -46.3812
   -46.3495 -46.3491 -46.3275 -46.3272 -46.3195 -46.2997 -46.2960 -46.2841
   -45.8663 -45.8659 -45.8574 -45.8571 -45.8565 -45.8564 -45.8480 -45.8477
   -45.8461 -45.8448 -45.8325 -45.8315 -45.8258 -45.8247 -45.8123 -45.8111
   -45.7083 -45.7075 -45.6980 -45.6977 -45.6971 -45.6968 -45.6898 -45.6874
   -45.6871 -45.6861 -45.6819 -45.6807 -45.6743 -45.6732 -45.6675 -45.6629
   -45.4254 -45.4254 -45.4170 -45.4170 -45.4169 -45.4169 -45.4086 -45.4086
   -45.3918 -45.3858 -45.3643 -45.3539 -45.3376 -45.3329 -45.3208 -45.3078
   -28.9370 -28.7059 -27.4384 -27.2393 -24.7838 -24.7837 -24.7292 -24.7278
   -24.7037 -24.7036 -24.7035 -24.7034 -24.6470 -24.6449 -24.6373 -24.6356
   -24.6195 -24.6194 -24.5500 -24.5479 -24.5253 -24.5242 -24.4103 -24.4099
   -24.4091 -24.4088 -24.2993 -24.2975 -24.2311 -24.2290 -24.2220 -24.2216
   -24.2176 -24.2165 -24.2136 -24.2128 -24.1230 -24.1225 -24.1028 -24.0926
   -24.0842 -24.0826 -24.0826 -24.0810 -24.0421 -24.0371 -24.0337 -24.0320
   -24.0154 -24.0153 -23.9904 -23.9828 -23.4645 -23.4645 -23.4035 -23.3994
   -23.3961 -23.3961 -23.3961 -23.3960 -23.3301 -23.3254 -23.3254 -23.3216
   -23.3189 -23.3028 -23.2482 -23.2286 -17.9875 -16.4061 -14.2213 -12.9663
   -11.3154 -11.2421 -10.8777 -10.6857  -9.7270  -9.2107  -8.5160  -8.1176
    -7.6882  -7.4356  -7.4352  -7.3963  -7.3951  -7.3051  -7.2568  -7.2516
    -7.2513  -7.2481  -7.2462  -7.2162  -7.2145  -7.1381  -7.1352  -7.0956
    -7.0942  -7.0935  -7.0930  -7.0638  -7.0631  -7.0546  -7.0529  -7.0519
    -7.0513  -7.0499  -7.0491  -7.0478  -7.0477  -7.0167  -7.0002  -6.9827
    -6.9247  -6.9236  -6.9236  -6.9234  -6.8683  -6.8667  -6.8658  -6.8653
    -6.8448  -6.8190  -6.8184  -6.8172  -6.8166  -6.7740  -6.7720  -6.7639
    -6.6282  -6.6276  -6.6275  -6.6274  -6.6243  -6.6242  -6.5962  -6.5678
    -6.5651  -6.5556  -6.5544  -6.5527  -6.5515  -6.3793  -6.3788  -6.3786
    -6.3781  -6.3275  -6.3268  -6.3264  -6.3261  -6.2838  -6.2831  -6.0833
    -6.0539  -6.0529  -6.0325  -6.0318  -6.0052  -6.0046  -6.0042  -6.0036
    -5.9686  -5.9666  -5.9539  -5.9469  -5.9400  -5.9393  -5.9264  -5.9258
    -5.9250  -5.9247  -5.8349  -5.8346  -5.7785  -5.7777  -5.7713  -5.7689
    -5.7642  -5.7622  -5.7619  -5.7594  -5.6512  -5.6507  -5.6462  -5.6449
    -5.6245  -5.6236  -5.5928  -5.5913  -5.5684  -5.5678  -5.5669  -5.5668
    -5.5374  -5.5359  -5.5330  -5.5323  -5.4990  -5.4974  -5.4945  -5.4926
    -5.4925  -5.4924  -5.4478  -5.4478  -5.4472  -5.4448  -5.3888  -5.3878
    -5.3871  -5.3867  -5.3757  -5.3747  -5.3742  -5.3736  -5.2588  -5.2587
    -5.2565  -5.2560  -5.2553  -5.2543  -5.2471  -5.2469  -5.2028  -5.1997
    -5.1730  -5.1607  -5.1583  -5.1518  -5.1498  -5.1064  -5.1062  -5.0869
    -5.0862  -5.0851  -5.0845  -5.0566  -5.0555  -5.0518  -5.0512  -5.0462
    -5.0427  -4.9959  -4.9915  -4.9858  -4.9766  -4.9602  -4.9572  -4.9532
    -4.9508  -4.9051  -4.8977  -4.8834  -4.8804  -4.8564  -4.8561  -4.8558
    -4.8556  -4.7891  -4.7838  -4.7823  -4.7807  -4.7629  -4.7628  -4.7013
    -4.6982  -4.6581  -4.6580  -4.6576  -4.6573  -4.6389  -4.6388  -4.6087
    -4.6015  -4.5781  -4.5602  -4.5459  -4.5342  -4.2477  -4.2477  -4.1843
    -4.1668

          k = 0.2500 0.0000 0.0000 (200254 PWs)   bands (ev):

   -46.3989 -46.3969 -46.3938 -46.3924 -46.3870 -46.3861 -46.3822 -46.3813
   -46.3500 -46.3484 -46.3280 -46.3266 -46.3193 -46.2995 -46.2960 -46.2840
   -45.8674 -45.8635 -45.8613 -45.8584 -45.8546 -45.8529 -45.8488 -45.8476
   -45.8470 -45.8435 -45.8336 -45.8309 -45.8261 -45.8235 -45.8127 -45.8107
   -45.7099 -45.7027 -45.7025 -45.6977 -45.6953 -45.6932 -45.6921 -45.6887
   -45.6869 -45.6851 -45.6834 -45.6797 -45.6757 -45.6718 -45.6674 -45.6628
   -45.4250 -45.4243 -45.4203 -45.4198 -45.4140 -45.4133 -45.4096 -45.4086
   -45.3917 -45.3857 -45.3643 -45.3538 -45.3375 -45.3327 -45.3208 -45.3077
   -28.9369 -28.7058 -27.4384 -27.2393 -24.7999 -24.7552 -24.7492 -24.7450
   -24.7204 -24.7013 -24.6858 -24.6730 -24.6707 -24.6543 -24.6352 -24.6168
   -24.6135 -24.6094 -24.5610 -24.5568 -24.5466 -24.4900 -24.3904 -24.3809
   -24.3782 -24.3486 -24.3361 -24.2894 -24.2787 -24.2775 -24.2637 -24.2467
   -24.2345 -24.2278 -24.1950 -24.1755 -24.1693 -24.1659 -24.1487 -24.1199
   -24.0819 -24.0564 -24.0512 -24.0370 -24.0353 -24.0333 -24.0238 -24.0139
   -24.0058 -24.0041 -23.9841 -23.9702 -23.4831 -23.4428 -23.4352 -23.4216
   -23.4019 -23.3847 -23.3762 -23.3621 -23.3538 -23.3427 -23.3196 -23.3190
   -23.3115 -23.2783 -23.2580 -23.2250 -17.9875 -16.4061 -14.2214 -12.9666
   -11.3150 -11.2423 -10.8772 -10.6858  -9.7270  -9.2109  -8.5144  -8.1161
    -7.6881  -7.5784  -7.5637  -7.5329  -7.3423  -7.3413  -7.3207  -7.3100
    -7.3047  -7.2877  -7.2751  -7.2605  -7.2484  -7.2144  -7.1446  -7.1318
    -7.1086  -7.0917  -7.0893  -7.0634  -7.0547  -7.0424  -7.0063  -7.0029
    -6.9868  -6.9762  -6.9567  -6.9139  -6.9119  -6.9019  -6.8864  -6.8833
    -6.8690  -6.8667  -6.8492  -6.8447  -6.8349  -6.8074  -6.8023  -6.7915
    -6.7850  -6.7689  -6.7641  -6.7576  -6.7526  -6.7453  -6.7372  -6.7370
    -6.7293  -6.6970  -6.6854  -6.6337  -6.6328  -6.5937  -6.5770  -6.5623
    -6.5281  -6.5052  -6.4988  -6.4869  -6.4512  -6.4396  -6.4330  -6.4135
    -6.3989  -6.3445  -6.3395  -6.3323  -6.3311  -6.2905  -6.2722  -6.2601
    -6.2496  -6.2029  -6.1564  -6.1461  -6.1363  -6.1349  -6.1185  -6.1004
    -6.0813  -6.0691  -6.0484  -6.0202  -6.0095  -5.9893  -5.9800  -5.9702
    -5.9453  -5.9425  -5.9113  -5.8889  -5.8769  -5.8618  -5.7830  -5.7824
    -5.7711  -5.7250  -5.7123  -5.7038  -5.6964  -5.6807  -5.6754  -5.6630
    -5.6591  -5.6434  -5.6089  -5.5939  -5.5875  -5.5773  -5.5528  -5.5435
    -5.5236  -5.5123  -5.5003  -5.4911  -5.4304  -5.4301  -5.4179  -5.4131
    -5.4090  -5.4031  -5.4009  -5.3714  -5.3672  -5.3668  -5.3607  -5.3302
    -5.3205  -5.2789  -5.2682  -5.2615  -5.2457  -5.2445  -5.2417  -5.2384
    -5.2380  -5.2248  -5.2117  -5.2063  -5.2043  -5.1984  -5.1961  -5.1934
    -5.1838  -5.1814  -5.1785  -5.1728  -5.1637  -5.1497  -5.1458  -5.1402
    -5.1045  -5.0989  -5.0987  -5.0954  -5.0800  -5.0691  -5.0623  -5.0292
    -5.0223  -5.0210  -5.0061  -4.9958  -4.9886  -4.9760  -4.9600  -4.9583
    -4.9506  -4.9308  -4.9281  -4.9215  -4.9000  -4.8950  -4.8918  -4.8494
    -4.8434  -4.8195  -4.7951  -4.7672  -4.7380  -4.7322  -4.7129  -4.6970
    -4.6728  -4.6609  -4.6535  -4.6416  -4.6385  -4.6141  -4.6024  -4.5966
    -4.5575  -4.5472  -4.5442  -4.5268  -4.4643  -4.3115  -4.2838  -4.2412
    -4.2084

          k = 0.2500 0.3536 0.0000 (200411 PWs)   bands (ev):

   -46.3986 -46.3974 -46.3936 -46.3926 -46.3870 -46.3862 -46.3821 -46.3815
   -46.3498 -46.3487 -46.3279 -46.3269 -46.3194 -46.2996 -46.2960 -46.2840
   -45.8668 -45.8642 -45.8609 -45.8589 -45.8544 -45.8532 -45.8487 -45.8479
   -45.8466 -45.8441 -45.8333 -45.8313 -45.8258 -45.8239 -45.8126 -45.8109
   -45.7093 -45.7046 -45.7021 -45.6988 -45.6948 -45.6928 -45.6915 -45.6885
   -45.6873 -45.6853 -45.6829 -45.6801 -45.6751 -45.6723 -45.6675 -45.6628
   -45.4249 -45.4246 -45.4202 -45.4199 -45.4140 -45.4135 -45.4095 -45.4088
   -45.3917 -45.3857 -45.3643 -45.3538 -45.3376 -45.3328 -45.3208 -45.3078
   -28.9369 -28.7058 -27.4384 -27.2393 -24.7934 -24.7619 -24.7449 -24.7390
   -24.7246 -24.7079 -24.6814 -24.6727 -24.6710 -24.6590 -24.6325 -24.6195
   -24.6131 -24.6100 -24.5591 -24.5490 -24.5471 -24.4820 -24.4605 -24.4079
   -24.3757 -24.3277 -24.3185 -24.2820 -24.2797 -24.2636 -24.2559 -24.2345
   -24.2319 -24.2195 -24.1819 -24.1784 -24.1730 -24.1442 -24.1377 -24.0983
   -24.0793 -24.0686 -24.0547 -24.0493 -24.0416 -24.0402 -24.0303 -24.0215
   -24.0156 -24.0006 -23.9926 -23.9755 -23.4762 -23.4423 -23.4369 -23.4150
   -23.4080 -23.3827 -23.3802 -23.3584 -23.3565 -23.3392 -23.3249 -23.3225
   -23.3077 -23.2826 -23.2553 -23.2278 -17.9875 -16.4061 -14.2214 -12.9664
   -11.3152 -11.2423 -10.8774 -10.6857  -9.7270  -9.2107  -8.5153  -8.1169
    -7.6881  -7.5153  -7.4842  -7.4747  -7.3404  -7.3051  -7.2827  -7.2759
    -7.2732  -7.2650  -7.2566  -7.2530  -7.2358  -7.1728  -7.1447  -7.1252
    -7.0957  -7.0860  -7.0805  -7.0785  -7.0673  -7.0498  -7.0478  -7.0166
    -7.0103  -7.0066  -6.9936  -6.9933  -6.9835  -6.9791  -6.9704  -6.9596
    -6.9306  -6.9133  -6.8971  -6.8791  -6.8658  -6.8609  -6.8539  -6.8525
    -6.8432  -6.8415  -6.8003  -6.7697  -6.7653  -6.7489  -6.7271  -6.7087
    -6.7056  -6.6826  -6.6400  -6.6286  -6.6161  -6.5940  -6.5799  -6.5742
    -6.5545  -6.5037  -6.4754  -6.4719  -6.4572  -6.4529  -6.4433  -6.4383
    -6.4006  -6.3588  -6.2944  -6.2833  -6.2556  -6.2477  -6.1985  -6.1878
    -6.1764  -6.1494  -6.1463  -6.1104  -6.0830  -6.0777  -6.0675  -6.0417
    -6.0329  -6.0118  -5.9975  -5.9914  -5.9836  -5.9640  -5.9569  -5.9556
    -5.9243  -5.9218  -5.9123  -5.8719  -5.8691  -5.8267  -5.7885  -5.7632
    -5.7606  -5.7476  -5.7360  -5.7064  -5.6757  -5.6731  -5.6620  -5.6500
    -5.6468  -5.6436  -5.6141  -5.5956  -5.5843  -5.5811  -5.5570  -5.4964
    -5.4836  -5.4795  -5.4781  -5.4763  -5.4702  -5.4642  -5.4589  -5.4470
    -5.4439  -5.4358  -5.4264  -5.4245  -5.4222  -5.4088  -5.3908  -5.3882
    -5.3394  -5.3365  -5.3237  -5.3170  -5.2893  -5.2815  -5.2811  -5.2709
    -5.2634  -5.2541  -5.2366  -5.2261  -5.2170  -5.2122  -5.2013  -5.1935
    -5.1853  -5.1732  -5.1622  -5.1576  -5.1487  -5.1203  -5.1061  -5.1018
    -5.0993  -5.0943  -5.0827  -5.0804  -5.0677  -5.0601  -5.0502  -5.0422
    -5.0126  -5.0115  -5.0047  -4.9950  -4.9933  -4.9904  -4.9847  -4.9736
    -4.9562  -4.9413  -4.9352  -4.9219  -4.9176  -4.8975  -4.8957  -4.8621
    -4.8516  -4.7894  -4.7788  -4.7645  -4.7398  -4.7325  -4.7126  -4.6910
    -4.6726  -4.6604  -4.6548  -4.6485  -4.6414  -4.6056  -4.5970  -4.5954
    -4.5576  -4.5567  -4.5462  -4.5217  -4.4744  -4.3081  -4.2872  -4.2384
    -4.2113

          k = 0.2500-0.7071 0.0000 (200442 PWs)   bands (ev):

   -46.3981 -46.3980 -46.3932 -46.3931 -46.3866 -46.3865 -46.3819 -46.3819
   -46.3495 -46.3490 -46.3276 -46.3272 -46.3194 -46.2996 -46.2960 -46.2841
   -45.8658 -45.8653 -45.8600 -45.8599 -45.8538 -45.8537 -45.8485 -45.8481
   -45.8460 -45.8447 -45.8328 -45.8318 -45.8254 -45.8243 -45.8124 -45.8112
   -45.7078 -45.7069 -45.7008 -45.7005 -45.6940 -45.6936 -45.6899 -45.6880
   -45.6877 -45.6861 -45.6819 -45.6808 -45.6741 -45.6731 -45.6675 -45.6629
   -45.4248 -45.4248 -45.4201 -45.4201 -45.4137 -45.4137 -45.4092 -45.4092
   -45.3917 -45.3858 -45.3643 -45.3538 -45.3376 -45.3328 -45.3208 -45.3078
   -28.9369 -28.7059 -27.4384 -27.2393 -24.7779 -24.7777 -24.7348 -24.7346
   -24.7245 -24.7231 -24.6720 -24.6718 -24.6713 -24.6694 -24.6261 -24.6259
   -24.6125 -24.6106 -24.5551 -24.5530 -24.5172 -24.5161 -24.4562 -24.4551
   -24.3591 -24.3579 -24.2927 -24.2909 -24.2626 -24.2613 -24.2461 -24.2448
   -24.1996 -24.1989 -24.1953 -24.1944 -24.1201 -24.1194 -24.1026 -24.0985
   -24.0945 -24.0873 -24.0654 -24.0632 -24.0601 -24.0539 -24.0256 -24.0235
   -24.0179 -24.0120 -23.9914 -23.9849 -23.4594 -23.4594 -23.4225 -23.4225
   -23.4006 -23.3972 -23.3693 -23.3693 -23.3470 -23.3345 -23.3309 -23.3308
   -23.3012 -23.2893 -23.2518 -23.2314 -17.9875 -16.4061 -14.2213 -12.9663
   -11.3153 -11.2422 -10.8776 -10.6856  -9.7268  -9.2106  -8.5160  -8.1176
    -7.6881  -7.3968  -7.3963  -7.3564  -7.3550  -7.3050  -7.2541  -7.2317
    -7.2310  -7.2012  -7.2008  -7.1993  -7.1977  -7.1788  -7.1777  -7.1218
    -7.1191  -7.0933  -7.0927  -7.0900  -7.0897  -7.0881  -7.0874  -7.0596
    -7.0590  -7.0346  -7.0338  -7.0292  -7.0290  -7.0135  -6.9919  -6.9803
    -6.9768  -6.9755  -6.9533  -6.9519  -6.9376  -6.9368  -6.9299  -6.9294
    -6.9049  -6.9019  -6.8437  -6.7899  -6.7896  -6.7737  -6.7709  -6.7635
    -6.6556  -6.6553  -6.6164  -6.6161  -6.5961  -6.5593  -6.5584  -6.5535
    -6.5501  -6.5061  -6.5057  -6.4407  -6.4406  -6.4229  -6.4219  -6.3849
    -6.3837  -6.2879  -6.2873  -6.2704  -6.2693  -6.1863  -6.1854  -6.1804
    -6.1800  -6.0832  -6.0652  -6.0643  -6.0187  -6.0161  -6.0034  -6.0030
    -5.9902  -5.9898  -5.9537  -5.9533  -5.9409  -5.9401  -5.9028  -5.8976
    -5.8836  -5.8824  -5.8749  -5.8746  -5.8292  -5.8263  -5.7652  -5.7640
    -5.7482  -5.7470  -5.7017  -5.7012  -5.6946  -5.6935  -5.6685  -5.6674
    -5.6339  -5.6335  -5.6262  -5.6227  -5.6205  -5.6201  -5.6139  -5.6134
    -5.5254  -5.5233  -5.4901  -5.4888  -5.4697  -5.4681  -5.4593  -5.4577
    -5.4347  -5.4320  -5.4223  -5.4197  -5.4014  -5.4000  -5.3912  -5.3902
    -5.3525  -5.3508  -5.3472  -5.3470  -5.3369  -5.3326  -5.3175  -5.3153
    -5.2991  -5.2980  -5.2340  -5.2339  -5.2038  -5.2029  -5.1930  -5.1906
    -5.1790  -5.1688  -5.1667  -5.1616  -5.1600  -5.1546  -5.1535  -5.1257
    -5.1257  -5.1005  -5.1004  -5.0657  -5.0653  -5.0384  -5.0361  -5.0241
    -5.0112  -4.9990  -4.9976  -4.9875  -4.9874  -4.9688  -4.9680  -4.9653
    -4.9645  -4.9585  -4.9555  -4.9308  -4.9268  -4.9003  -4.8979  -4.8630
    -4.8606  -4.7732  -4.7730  -4.7564  -4.7563  -4.7215  -4.7152  -4.6815
    -4.6746  -4.6667  -4.6603  -4.6454  -4.6449  -4.5958  -4.5934  -4.5813
    -4.5813  -4.5569  -4.5460  -4.5003  -4.4993  -4.2975  -4.2974  -4.2331
    -4.2161

          k =-0.5000 0.0000 0.0000 (200370 PWs)   bands (ev):

   -46.3975 -46.3962 -46.3958 -46.3945 -46.3848 -46.3839 -46.3835 -46.3826
   -46.3500 -46.3484 -46.3281 -46.3267 -46.3192 -46.2995 -46.2960 -46.2840
   -45.8664 -45.8633 -45.8629 -45.8599 -45.8528 -45.8514 -45.8498 -45.8483
   -45.8469 -45.8436 -45.8340 -45.8312 -45.8257 -45.8233 -45.8128 -45.8108
   -45.7092 -45.7043 -45.7021 -45.6993 -45.6936 -45.6922 -45.6906 -45.6905
   -45.6876 -45.6852 -45.6837 -45.6797 -45.6754 -45.6718 -45.6675 -45.6628
   -45.4236 -45.4231 -45.4226 -45.4221 -45.4119 -45.4111 -45.4109 -45.4100
   -45.3917 -45.3857 -45.3644 -45.3538 -45.3375 -45.3328 -45.3208 -45.3077
   -28.9369 -28.7058 -27.4384 -27.2393 -24.7806 -24.7786 -24.7421 -24.7406
   -24.7356 -24.7060 -24.6970 -24.6650 -24.6501 -24.6488 -24.6402 -24.6390
   -24.5991 -24.5916 -24.5654 -24.5580 -24.5345 -24.5265 -24.3760 -24.3713
   -24.3655 -24.3570 -24.3217 -24.3201 -24.2661 -24.2620 -24.2617 -24.2559
   -24.2543 -24.2478 -24.1779 -24.1753 -24.1595 -24.1587 -24.1563 -24.1396
   -24.0542 -24.0516 -24.0453 -24.0417 -24.0378 -24.0287 -24.0273 -24.0222
   -24.0174 -24.0085 -23.9795 -23.9686 -23.4676 -23.4665 -23.4225 -23.4214
   -23.4177 -23.3739 -23.3732 -23.3602 -23.3590 -23.3336 -23.3324 -23.3267
   -23.2993 -23.2699 -23.2633 -23.2281 -17.9875 -16.4061 -14.2214 -12.9667
   -11.3150 -11.2424 -10.8773 -10.6859  -9.7269  -9.2109  -8.5145  -8.1162
    -7.6880  -7.4917  -7.4826  -7.4658  -7.4616  -7.4104  -7.4007  -7.3051
    -7.2540  -7.2485  -7.2328  -7.2213  -7.2195  -7.1790  -7.1670  -7.1618
    -7.1542  -7.1391  -7.1374  -7.1152  -7.1087  -7.1020  -7.0896  -7.0009
    -6.9821  -6.9788  -6.9759  -6.9690  -6.8468  -6.8434  -6.8418  -6.8372
    -6.8304  -6.8298  -6.8293  -6.8250  -6.8225  -6.8184  -6.8169  -6.8091
    -6.8082  -6.8050  -6.7873  -6.7635  -6.7574  -6.7564  -6.7547  -6.7419
    -6.6605  -6.6574  -6.6506  -6.6456  -6.5949  -6.5930  -6.5812  -6.5626
    -6.5568  -6.5318  -6.5204  -6.5195  -6.5136  -6.5069  -6.4886  -6.3354
    -6.3318  -6.3261  -6.3258  -6.2889  -6.2791  -6.2609  -6.2568  -6.2093
    -6.2031  -6.2027  -6.2003  -6.1533  -6.1451  -6.1000  -6.0954  -6.0946
    -6.0852  -6.0813  -6.0549  -6.0384  -6.0321  -6.0317  -6.0295  -6.0241
    -6.0050  -5.9853  -5.9029  -5.8991  -5.8678  -5.8662  -5.8356  -5.8161
    -5.7268  -5.7267  -5.6878  -5.6872  -5.6468  -5.6421  -5.6366  -5.6324
    -5.6043  -5.5988  -5.5931  -5.5919  -5.5885  -5.5843  -5.5532  -5.5484
    -5.5120  -5.5068  -5.5028  -5.5020  -5.5014  -5.4986  -5.4623  -5.4590
    -5.3418  -5.3371  -5.3362  -5.3319  -5.3306  -5.3269  -5.3257  -5.3249
    -5.3237  -5.3230  -5.3031  -5.3018  -5.2947  -5.2915  -5.2400  -5.2393
    -5.2049  -5.2027  -5.2020  -5.1998  -5.1910  -5.1886  -5.1850  -5.1811
    -5.1773  -5.1769  -5.1723  -5.1644  -5.1607  -5.1555  -5.1476  -5.1373
    -5.1198  -5.0933  -5.0896  -5.0894  -5.0851  -5.0840  -5.0809  -5.0471
    -5.0451  -5.0322  -5.0255  -5.0110  -5.0029  -5.0022  -4.9852  -4.9710
    -4.9699  -4.9601  -4.9597  -4.9480  -4.9309  -4.9047  -4.8964  -4.8718
    -4.8528  -4.8038  -4.7925  -4.7336  -4.7325  -4.7261  -4.6926  -4.6811
    -4.6554  -4.6543  -4.6515  -4.6508  -4.6407  -4.5952  -4.5865  -4.5575
    -4.5433  -4.4332  -4.4323  -4.4266  -4.4259  -4.3688  -4.3622  -4.3553
    -4.3336

          k =-0.5000 0.3536 0.0000 (200424 PWs)   bands (ev):

   -46.3973 -46.3961 -46.3960 -46.3948 -46.3847 -46.3841 -46.3834 -46.3828
   -46.3498 -46.3487 -46.3280 -46.3269 -46.3193 -46.2996 -46.2960 -46.2840
   -45.8659 -45.8634 -45.8629 -45.8604 -45.8526 -45.8516 -45.8496 -45.8486
   -45.8465 -45.8440 -45.8337 -45.8316 -45.8254 -45.8236 -45.8127 -45.8110
   -45.7086 -45.7039 -45.7037 -45.7003 -45.6921 -45.6919 -45.6909 -45.6899
   -45.6882 -45.6852 -45.6832 -45.6801 -45.6749 -45.6722 -45.6675 -45.6629
   -45.4235 -45.4232 -45.4225 -45.4222 -45.4118 -45.4113 -45.4108 -45.4102
   -45.3917 -45.3857 -45.3644 -45.3539 -45.3375 -45.3328 -45.3208 -45.3078
   -28.9369 -28.7058 -27.4384 -27.2393 -24.7750 -24.7731 -24.7478 -24.7463
   -24.7303 -24.7029 -24.7002 -24.6711 -24.6487 -24.6473 -24.6417 -24.6404
   -24.5982 -24.5927 -24.5644 -24.5589 -24.5257 -24.5178 -24.4431 -24.4364
   -24.3186 -24.3171 -24.3059 -24.2992 -24.2884 -24.2878 -24.2654 -24.2578
   -24.2234 -24.2202 -24.1676 -24.1658 -24.1644 -24.1609 -24.1325 -24.1157
   -24.0626 -24.0597 -24.0514 -24.0511 -24.0457 -24.0339 -24.0313 -24.0253
   -24.0235 -24.0098 -23.9864 -23.9753 -23.4611 -23.4600 -23.4292 -23.4280
   -23.4113 -23.3802 -23.3674 -23.3563 -23.3552 -23.3375 -23.3363 -23.3328
   -23.2956 -23.2737 -23.2605 -23.2311 -17.9875 -16.4061 -14.2213 -12.9665
   -11.3152 -11.2423 -10.8774 -10.6857  -9.7268  -9.2107  -8.5154  -8.1170
    -7.6879  -7.4193  -7.4154  -7.4005  -7.3917  -7.3641  -7.3544  -7.3051
    -7.2538  -7.2284  -7.2271  -7.1904  -7.1846  -7.1748  -7.1632  -7.1618
    -7.1569  -7.1216  -7.1208  -7.1201  -7.1127  -7.0481  -7.0378  -7.0317
    -7.0295  -7.0204  -7.0199  -7.0013  -6.9772  -6.9759  -6.9688  -6.9610
    -6.9201  -6.9137  -6.9021  -6.8976  -6.8910  -6.8862  -6.8732  -6.8614
    -6.8494  -6.8427  -6.8334  -6.7701  -6.7655  -6.7504  -6.6979  -6.6942
    -6.6653  -6.6645  -6.6623  -6.6500  -6.6190  -6.6024  -6.5929  -6.5564
    -6.5554  -6.5170  -6.5029  -6.4372  -6.4256  -6.4125  -6.4084  -6.3633
    -6.3592  -6.3054  -6.2989  -6.2472  -6.2459  -6.2215  -6.2205  -6.1340
    -6.1265  -6.1231  -6.1222  -6.0866  -6.0835  -6.0813  -6.0805  -6.0770
    -6.0623  -6.0615  -6.0218  -6.0072  -6.0039  -5.9979  -5.9741  -5.9710
    -5.9504  -5.9344  -5.9325  -5.9306  -5.9277  -5.9275  -5.7660  -5.7618
    -5.7152  -5.7148  -5.7063  -5.7055  -5.7031  -5.7013  -5.6605  -5.6553
    -5.6372  -5.6359  -5.6251  -5.6229  -5.5560  -5.5546  -5.5409  -5.5361
    -5.4707  -5.4658  -5.4593  -5.4587  -5.4474  -5.4395  -5.4269  -5.4236
    -5.4079  -5.4064  -5.3655  -5.3635  -5.3591  -5.3565  -5.3549  -5.3497
    -5.3475  -5.3449  -5.3214  -5.3164  -5.3015  -5.2937  -5.2926  -5.2909
    -5.2627  -5.2610  -5.2478  -5.2422  -5.2249  -5.2232  -5.2209  -5.2188
    -5.1783  -5.1701  -5.1680  -5.1628  -5.1615  -5.1574  -5.1557  -5.0994
    -5.0988  -5.0952  -5.0915  -5.0801  -5.0729  -5.0717  -5.0707  -5.0585
    -5.0573  -5.0458  -5.0379  -5.0273  -5.0151  -4.9840  -4.9816  -4.9759
    -4.9758  -4.9545  -4.9388  -4.9307  -4.9225  -4.8974  -4.8958  -4.8735
    -4.8675  -4.7852  -4.7748  -4.7380  -4.7363  -4.7235  -4.6979  -4.6774
    -4.6603  -4.6570  -4.6553  -4.6544  -4.6417  -4.5939  -4.5858  -4.5562
    -4.5430  -4.4319  -4.4310  -4.4270  -4.4263  -4.3669  -4.3618  -4.3566
    -4.3332

          k =-0.5000-0.7071 0.0000 (200236 PWs)   bands (ev):

   -46.3968 -46.3966 -46.3954 -46.3954 -46.3843 -46.3842 -46.3830 -46.3830
   -46.3494 -46.3490 -46.3277 -46.3271 -46.3192 -46.2995 -46.2959 -46.2839
   -45.8650 -45.8644 -45.8618 -45.8615 -45.8522 -45.8518 -45.8492 -45.8486
   -45.8459 -45.8446 -45.8331 -45.8321 -45.8250 -45.8239 -45.8123 -45.8111
   -45.7073 -45.7062 -45.7025 -45.7022 -45.6914 -45.6913 -45.6907 -45.6890
   -45.6883 -45.6860 -45.6818 -45.6809 -45.6738 -45.6729 -45.6673 -45.6627
   -45.4234 -45.4234 -45.4224 -45.4223 -45.4114 -45.4114 -45.4103 -45.4103
   -45.3917 -45.3857 -45.3643 -45.3538 -45.3375 -45.3327 -45.3207 -45.3077
   -28.9369 -28.7058 -27.4384 -27.2393 -24.7616 -24.7614 -24.7599 -24.7598
   -24.7175 -24.7162 -24.6868 -24.6848 -24.6453 -24.6450 -24.6439 -24.6438
   -24.5965 -24.5946 -24.5626 -24.5605 -24.4971 -24.4957 -24.4895 -24.4886
   -24.3088 -24.3079 -24.3078 -24.3063 -24.2773 -24.2754 -24.2697 -24.2684
   -24.1906 -24.1901 -24.1878 -24.1868 -24.1143 -24.1124 -24.1095 -24.1090
   -24.0917 -24.0808 -24.0719 -24.0671 -24.0448 -24.0426 -24.0419 -24.0417
   -24.0084 -24.0002 -23.9944 -23.9896 -23.4453 -23.4452 -23.4441 -23.4441
   -23.3969 -23.3947 -23.3573 -23.3469 -23.3469 -23.3458 -23.3457 -23.3430
   -23.2895 -23.2799 -23.2568 -23.2348 -17.9875 -16.4061 -14.2212 -12.9662
   -11.3152 -11.2420 -10.8774 -10.6855  -9.7266  -9.2104  -8.5159  -8.1176
    -7.6877  -7.3054  -7.2977  -7.2962  -7.2952  -7.2940  -7.2570  -7.2462
    -7.2456  -7.2336  -7.2315  -7.1552  -7.1537  -7.1485  -7.1467  -7.1380
    -7.1377  -7.1344  -7.1337  -7.1142  -7.1137  -7.1072  -7.1063  -7.0866
    -7.0849  -7.0739  -7.0725  -7.0492  -7.0468  -7.0402  -7.0387  -7.0075
    -6.9937  -6.9935  -6.9895  -6.9891  -6.9683  -6.9681  -6.9476  -6.9364
    -6.8436  -6.7885  -6.7882  -6.7845  -6.7836  -6.7803  -6.7797  -6.7736
    -6.7707  -6.7633  -6.6119  -6.6116  -6.6083  -6.6073  -6.5945  -6.5228
    -6.5226  -6.5081  -6.5027  -6.3405  -6.3403  -6.3382  -6.3377  -6.3125
    -6.3112  -6.3014  -6.3004  -6.1669  -6.1663  -6.1656  -6.1650  -6.1287
    -6.1265  -6.1152  -6.1127  -6.0841  -6.0624  -6.0615  -6.0600  -6.0573
    -6.0290  -6.0282  -6.0209  -6.0205  -5.9856  -5.9846  -5.9801  -5.9797
    -5.8597  -5.8561  -5.8515  -5.8473  -5.7423  -5.7414  -5.7410  -5.7386
    -5.7223  -5.7212  -5.7203  -5.7201  -5.6939  -5.6931  -5.6910  -5.6906
    -5.6598  -5.6587  -5.6565  -5.6558  -5.6539  -5.6525  -5.6463  -5.6444
    -5.4491  -5.4463  -5.4443  -5.4442  -5.4379  -5.4375  -5.4364  -5.4363
    -5.4230  -5.4223  -5.4205  -5.4193  -5.4059  -5.4041  -5.3994  -5.3980
    -5.3701  -5.3666  -5.3627  -5.3603  -5.2702  -5.2691  -5.2679  -5.2677
    -5.2589  -5.2575  -5.2548  -5.2547  -5.2021  -5.2016  -5.1941  -5.1934
    -5.1832  -5.1822  -5.1794  -5.1793  -5.1739  -5.1399  -5.1377  -5.1376
    -5.1353  -5.1171  -5.1153  -5.1014  -5.1009  -5.0606  -5.0606  -5.0606
    -5.0605  -5.0091  -5.0088  -4.9986  -4.9965  -4.9921  -4.9899  -4.9800
    -4.9715  -4.9654  -4.9640  -4.9621  -4.9579  -4.9016  -4.9011  -4.8729
    -4.8686  -4.7513  -4.7512  -4.7490  -4.7489  -4.7177  -4.7105  -4.6707
    -4.6649  -4.6578  -4.6563  -4.6555  -4.6460  -4.5918  -4.5848  -4.5538
    -4.5424  -4.4288  -4.4288  -4.4281  -4.4280  -4.3626  -4.3626  -4.3587
    -4.3326

          k =-0.2500 0.3536 0.0000 (200411 PWs)   bands (ev):

   -46.3986 -46.3974 -46.3936 -46.3926 -46.3870 -46.3862 -46.3821 -46.3815
   -46.3498 -46.3487 -46.3279 -46.3269 -46.3194 -46.2996 -46.2960 -46.2840
   -45.8668 -45.8642 -45.8609 -45.8589 -45.8544 -45.8532 -45.8487 -45.8479
   -45.8466 -45.8441 -45.8333 -45.8313 -45.8258 -45.8239 -45.8126 -45.8109
   -45.7093 -45.7046 -45.7020 -45.6988 -45.6948 -45.6928 -45.6915 -45.6885
   -45.6872 -45.6853 -45.6829 -45.6801 -45.6751 -45.6723 -45.6675 -45.6628
   -45.4249 -45.4246 -45.4202 -45.4199 -45.4140 -45.4135 -45.4095 -45.4088
   -45.3917 -45.3857 -45.3643 -45.3538 -45.3376 -45.3328 -45.3208 -45.3078
   -28.9369 -28.7058 -27.4384 -27.2393 -24.7934 -24.7619 -24.7449 -24.7390
   -24.7246 -24.7079 -24.6814 -24.6727 -24.6710 -24.6590 -24.6325 -24.6195
   -24.6131 -24.6100 -24.5591 -24.5490 -24.5471 -24.4820 -24.4605 -24.4079
   -24.3757 -24.3277 -24.3185 -24.2820 -24.2797 -24.2636 -24.2559 -24.2345
   -24.2319 -24.2195 -24.1819 -24.1784 -24.1730 -24.1442 -24.1377 -24.0983
   -24.0793 -24.0686 -24.0547 -24.0493 -24.0416 -24.0402 -24.0303 -24.0215
   -24.0156 -24.0006 -23.9926 -23.9755 -23.4762 -23.4423 -23.4369 -23.4150
   -23.4080 -23.3827 -23.3802 -23.3584 -23.3565 -23.3392 -23.3249 -23.3225
   -23.3077 -23.2826 -23.2553 -23.2278 -17.9875 -16.4061 -14.2213 -12.9665
   -11.3152 -11.2422 -10.8774 -10.6858  -9.7269  -9.2108  -8.5153  -8.1170
    -7.6881  -7.5153  -7.4842  -7.4747  -7.3404  -7.3051  -7.2826  -7.2759
    -7.2733  -7.2648  -7.2567  -7.2534  -7.2357  -7.1728  -7.1448  -7.1251
    -7.0958  -7.0860  -7.0805  -7.0785  -7.0673  -7.0498  -7.0479  -7.0166
    -7.0102  -7.0065  -6.9936  -6.9932  -6.9836  -6.9790  -6.9705  -6.9596
    -6.9306  -6.9133  -6.8971  -6.8789  -6.8658  -6.8609  -6.8538  -6.8523
    -6.8438  -6.8413  -6.8004  -6.7697  -6.7651  -6.7489  -6.7271  -6.7087
    -6.7056  -6.6826  -6.6401  -6.6286  -6.6162  -6.5942  -6.5797  -6.5741
    -6.5545  -6.5037  -6.4754  -6.4718  -6.4574  -6.4530  -6.4431  -6.4382
    -6.4006  -6.3588  -6.2944  -6.2833  -6.2556  -6.2477  -6.1985  -6.1878
    -6.1765  -6.1494  -6.1463  -6.1104  -6.0838  -6.0773  -6.0675  -6.0417
    -6.0329  -6.0118  -5.9975  -5.9913  -5.9836  -5.9639  -5.9569  -5.9556
    -5.9244  -5.9216  -5.9123  -5.8719  -5.8691  -5.8267  -5.7885  -5.7632
    -5.7605  -5.7476  -5.7360  -5.7064  -5.6758  -5.6730  -5.6620  -5.6499
    -5.6468  -5.6436  -5.6142  -5.5956  -5.5843  -5.5811  -5.5570  -5.4964
    -5.4836  -5.4795  -5.4780  -5.4764  -5.4703  -5.4641  -5.4588  -5.4470
    -5.4439  -5.4358  -5.4265  -5.4244  -5.4221  -5.4089  -5.3908  -5.3881
    -5.3394  -5.3365  -5.3237  -5.3170  -5.2893  -5.2815  -5.2811  -5.2709
    -5.2635  -5.2540  -5.2366  -5.2261  -5.2171  -5.2122  -5.2013  -5.1940
    -5.1852  -5.1727  -5.1622  -5.1576  -5.1486  -5.1202  -5.1065  -5.1018
    -5.0993  -5.0943  -5.0828  -5.0802  -5.0676  -5.0601  -5.0502  -5.0422
    -5.0128  -5.0115  -5.0047  -4.9950  -4.9933  -4.9904  -4.9849  -4.9736
    -4.9563  -4.9409  -4.9352  -4.9220  -4.9181  -4.8975  -4.8949  -4.8621
    -4.8520  -4.7896  -4.7788  -4.7645  -4.7398  -4.7327  -4.7124  -4.6907
    -4.6726  -4.6607  -4.6548  -4.6485  -4.6414  -4.6056  -4.5974  -4.5952
    -4.5577  -4.5567  -4.5462  -4.5214  -4.4746  -4.3081  -4.2872  -4.2384
    -4.2113

     highest occupied level (ev):    -4.1539

!    total energy              =   -4345.71250811 Ry
     estimated scf accuracy    <          9.6E-11 Ry

     The total energy is the sum of the following terms:
     one-electron contribution = -103132.02367113 Ry
     hartree contribution      =   51710.01626462 Ry
     xc contribution           =    -998.21936062 Ry
     ewald contribution        =   48074.51425901 Ry

     convergence has been achieved in   7 iterations

     Forces acting on atoms (cartesian axes, Ry/au):

     atom    1 type  1   force =    -0.00000024    0.00000043    0.00007410
     atom    2 type  1   force =     0.00000834   -0.00000165    0.00022574
     atom    3 type  1   force =     0.00000317   -0.00000336    0.00023107
     atom    4 type  1   force =     0.00000052    0.00000027    0.00007236
     atom    5 type  2   force =    -0.00000532    0.00000074   -0.00034857
     atom    6 type  2   force =     0.00000249    0.00000371   -0.00009505
     atom    7 type  2   force =    -0.00000551    0.00000143   -0.00009960
     atom    8 type  2   force =    -0.00000279    0.00000038   -0.00033019
     atom    9 type  1   force =     0.00001010   -0.00000015    0.00027312
     atom   10 type  1   force =    -0.00000104   -0.00002190    0.00017012
     atom   11 type  1   force =     0.00002059   -0.00002604    0.00019996
     atom   12 type  1   force =    -0.00000581    0.00000032    0.00027501
     atom   13 type  2   force =    -0.00000899   -0.00000099   -0.00011150
     atom   14 type  2   force =    -0.00001970    0.00000439   -0.00003938
     atom   15 type  2   force =     0.00000942    0.00001149   -0.00003342
     atom   16 type  2   force =    -0.00001912    0.00000063   -0.00015424
     atom   17 type  1   force =    -0.00003990    0.00000834    0.00021537
     atom   18 type  1   force =     0.00001819   -0.00011070    0.00009064
     atom   19 type  1   force =    -0.00004277   -0.00017928   -0.00004887
     atom   20 type  1   force =     0.00005006    0.00000800    0.00020933
     atom   21 type  2   force =     0.00008497    0.00007657   -0.00016038
     atom   22 type  2   force =     0.00003110    0.00005852   -0.00024518
     atom   23 type  2   force =    -0.00005419    0.00001508   -0.00025022
     atom   24 type  2   force =    -0.00000329    0.00004343   -0.00029007
     atom   25 type  1   force =     0.00032631    0.00007868    0.00035313
     atom   26 type  1   force =     0.00008573   -0.00011366    0.00062008
     atom   27 type  1   force =     0.00011076    0.00018809   -0.00006786
     atom   28 type  1   force =    -0.00020377    0.00001844    0.00020353
     atom   29 type  2   force =    -0.00006857    0.00003393   -0.00058331
     atom   30 type  2   force =    -0.00042589    0.00015272   -0.00022513
     atom   31 type  2   force =     0.00024631    0.00003296   -0.00011057
     atom   32 type  2   force =    -0.00030121    0.00003131    0.00001347
     atom   33 type  1   force =     0.00000030    0.00000058    0.00007395
     atom   34 type  1   force =     0.00000864    0.00000261    0.00022675
     atom   35 type  1   force =     0.00000361    0.00000428    0.00023138
     atom   36 type  1   force =    -0.00000189    0.00000074    0.00006729
     atom   37 type  2   force =    -0.00000288    0.00000029   -0.00036691
     atom   38 type  2   force =     0.00000255   -0.00000272   -0.00009446
     atom   39 type  2   force =    -0.00000539   -0.00000043   -0.00009963
     atom   40 type  2   force =    -0.00000041    0.00000058   -0.00031521
     atom   41 type  1   force =     0.00001069    0.00000080    0.00023230
     atom   42 type  1   force =     0.00000029    0.00002250    0.00017037
     atom   43 type  1   force =     0.00002210    0.00002473    0.00020507
     atom   44 type  1   force =    -0.00000820    0.00000029    0.00026393
     atom   45 type  2   force =     0.00000874    0.00000282   -0.00005177
     atom   46 type  2   force =    -0.00001935   -0.00000414   -0.00003872
     atom   47 type  2   force =     0.00000957   -0.00001103   -0.00003055
     atom   48 type  2   force =    -0.00000020   -0.00000203   -0.00025879
     atom   49 type  1   force =    -0.00006717    0.00000649    0.00018622
     atom   50 type  1   force =     0.00002986    0.00019477    0.00005643
     atom   51 type  1   force =    -0.00004738    0.00023077   -0.00005856
     atom   52 type  1   force =     0.00006906    0.00000294   -0.00002551
     atom   53 type  2   force =     0.00009567    0.00007540   -0.00019537
     atom   54 type  2   force =     0.00003306   -0.00003417   -0.00023127
     atom   55 type  2   force =    -0.00004769    0.00001094   -0.00024837
     atom   56 type  2   force =     0.00015986    0.00003809   -0.00012033
     atom   57 type  1   force =    -0.00002949    0.00005953    0.00017174
     atom   58 type  1   force =     0.00006284    0.00015047    0.00063363
     atom   59 type  1   force =     0.00009094   -0.00004757   -0.00018711
     atom   60 type  1   force =    -0.00010487    0.00000770    0.00044637
     atom   61 type  2   force =    -0.00007182    0.00005197   -0.00092618
     atom   62 type  2   force =    -0.00042518   -0.00000780   -0.00027059
     atom   63 type  2   force =     0.00025258   -0.00000018   -0.00008487
     atom   64 type  2   force =    -0.00010994   -0.00001643    0.00076462
     atom   65 type  1   force =     0.00000036    0.00000018    0.00006615
     atom   66 type  1   force =    -0.00000876   -0.00000202    0.00022984
     atom   67 type  1   force =    -0.00000274   -0.00000268    0.00022585
     atom   68 type  1   force =    -0.00000063    0.00000034    0.00006801
     atom   69 type  2   force =     0.00000567    0.00000030   -0.00033976
     atom   70 type  2   force =    -0.00000169   -0.00000141   -0.00011121
     atom   71 type  2   force =     0.00000469    0.00000087   -0.00010692
     atom   72 type  2   force =     0.00000244    0.00000065   -0.00036027
     atom   73 type  1   force =    -0.00001102    0.00000007    0.00026707
     atom   74 type  1   force =    -0.00000255   -0.00002712    0.00023547
     atom   75 type  1   force =    -0.00001678   -0.00001448    0.00019765
     atom   76 type  1   force =     0.00000676   -0.00000032    0.00026521
     atom   77 type  2   force =     0.00000912   -0.00000026   -0.00018655
     atom   78 type  2   force =     0.00001600    0.00000312   -0.00004356
     atom   79 type  2   force =    -0.00000574   -0.00000474   -0.00004713
     atom   80 type  2   force =     0.00001918   -0.00000049   -0.00013492
     atom   81 type  1   force =     0.00003624    0.00000601    0.00020879
     atom   82 type  1   force =     0.00000684   -0.00006872    0.00008459
     atom   83 type  1   force =     0.00000331   -0.00009464    0.00026336
     atom   84 type  1   force =    -0.00004788    0.00000844    0.00020454
     atom   85 type  2   force =    -0.00009662    0.00003105   -0.00021190
     atom   86 type  2   force =    -0.00001491   -0.00001445   -0.00018009
     atom   87 type  2   force =     0.00003789    0.00001097   -0.00018749
     atom   88 type  2   force =    -0.00000353    0.00007310   -0.00009443
     atom   89 type  1   force =    -0.00032339    0.00006457    0.00046733
     atom   90 type  1   force =    -0.00011403    0.00016340   -0.00018684
     atom   91 type  1   force =    -0.00019290   -0.00001390    0.00025191
     atom   92 type  1   force =     0.00017967    0.00012082    0.00058481
     atom   93 type  2   force =     0.00011663    0.00002529    0.00034290
     atom   94 type  2   force =     0.00035140    0.00007444   -0.00023263
     atom   95 type  2   force =    -0.00023976    0.00008379   -0.00037826
     atom   96 type  2   force =     0.00022316    0.00002327   -0.00019742
     atom   97 type  1   force =     0.00000054    0.00000083    0.00005628
     atom   98 type  1   force =    -0.00000904    0.00000291    0.00022997
     atom   99 type  1   force =    -0.00000321    0.00000364    0.00022633
     atom  100 type  1   force =     0.00000105    0.00000066    0.00006277
     atom  101 type  2   force =     0.00000309    0.00000064   -0.00033754
     atom  102 type  2   force =    -0.00000175    0.00000241   -0.00011182
     atom  103 type  2   force =     0.00000459    0.00000012   -0.00010674
     atom  104 type  2   force =     0.00000020    0.00000038   -0.00036762
     atom  105 type  1   force =    -0.00000870    0.00000061    0.00023453
     atom  106 type  1   force =    -0.00000436    0.00002593    0.00023253
     atom  107 type  1   force =    -0.00001786    0.00001615    0.00019671
     atom  108 type  1   force =     0.00000611    0.00000101    0.00020835
     atom  109 type  2   force =    -0.00000900   -0.00000085   -0.00023164
     atom  110 type  2   force =     0.00001568   -0.00000273   -0.00004370
     atom  111 type  2   force =    -0.00000592    0.00000489   -0.00005037
     atom  112 type  2   force =     0.00000041    0.00000362   -0.00013936
     atom  113 type  1   force =     0.00004527    0.00000137   -0.00010699
     atom  114 type  1   force =     0.00000315    0.00010232    0.00008397
     atom  115 type  1   force =     0.00000071    0.00017249    0.00021422
     atom  116 type  1   force =    -0.00004263    0.00000247    0.00002935
     atom  117 type  2   force =    -0.00017115    0.00002303   -0.00022413
     atom  118 type  2   force =    -0.00001738    0.00004011   -0.00020112
     atom  119 type  2   force =     0.00003152    0.00001265   -0.00019438
     atom  120 type  2   force =    -0.00008855    0.00006361   -0.00018496
     atom  121 type  1   force =    -0.00022004    0.00005149   -0.00003112
     atom  122 type  1   force =    -0.00007947   -0.00000800   -0.00020150
     atom  123 type  1   force =    -0.00019307    0.00004553    0.00026019
     atom  124 type  1   force =     0.00019861    0.00011072   -0.00039146
     atom  125 type  2   force =     0.00010780    0.00004505    0.00079021
     atom  126 type  2   force =     0.00036379    0.00003197   -0.00028506
     atom  127 type  2   force =    -0.00024910    0.00013838   -0.00047602
     atom  128 type  2   force =     0.00012160    0.00002635   -0.00007269
     atom  129 type  3   force =    -0.00009277   -0.00009980   -0.00007994
     atom  130 type  3   force =    -0.00003243   -0.00041477   -0.00008724
     atom  131 type  4   force =     0.00018977   -0.00014273   -0.00026901
     atom  132 type  4   force =    -0.00000014    0.00003039    0.00015295
     atom  133 type  4   force =     0.00040185    0.00010874   -0.00042000
     atom  134 type  3   force =    -0.00009025   -0.00013892   -0.00001421
     atom  135 type  2   force =    -0.00024511   -0.00066011    0.00059841
     atom  136 type  4   force =     0.00042003    0.00035882    0.00067438
     atom  137 type  3   force =    -0.00027406   -0.00004151   -0.00019935
     atom  138 type  2   force =     0.00013353   -0.00094092   -0.00071033
     atom  139 type  4   force =    -0.00004448   -0.00021132   -0.00051340
     atom  140 type  2   force =     0.00004821   -0.00038373    0.00004037
     atom  141 type  2   force =     0.00009175   -0.00015936    0.00054644
     atom  142 type  4   force =     0.00005634    0.00025507    0.00009031

     Total force =     0.003986     Total SCF correction =     0.000020


     Computing stress (Cartesian axis) and pressure

          total   stress  (Ry/bohr**3)                   (kbar)     P=      -51.75
  -0.00029199   0.00000008  -0.00000013          -42.95        0.01       -0.02
   0.00000008  -0.00042969  -0.00000058            0.01      -63.21       -0.09
  -0.00000013  -0.00000058  -0.00033375           -0.02       -0.09      -49.10

     Energy error            =      2.6E-05 Ry
     Gradient error          =      9.4E-04 Ry/Bohr

     bfgs converged in  11 scf cycles and  10 bfgs steps
     (criteria: energy <  1.0E-04 Ry, force <  1.0E-03 Ry/Bohr)

     End of BFGS Geometry Optimization

     Final energy             =   -4345.7125081128 Ry

     File ./tmp/LiF_PVDF/LiF_PVDF.bfgs deleted, as requested
Begin final coordinates

ATOMIC_POSITIONS (angstrom)
Li              -0.0000112047        0.0000001272       15.2269105752
Li               4.3313508110        2.0417326892       16.3542885215
Li               1.4437980696        2.0417063734       16.3541664945
Li               2.8874483144       -0.0000008846       15.2269287413
F                4.3309856632        0.0000059836       16.4356273357
F                0.0000300726        2.0417169438       15.0829002955
F                2.8873480114        2.0417042804       15.0828229283
F                1.4436502595        0.0000041832       16.4359037944
Li               2.8877346642        8.1668479033       17.9571766858
Li               1.4439862068        2.0416252839       19.3047691945
Li               4.3318786653        2.0418183652       19.3057074535
Li              11.5495385066        8.1668521189       17.9570494204
F                1.4434673198        0.0000125325       19.3299123390
F                2.8870615148        2.0416845559       17.9147398396
F                0.0001511227        2.0417484976       17.9150030307
F                4.3305353649        0.0000284421       19.3284797226
Li              11.5490207442        8.1668451717       20.8025487039
Li               4.3337770052        2.0420688510       22.1539555720
Li               1.4448597749        2.0407780099       22.1480370662
Li               2.8888416457        8.1667949959       20.8030699912
F                4.3294344386        0.0005499708       22.1872094126
F               11.5502710748        2.0420292403       20.7759704936
F                2.8859881872        2.0415987104       20.7752766778
F                1.4424582750        0.0004059385       22.1923127328
Li               2.8921988352        0.0000583739       23.7536072159
Li               1.4441359489        2.0379354439       24.8684283563
Li               4.3366266840        2.0528868176       24.8893896367
Li              11.5472278037        0.0000911114       23.7519538336
F                1.4427424125        0.0006966242       25.0298855077
F                2.8884118964        2.0404968319       23.6699892014
F               -0.0012878305        2.0423881415       23.6703536444
F                4.3295376982        0.0030925847       25.0231514235
Li              -0.0000119279        4.0834317000       15.2269038018
Li               4.3313521596        6.1251278345       16.3542999262
Li               1.4438011238        6.1251541142       16.3541735283
Li               2.8874493799        4.0834326119       15.2269186777
F                4.3309861255        4.0834254795       16.4354741184
F                0.0000302710        6.1251430881       15.0829003292
F                2.8873482041        6.1251556491       15.0828191921
F                1.4436510018        4.0834272095       16.4359667652
Li               2.8878443540        4.0834403175       17.9571239746
Li               1.4440055670        6.1252302016       19.3048154917
Li               4.3318893900        6.1250358317       19.3058033016
Li              11.5495005946        4.0834352313       17.9569982245
F                1.4434905633        4.0834127424       19.3304948802
F                2.8870611078        6.1251749176       17.9147157106
F                0.0001516338        6.1251102092       17.9150027460
F                4.3305581023        4.0833912325       19.3271447673
Li              -0.0009852110        4.0834749364       20.8021121908
Li               4.3338368638        6.1249212785       22.1547332196
Li               1.4451034738        6.1263203480       22.1483000764
Li               2.8895676429        4.0834735444       20.8019913085
F                4.3294686288        4.0832960520       22.1784210939
F               11.5502866842        6.1248910774       20.7760053500
F                2.8860359448        6.1252583553       20.7751558620
F                1.4432049206        4.0834770171       22.1954246442
Li               2.8834258067        4.0852835369       23.7438370391
Li               1.4445513645        6.1294074442       24.8685167269
Li               4.3374020383        6.1182756268       24.8904535086
Li               0.0000445026        4.0836283747       23.7516493283
F                1.4438652335        4.0835682666       25.0385583675
F                2.8871859979        6.1298935141       23.6684802283
F               11.5484977067        6.1248893267       23.6704511511
F                4.3194176433        4.0943493713       24.9880945989
Li               5.7748497533       -0.0000012086       15.2269687260
Li              10.1057446011        2.0417149045       16.3542182267
Li               7.2184591666        2.0417294214       16.3543394144
Li               8.6622277758       -0.0000002231       15.2269501186
F               10.1061098189        0.0000032048       16.4357715539
F                5.7748112668        2.0416878492       15.0826207934
F                8.6623254188        2.0417006158       15.0826983509
F                7.2186070151        8.1668619297       16.4354909850
Li               8.6619406232        8.1668510078       17.9573618293
Li               7.2182478699        2.0417937188       19.3061230571
Li              10.1052399547        2.0417022773       19.3052137297
Li               5.7749767142        8.1668461687       17.9574931118
F                7.2188112020        0.0000178526       19.3277481436
F                8.6625874310        2.0416661563       17.9143169516
F                5.7747137595        2.0416019993       17.9140519564
F               10.1065387849        8.1668658196       19.3291926336
Li               5.7754539045        8.1667682421       20.8042432927
Li              10.1030091652        2.0415231060       22.1512257264
Li               7.2176425293        2.0420073357       22.1568152527
Li               8.6608706926        8.1668257409       20.8037404071
F               10.1079697543        0.0002414873       22.1895383834
F                5.7744904905        2.0409972964       20.7737404344
F                8.6634458818        2.0414636066       20.7743457063
F                7.2193989060        0.0004929021       22.1846264110
Li               8.6584225302        8.1671909868       23.7563185995
Li               7.2171414692        2.0550300377       24.9010312294
Li              10.1010971353        2.0449413494       24.8809877612
Li               5.7762859856        0.0004990944       23.7580557683
F                7.2191288179        0.0018428663       25.0186565672
F                8.6603513597        2.0418974123       23.6712059305
F                5.7760541210        2.0424768750       23.6717712681
F               10.1078177047        0.0006112672       25.0244332761
Li               5.7748488405        4.0834328996       15.2269554513
Li              10.1057437497        6.1251455608       16.3542232494
Li               7.2184556012        6.1251311415       16.3543480828
Li               8.6622281799        4.0834319156       15.2269397525
F               10.1061089617        4.0834281690       16.4357619392
F                5.7748110482        6.1251720680       15.0826151911
F                8.6623251573        6.1251595111       15.0826975978
F                7.2186063579        4.0834264886       16.4353764705
Li               8.6618838389        4.0834369319       17.9573467854
Li               7.2182233515        6.1250594105       19.3061706450
Li              10.1052343133        6.1251570836       19.3052413970
Li               5.7749613762        4.0834425798       17.9574872597
F                7.2187825518        4.0834014490       19.3268782766
F                8.6625877626        6.1251932021       17.9143081300
F                5.7747136158        6.1252581263       17.9140128710
F               10.1065194267        4.0834220532       19.3291259838
Li               5.7753647345        4.0834697040       20.8035058181
Li              10.1029171574        6.1254642914       22.1513599564
Li               7.2174248544        6.1250304033       22.1569436932
Li               8.6605869098        4.0834592084       20.8032786124
F               10.1076646080        4.0834481713       22.1887999319
F                5.7744648291        6.1258191163       20.7734848693
F                8.6634070203        6.1254114113       20.7742798255
F                7.2191403885        4.0834176486       22.1790667939
Li               8.6627590288        4.0844489439       23.7505893413
Li               7.2165960770        6.1166130198       24.8990906604
Li              10.1011280760        6.1228118934       24.8810467535
Li               5.7738162807        4.0858137181       23.7484746062
F                7.2182219164        4.0895463626       24.9950126912
F                8.6613042867        6.1271354923       23.6701478045
F                5.7764404368        6.1294580814       23.6688385896
F               10.1094881130        4.0839301834       25.0195486169
C                3.7960041804        4.0089762302       29.4476745892
C                5.1582004003        4.1929161374       28.8075571665
H                3.0247963369        4.1995341800       28.6928725832
H                3.6878016977        2.9826163562       29.8162489774
H                3.6637558453        4.7080141590       30.2815321439
C                6.3337872740        3.9753346492       29.7652398180
F                5.2668473198        3.3189832815       27.7451926221
H                6.2415795977        2.9621076025       30.1801255832
C                7.7501123522        4.1097431458       29.2180155937
F                5.2234265221        5.4710735392       28.2727741788
H                6.2339158978        4.6826846804       30.6001777807
F                7.9804628392        5.3613647814       28.6996215472
F                8.0043256140        3.1957230307       28.2280960055
H                8.4975683090        3.9443909582       30.0128741237
End final coordinates



     Writing all to output data dir ./tmp/LiF_PVDF/LiF_PVDF.save/ :
     XML data file, charge density, pseudopotentials, collected wavefunctions
 
     init_run     :     17.36s CPU     22.59s WALL (       1 calls)
     electrons    :   3701.16s CPU   3761.93s WALL (      12 calls)
     update_pot   :      2.24s CPU      2.50s WALL (      11 calls)
     forces       :    113.52s CPU    114.71s WALL (      12 calls)
     stress       :    378.38s CPU    382.03s WALL (      12 calls)

     Called by init_run:
     wfcinit      :     14.36s CPU     18.88s WALL (       1 calls)
     potinit      :      0.12s CPU      0.34s WALL (       1 calls)
     hinit0       :      0.23s CPU      0.66s WALL (       1 calls)

     Called by electrons:
     c_bands      :   3433.34s CPU   3482.06s WALL (     107 calls)
     sum_band     :    252.90s CPU    255.90s WALL (     107 calls)
     v_of_rho     :      9.93s CPU     10.71s WALL (     108 calls)
     mix_rho      :      1.72s CPU      1.99s WALL (     107 calls)

     Called by c_bands:
     init_us_2    :    115.32s CPU    116.56s WALL (    2390 calls)
     cegterg      :   3320.41s CPU   3353.94s WALL (    1070 calls)

     Called by *egterg:
     cdiaghg      :    335.06s CPU    341.76s WALL (    4532 calls)
     h_psi        :   2113.62s CPU   2135.76s WALL (    4762 calls)
     g_psi        :      8.01s CPU      8.12s WALL (    3682 calls)

     Called by h_psi:
     h_psi:calbec :    512.81s CPU    516.38s WALL (    4762 calls)
     vloc_psi     :   1096.60s CPU   1109.32s WALL (    4762 calls)
     add_vuspsi   :    487.01s CPU    491.77s WALL (    4762 calls)

     General routines
     calbec       :    899.64s CPU    905.68s WALL (    6802 calls)
     fft          :     10.13s CPU     11.28s WALL (    1582 calls)
     ffts         :      0.43s CPU      0.80s WALL (     215 calls)
     fftw         :    965.24s CPU    975.66s WALL ( 2159292 calls)
     interpolate  :      0.92s CPU      1.12s WALL (     108 calls)
 
     Parallel routines
 
     PWSCF        :      1h11m CPU      1h13m WALL

 
   This run was terminated on:   1:16: 9  22Jul2026            

=------------------------------------------------------------------------------=
   JOB DONE.
=------------------------------------------------------------------------------=
