
     Program PWSCF v.7.5 starts on 22Jul2026 at 15:43:45 

     This program is part of the open-source Quantum ESPRESSO suite
     for quantum simulation of materials; please cite
         "P. Giannozzi et al., J. Phys.:Condens. Matter 21 395502 (2009);
         "P. Giannozzi et al., J. Phys.:Condens. Matter 29 465901 (2017);
         "P. Giannozzi et al., J. Chem. Phys. 152 154105 (2020);
          URL http://www.quantum-espresso.org", 
     in publications or presentations arising from this work. More details at
     http://www.quantum-espresso.org/quote

     Parallel version (MPI), running on    10 processors

     MPI processes distributed on     1 nodes
     107184 MiB available memory on the printing compute node when the environment starts

     Reading input from LiF_PVDF_scf.in

     Current dimensions of program PWSCF are:
     Max number of different atomic species (ntypx) = 10
     Max number of k-points (npk) =  40000
     Max angular momentum in pseudopotentials (lmaxx) =  4

     R & G space division:  proc/nbgrp/npool/nimage =      10
     Subspace diagonalization in iterative solution of the eigenvalue problem:
     one sub-group per band group will be used
     custom distributed-memory algorithm (size of sub-group:  3*  3 procs)


     Parallelization info
     --------------------
     sticks:   dense  smooth     PW     G-vecs:    dense   smooth      PW
     Min        1286     642    170               453338   160226   22029
     Max        1287     643    172               453353   160239   22033
     Sum       12867    6427   1709              4533471  1602351  220309

     Using Slab Decomposition



     bravais-lattice index     =            0
     lattice parameter (alat)  =      21.8257  a.u.
     unit-cell volume          =   25528.7938 (a.u.)^3
     number of atoms/cell      =          142
     number of atomic types    =            4
     number of electrons       =       690.00
     number of Kohn-Sham states=          345
     kinetic-energy cutoff     =      60.0000  Ry
     charge density cutoff     =     480.0000  Ry
     scf convergence threshold =      1.0E-08
     mixing beta               =       0.3000
     number of iterations used =            8  plain     mixing
     Exchange-correlation= PBE
                           (   1   4   3   4   0   0   0)

     celldm(1)=  21.825725  celldm(2)=   0.000000  celldm(3)=   0.000000
     celldm(4)=   0.000000  celldm(5)=   0.000000  celldm(6)=   0.000000

     crystal axes: (cart. coord. in units of alat)
               a(1) = (   1.000000   0.000000   0.000000 )  
               a(2) = (   0.000000   0.707107   0.000000 )  
               a(3) = (   0.000000   0.000000   3.472475 )  

     reciprocal axes: (cart. coord. in units 2 pi/alat)
               b(1) = (  1.000000  0.000000  0.000000 )  
               b(2) = (  0.000000  1.414213  0.000000 )  
               b(3) = (  0.000000  0.000000  0.287979 )  


     PseudoPot. # 1 for Li read from file:
     ./pseudo/Li.upf
     MD5 check sum: dbcf0ea72988e720c8c712b432d51b0d
     Pseudo is Norm-conserving, Zval =  3.0
     Generated using ONCVPSP code by D. R. Hamann
     Using radial grid of 1944 points,  4 beta functions with: 
                l(1) =   0
                l(2) =   0
                l(3) =   1
                l(4) =   1

     PseudoPot. # 2 for F  read from file:
     ./pseudo/F.upf
     MD5 check sum: e79d493a50113cefedcefee2f1adb6e7
     Pseudo is Norm-conserving + core correction, Zval =  7.0
     Generated using ONCVPSP code by D. R. Hamann
     Using radial grid of  832 points,  5 beta functions with: 
                l(1) =   0
                l(2) =   0
                l(3) =   1
                l(4) =   1
                l(5) =   2

     PseudoPot. # 3 for C  read from file:
     ./pseudo/C.upf
     MD5 check sum: 34a24e64c0a39f27c6c36b90a16ac686
     Pseudo is Norm-conserving + core correction, Zval =  4.0
     Generated using ONCVPSP code by D. R. Hamann
     Using radial grid of 1248 points,  4 beta functions with: 
                l(1) =   0
                l(2) =   0
                l(3) =   1
                l(4) =   1

     PseudoPot. # 4 for H  read from file:
     ./pseudo/H.upf
     MD5 check sum: e96aa7e3e4a958db16958554ea960e2a
     Pseudo is Norm-conserving, Zval =  1.0
     Generated using ONCVPSP code by D. R. Hamann
     Using radial grid of 1166 points,  3 beta functions with: 
                l(1) =   0
                l(2) =   0
                l(3) =   1

     atomic species   valence    mass     pseudopotential
     Li                3.00     6.94000     Li( 1.00)
     F                 7.00    18.99840     F ( 1.00)
     C                 4.00    12.01100     C ( 1.00)
     H                 1.00     1.00800     H ( 1.00)

     No symmetry found



   Cartesian axes

     site n.     atom                  positions (alat units)
         1        Li     tau(   1) = (  -0.0000010   0.0000000   1.3183842  )
         2        Li     tau(   2) = (   0.3750192   0.1767783   1.4159954  )
         3        Li     tau(   3) = (   0.1250077   0.1767761   1.4159848  )
         4        Li     tau(   4) = (   0.2500025  -0.0000001   1.3183858  )
         5        F      tau(   5) = (   0.3749876   0.0000005   1.4230379  )
         6        F      tau(   6) = (   0.0000026   0.1767770   1.3059154  )
         7        F      tau(   7) = (   0.2499938   0.1767759   1.3059087  )
         8        F      tau(   8) = (   0.1249949   0.0000004   1.4230619  )
         9        Li     tau(   9) = (   0.2500273   0.7071062   1.5547775  )
        10        Li     tau(  10) = (   0.1250240   0.1767690   1.6714554  )
        11        Li     tau(  11) = (   0.3750649   0.1767858   1.6715367  )
        12        Li     tau(  12) = (   0.9999881   0.7071066   1.5547665  )
        13        F      tau(  13) = (   0.1249790   0.0000011   1.6736324  )
        14        F      tau(  14) = (   0.2499690   0.1767742   1.5511032  )
        15        F      tau(  15) = (   0.0000131   0.1767797   1.5511260  )
        16        F      tau(  16) = (   0.3749486   0.0000025   1.6735084  )
        17        Li     tau(  17) = (   0.9999432   0.7071060   1.8011370  )
        18        Li     tau(  18) = (   0.3752293   0.1768075   1.9181452  )
        19        Li     tau(  19) = (   0.1250996   0.1766957   1.9176327  )
        20        Li     tau(  20) = (   0.2501232   0.7071016   1.8011821  )
        21        F      tau(  21) = (   0.3748533   0.0000476   1.9210244  )
        22        F      tau(  22) = (   1.0000515   0.1768040   1.7988357  )
        23        F      tau(  23) = (   0.2498761   0.1767667   1.7987757  )
        24        F      tau(  24) = (   0.1248917   0.0000351   1.9214662  )
        25        Li     tau(  25) = (   0.2504138   0.0000051   2.0566470  )
        26        Li     tau(  26) = (   0.1250369   0.1764496   2.1531710  )
        27        Li     tau(  27) = (   0.3754760   0.1777441   2.1549859  )
        28        Li     tau(  28) = (   0.9997880   0.0000079   2.0565039  )
        29        F      tau(  29) = (   0.1249163   0.0000603   2.1671504  )
        30        F      tau(  30) = (   0.2500860   0.1766713   2.0494072  )
        31        F      tau(  31) = (  -0.0001115   0.1768351   2.0494387  )
        32        F      tau(  32) = (   0.3748623   0.0002678   2.1665674  )
        33        Li     tau(  33) = (  -0.0000010   0.3535538   1.3183836  )
        34        Li     tau(  34) = (   0.3750194   0.5303290   1.4159964  )
        35        Li     tau(  35) = (   0.1250079   0.5303312   1.4159855  )
        36        Li     tau(  36) = (   0.2500026   0.3535539   1.3183849  )
        37        F      tau(  37) = (   0.3749877   0.3535532   1.4230247  )
        38        F      tau(  38) = (   0.0000026   0.5303303   1.3059154  )
        39        F      tau(  39) = (   0.2499939   0.5303314   1.3059084  )
        40        F      tau(  40) = (   0.1249949   0.3535534   1.4230673  )
        41        Li     tau(  41) = (   0.2500368   0.3535545   1.5547729  )
        42        Li     tau(  42) = (   0.1250256   0.5303378   1.6714595  )
        43        Li     tau(  43) = (   0.3750659   0.5303210   1.6715450  )
        44        Li     tau(  44) = (   0.9999848   0.3535541   1.5547620  )
        45        F      tau(  45) = (   0.1249810   0.3535521   1.6736828  )
        46        F      tau(  46) = (   0.2499690   0.5303330   1.5511011  )
        47        F      tau(  47) = (   0.0000131   0.5303274   1.5511260  )
        48        F      tau(  48) = (   0.3749506   0.3535503   1.6733928  )
        49        Li     tau(  49) = (  -0.0000853   0.3535575   1.8010992  )
        50        Li     tau(  50) = (   0.3752345   0.5303111   1.9182125  )
        51        Li     tau(  51) = (   0.1251207   0.5304322   1.9176555  )
        52        Li     tau(  52) = (   0.2501860   0.3535574   1.8010887  )
        53        F      tau(  53) = (   0.3748563   0.3535420   1.9202634  )
        54        F      tau(  54) = (   1.0000529   0.5303085   1.7988388  )
        55        F      tau(  55) = (   0.2498802   0.5303403   1.7987652  )
        56        F      tau(  56) = (   0.1249563   0.3535577   1.9217357  )
        57        Li     tau(  57) = (   0.2496543   0.3537141   2.0558011  )
        58        Li     tau(  58) = (   0.1250729   0.5306995   2.1531787  )
        59        Li     tau(  59) = (   0.3755432   0.5297357   2.1550780  )
        60        Li     tau(  60) = (   0.0000039   0.3535708   2.0564775  )
        61        F      tau(  61) = (   0.1250135   0.3535656   2.1679013  )
        62        F      tau(  62) = (   0.2499798   0.5307416   2.0492765  )
        63        F      tau(  63) = (   0.9998980   0.5303083   2.0494472  )
        64        F      tau(  64) = (   0.3739860   0.3544991   2.1635320  )
        65        Li     tau(  65) = (   0.5000010  -0.0000001   1.3183892  )
        66        Li     tau(  66) = (   0.8749808   0.1767768   1.4159893  )
        67        Li     tau(  67) = (   0.6249923   0.1767781   1.4159998  )
        68        Li     tau(  68) = (   0.7499975  -0.0000000   1.3183876  )
        69        F      tau(  69) = (   0.8750124   0.0000003   1.4230504  )
        70        F      tau(  70) = (   0.4999977   0.1767745   1.3058912  )
        71        F      tau(  71) = (   0.7500059   0.1767756   1.3058979  )
        72        F      tau(  72) = (   0.6250051   0.7071074   1.4230261  )
        73        Li     tau(  73) = (   0.7499726   0.7071065   1.5547935  )
        74        Li     tau(  74) = (   0.6249740   0.1767836   1.6715727  )
        75        Li     tau(  75) = (   0.8749371   0.1767757   1.6714939  )
        76        Li     tau(  76) = (   0.5000120   0.7071061   1.5548049  )
        77        F      tau(  77) = (   0.6250228   0.0000015   1.6734450  )
        78        F      tau(  78) = (   0.7500286   0.1767726   1.5510666  )
        79        F      tau(  79) = (   0.4999892   0.1767670   1.5510436  )
        80        F      tau(  80) = (   0.8750495   0.7071078   1.6735701  )
        81        Li     tau(  81) = (   0.5000533   0.7070993   1.8012837  )
        82        Li     tau(  82) = (   0.8747439   0.1767602   1.9179088  )
        83        Li     tau(  83) = (   0.6249216   0.1768021   1.9183928  )
        84        Li     tau(  84) = (   0.7498800   0.7071043   1.8012401  )
        85        F      tau(  85) = (   0.8751734   0.0000209   1.9212260  )
        86        F      tau(  86) = (   0.4999699   0.1767147   1.7986427  )
        87        F      tau(  87) = (   0.7501029   0.1767551   1.7986951  )
        88        F      tau(  88) = (   0.6250737   0.0000427   1.9208007  )
        89        Li     tau(  89) = (   0.7496680   0.7071359   2.0568818  )
        90        Li     tau(  90) = (   0.6248783   0.1779297   2.1559939  )
        91        Li     tau(  91) = (   0.8745784   0.1770562   2.1542585  )
        92        Li     tau(  92) = (   0.5001254   0.0000432   2.0570322  )
        93        F      tau(  93) = (   0.6250503   0.0001596   2.1661782  )
        94        F      tau(  94) = (   0.7498350   0.1767926   2.0495125  )
        95        F      tau(  95) = (   0.5001053   0.1768428   2.0495615  )
        96        F      tau(  96) = (   0.8751603   0.0000529   2.1666783  )
        97        Li     tau(  97) = (   0.5000009   0.3535539   1.3183881  )
        98        Li     tau(  98) = (   0.8749807   0.5303305   1.4159898  )
        99        Li     tau(  99) = (   0.6249920   0.5303293   1.4160006  )
       100        Li     tau( 100) = (   0.7499975   0.3535538   1.3183867  )
       101        F      tau( 101) = (   0.8750123   0.3535535   1.4230496  )
       102        F      tau( 102) = (   0.4999977   0.5303328   1.3058907  )
       103        F      tau( 103) = (   0.7500059   0.5303317   1.3058979  )
       104        F      tau( 104) = (   0.6250051   0.3535533   1.4230162  )
       105        Li     tau( 105) = (   0.7499677   0.3535542   1.5547922  )
       106        Li     tau( 106) = (   0.6249719   0.5303230   1.6715768  )
       107        Li     tau( 107) = (   0.8749366   0.5303315   1.6714963  )
       108        Li     tau( 108) = (   0.5000107   0.3535547   1.5548044  )
       109        F      tau( 109) = (   0.6250203   0.3535512   1.6733697  )
       110        F      tau( 110) = (   0.7500286   0.5303346   1.5510658  )
       111        F      tau( 111) = (   0.4999892   0.5303402   1.5510403  )
       112        F      tau( 112) = (   0.8750479   0.3535529   1.6735643  )
       113        Li     tau( 113) = (   0.5000456   0.3535571   1.8012198  )
       114        Li     tau( 114) = (   0.8747360   0.5303581   1.9179204  )
       115        Li     tau( 115) = (   0.6249028   0.5303205   1.9184039  )
       116        Li     tau( 116) = (   0.7498554   0.3535562   1.8012002  )
       117        F      tau( 117) = (   0.8751470   0.3535552   1.9211621  )
       118        F      tau( 118) = (   0.4999677   0.5303888   1.7986205  )
       119        F      tau( 119) = (   0.7500996   0.5303535   1.7986894  )
       120        F      tau( 120) = (   0.6250513   0.3535526   1.9203194  )
       121        Li     tau( 121) = (   0.7500435   0.3536419   2.0563857  )
       122        Li     tau( 122) = (   0.6248310   0.5295917   2.1558259  )
       123        Li     tau( 123) = (   0.8745811   0.5301284   2.1542636  )
       124        Li     tau( 124) = (   0.4999115   0.3537600   2.0562026  )
       125        F      tau( 125) = (   0.6249718   0.3540832   2.1641310  )
       126        F      tau( 126) = (   0.7499175   0.5305028   2.0494209  )
       127        F      tau( 127) = (   0.5001387   0.5307039   2.0493075  )
       128        F      tau( 128) = (   0.8753049   0.3535969   2.1662554  )
       129        C      tau( 129) = (   0.3286676   0.3471072   2.5496537  )
       130        C      tau( 130) = (   0.4466100   0.3630332   2.4942307  )
       131        H      tau( 131) = (   0.2618945   0.3636062   2.4843010  )
       132        H      tau( 132) = (   0.3192991   0.2582424   2.5815658  )
       133        H      tau( 133) = (   0.3172172   0.4076317   2.6218512  )
       134        C      tau( 134) = (   0.5483952   0.3441945   2.5771493  )
       135        F      tau( 135) = (   0.4560169   0.2873659   2.4022485  )
       136        H      tau( 136) = (   0.5404117   0.2564667   2.6130711  )
       137        C      tau( 137) = (   0.6710242   0.3558319   2.5297692  )
       138        F      tau( 138) = (   0.4522574   0.4736993   2.4479279  )
       139        H      tau( 139) = (   0.5397481   0.4054386   2.6494403  )
       140        F      tau( 140) = (   0.6909685   0.4642004   2.4848854  )
       141        F      tau( 141) = (   0.6930346   0.2766937   2.4440595  )
       142        H      tau( 142) = (   0.7357408   0.3415153   2.5985901  )

     number of k points=    10
                       cart. coord. in units 2pi/alat
        k(    1) = (   0.0000000   0.0000000   0.0000000), wk =   0.1250000
        k(    2) = (   0.0000000   0.3535533   0.0000000), wk =   0.2500000
        k(    3) = (   0.0000000  -0.7071066   0.0000000), wk =   0.1250000
        k(    4) = (   0.2500000   0.0000000   0.0000000), wk =   0.2500000
        k(    5) = (   0.2500000   0.3535533   0.0000000), wk =   0.2500000
        k(    6) = (   0.2500000  -0.7071066   0.0000000), wk =   0.2500000
        k(    7) = (  -0.5000000   0.0000000   0.0000000), wk =   0.1250000
        k(    8) = (  -0.5000000   0.3535533   0.0000000), wk =   0.2500000
        k(    9) = (  -0.5000000  -0.7071066   0.0000000), wk =   0.1250000
        k(   10) = (  -0.2500000   0.3535533   0.0000000), wk =   0.2500000

     Dense  grid:  4533471 G-vectors     FFT dimensions: ( 160, 108, 540)

     Smooth grid:  1602351 G-vectors     FFT dimensions: ( 108,  80, 375)

     Estimated max dynamical RAM per process >       2.28 GB

     Estimated total dynamical RAM >      22.80 GB

     Atomic positions and unit cell read from directory:
     ./tmp/LiF_PVDF/LiF_PVDF.save/


     The initial density is read from file :
     ./tmp/LiF_PVDF/LiF_PVDF.save/charge-density

     Starting wfcs from file

     total cpu time spent up to now is       68.5 secs

     Self-consistent Calculation

     iteration #  1     ecut=    60.00 Ry     beta= 0.30
     Davidson diagonalization with overlap
     ethr =  1.00E-05,  avg # of iterations =  1.0

     Threshold (ethr) on eigenvalues was too large:
     Diagonalizing with lowered threshold

     Davidson diagonalization with overlap
     ethr =  1.00E-13,  avg # of iterations =  2.0

     total cpu time spent up to now is     2055.6 secs

     End of self-consistent calculation

          k = 0.0000 0.0000 0.0000 (200173 PWs)   bands (ev):

   -46.3997 -46.3975 -46.3904 -46.3903 -46.3893 -46.3892 -46.3817 -46.3805
   -46.3500 -46.3483 -46.3279 -46.3265 -46.3194 -46.2995 -46.2959 -46.2839
   -45.8681 -45.8639 -45.8582 -45.8575 -45.8561 -45.8553 -45.8484 -45.8472
   -45.8469 -45.8436 -45.8331 -45.8306 -45.8265 -45.8237 -45.8127 -45.8105
   -45.7106 -45.7031 -45.6996 -45.6985 -45.6952 -45.6946 -45.6934 -45.6878
   -45.6861 -45.6851 -45.6830 -45.6796 -45.6761 -45.6718 -45.6672 -45.6627
   -45.4257 -45.4249 -45.4171 -45.4170 -45.4166 -45.4165 -45.4092 -45.4077
   -45.3917 -45.3857 -45.3642 -45.3537 -45.3375 -45.3327 -45.3207 -45.3076
   -28.9369 -28.7058 -27.4384 -27.2393 -24.8070 -24.7601 -24.7515 -24.7114
   -24.7113 -24.7045 -24.6957 -24.6956 -24.6538 -24.6463 -24.6380 -24.6302
   -24.6259 -24.6087 -24.5656 -24.5577 -24.5396 -24.4391 -24.4387 -24.3961
   -24.3838 -24.3193 -24.3190 -24.3073 -24.3064 -24.2858 -24.2408 -24.2286
   -24.2189 -24.2083 -24.2014 -24.1943 -24.1928 -24.1750 -24.1156 -24.1155
   -24.0899 -24.0866 -24.0544 -24.0368 -24.0348 -24.0264 -24.0229 -24.0043
   -24.0012 -23.9960 -23.9928 -23.9724 -23.4887 -23.4398 -23.4247 -23.4139
   -23.4139 -23.3781 -23.3780 -23.3780 -23.3438 -23.3367 -23.3314 -23.3140
   -23.3073 -23.2903 -23.2540 -23.2224 -17.9874 -16.4061 -14.2214 -12.9666
   -11.3150 -11.2423 -10.8772 -10.6857  -9.7269  -9.2109  -8.5143  -8.1160
    -7.6882  -7.6098  -7.5974  -7.5816  -7.3838  -7.3492  -7.3289  -7.3105
    -7.3049  -7.2986  -7.2529  -7.1560  -7.1456  -7.1455  -7.1439  -7.1306
    -7.1296  -7.1291  -7.1286  -7.0144  -7.0132  -7.0069  -6.9889  -6.9842
    -6.9833  -6.9827  -6.9406  -6.9370  -6.9262  -6.9211  -6.9059  -6.9007
    -6.8995  -6.8616  -6.8498  -6.8422  -6.8244  -6.8236  -6.7773  -6.7720
    -6.7717  -6.7638  -6.7545  -6.7530  -6.7507  -6.7489  -6.7378  -6.7125
    -6.7122  -6.7089  -6.6712  -6.6694  -6.5971  -6.5922  -6.5899  -6.5606
    -6.5601  -6.5219  -6.5211  -6.5093  -6.5042  -6.5031  -6.5020  -6.4882
    -6.3903  -6.2910  -6.2648  -6.2637  -6.2626  -6.2411  -6.2298  -6.2194
    -6.2075  -6.2050  -6.2023  -6.2009  -6.1928  -6.1887  -6.1862  -6.1637
    -6.0816  -6.0540  -6.0533  -6.0082  -6.0015  -5.9935  -5.9929  -5.9585
    -5.9102  -5.9074  -5.8353  -5.8125  -5.8041  -5.8037  -5.8003  -5.8001
    -5.7948  -5.7938  -5.7910  -5.7572  -5.7062  -5.7052  -5.7047  -5.6976
    -5.6895  -5.5723  -5.5537  -5.5534  -5.5350  -5.5342  -5.5253  -5.5232
    -5.5200  -5.5089  -5.5068  -5.5053  -5.5049  -5.4932  -5.4920  -5.4898
    -5.4884  -5.4389  -5.4324  -5.4110  -5.4002  -5.3362  -5.2928  -5.2897
    -5.2766  -5.2647  -5.2627  -5.2517  -5.2513  -5.2477  -5.2418  -5.2407
    -5.2367  -5.2352  -5.2195  -5.2141  -5.2099  -5.2094  -5.2038  -5.2027
    -5.1757  -5.1710  -5.1692  -5.1615  -5.1584  -5.1577  -5.1472  -5.1470
    -5.1369  -5.1010  -5.1010  -5.0832  -5.0383  -5.0332  -5.0297  -5.0270
    -5.0152  -5.0056  -4.9978  -4.9977  -4.9791  -4.9425  -4.9320  -4.9242
    -4.9242  -4.9211  -4.9085  -4.8577  -4.8559  -4.8538  -4.8528  -4.8486
    -4.8440  -4.8333  -4.8330  -4.8293  -4.7965  -4.7892  -4.7373  -4.7287
    -4.6867  -4.6838  -4.6660  -4.6652  -4.6367  -4.6141  -4.6131  -4.6131
    -4.6071  -4.5834  -4.5445  -4.5250  -4.5194  -4.2664  -4.2284  -4.1966
    -4.1539

          k = 0.0000 0.3536 0.0000 (200366 PWs)   bands (ev):

   -46.3994 -46.3979 -46.3904 -46.3903 -46.3895 -46.3893 -46.3815 -46.3810
   -46.3498 -46.3486 -46.3278 -46.3268 -46.3195 -46.2996 -46.2960 -46.2840
   -45.8675 -45.8646 -45.8580 -45.8573 -45.8564 -45.8556 -45.8481 -45.8475
   -45.8467 -45.8441 -45.8329 -45.8310 -45.8263 -45.8241 -45.8125 -45.8109
   -45.7098 -45.7050 -45.6991 -45.6981 -45.6961 -45.6955 -45.6916 -45.6876
   -45.6867 -45.6854 -45.6826 -45.6801 -45.6754 -45.6723 -45.6674 -45.6628
   -45.4256 -45.4251 -45.4172 -45.4171 -45.4167 -45.4166 -45.4089 -45.4083
   -45.3917 -45.3857 -45.3643 -45.3538 -45.3376 -45.3328 -45.3208 -45.3077
   -28.9369 -28.7058 -27.4384 -27.2393 -24.8002 -24.7671 -24.7449 -24.7115
   -24.7091 -24.7091 -24.6980 -24.6979 -24.6516 -24.6435 -24.6402 -24.6290
   -24.6271 -24.6118 -24.5560 -24.5553 -24.5423 -24.4675 -24.4322 -24.4318
   -24.3693 -24.3690 -24.3241 -24.2889 -24.2560 -24.2554 -24.2376 -24.2252
   -24.2221 -24.2117 -24.1995 -24.1978 -24.1835 -24.1478 -24.1104 -24.1101
   -24.0727 -24.0711 -24.0689 -24.0525 -24.0492 -24.0422 -24.0232 -24.0094
   -24.0078 -24.0047 -23.9954 -23.9766 -23.4817 -23.4471 -23.4180 -23.4087
   -23.4087 -23.3849 -23.3833 -23.3833 -23.3389 -23.3334 -23.3266 -23.3173
   -23.3123 -23.2953 -23.2514 -23.2251 -17.9875 -16.4061 -14.2214 -12.9664
   -11.3151 -11.2422 -10.8774 -10.6857  -9.7269  -9.2108  -8.5152  -8.1169
    -7.6882  -7.5491  -7.5295  -7.5020  -7.3818  -7.3232  -7.3048  -7.2967
    -7.2849  -7.2843  -7.2528  -7.1540  -7.1469  -7.1380  -7.1249  -7.1246
    -7.1200  -7.1192  -7.0926  -7.0891  -7.0583  -7.0501  -7.0466  -7.0057
    -6.9810  -6.9660  -6.9648  -6.9633  -6.9607  -6.9579  -6.9560  -6.9231
    -6.9220  -6.9074  -6.8985  -6.8980  -6.8918  -6.8561  -6.8441  -6.8306
    -6.8293  -6.7878  -6.7869  -6.7677  -6.7634  -6.7455  -6.7413  -6.7091
    -6.7076  -6.6883  -6.6394  -6.6041  -6.5954  -6.5886  -6.5868  -6.5842
    -6.5831  -6.5240  -6.5227  -6.5166  -6.5162  -6.4951  -6.4442  -6.4404
    -6.4400  -6.4357  -6.2946  -6.2941  -6.2809  -6.2803  -6.2393  -6.1665
    -6.1659  -6.1402  -6.1227  -6.0824  -6.0784  -6.0754  -6.0652  -6.0651
    -6.0374  -6.0316  -6.0257  -5.9760  -5.9493  -5.9296  -5.9293  -5.8875
    -5.8761  -5.8664  -5.8568  -5.8167  -5.8106  -5.8101  -5.7869  -5.7865
    -5.7801  -5.7770  -5.7760  -5.7266  -5.7134  -5.7002  -5.6688  -5.6687
    -5.6554  -5.5638  -5.5635  -5.5630  -5.5625  -5.5539  -5.5508  -5.5472
    -5.5407  -5.5383  -5.5224  -5.5159  -5.5143  -5.4881  -5.4850  -5.4842
    -5.4566  -5.4550  -5.4493  -5.4439  -5.4405  -5.4322  -5.4276  -5.4048
    -5.3890  -5.3882  -5.3387  -5.2663  -5.2619  -5.2578  -5.2451  -5.2447
    -5.2433  -5.2359  -5.2324  -5.2316  -5.1984  -5.1837  -5.1805  -5.1800
    -5.1763  -5.1756  -5.1731  -5.1658  -5.1657  -5.1521  -5.1095  -5.0927
    -5.0772  -5.0769  -5.0748  -5.0739  -5.0462  -5.0291  -5.0290  -5.0270
    -5.0145  -5.0066  -4.9990  -4.9987  -4.9862  -4.9650  -4.9607  -4.9585
    -4.9193  -4.8994  -4.8994  -4.8973  -4.8816  -4.8801  -4.8534  -4.8508
    -4.8500  -4.8304  -4.8236  -4.7815  -4.7781  -4.7729  -4.7459  -4.7226
    -4.6823  -4.6809  -4.6745  -4.6521  -4.6361  -4.6265  -4.6265  -4.6131
    -4.5999  -4.5832  -4.5461  -4.5373  -4.5274  -4.2606  -4.2338  -4.1913
    -4.1588

          k = 0.0000-0.7071 0.0000 (200506 PWs)   bands (ev):

   -46.3987 -46.3987 -46.3900 -46.3899 -46.3899 -46.3898 -46.3813 -46.3813
   -46.3495 -46.3490 -46.3275 -46.3272 -46.3195 -46.2997 -46.2960 -46.2841
   -45.8663 -45.8659 -45.8574 -45.8571 -45.8566 -45.8564 -45.8480 -45.8477
   -45.8461 -45.8448 -45.8325 -45.8315 -45.8258 -45.8247 -45.8123 -45.8111
   -45.7083 -45.7075 -45.6980 -45.6977 -45.6971 -45.6968 -45.6898 -45.6874
   -45.6871 -45.6862 -45.6819 -45.6807 -45.6743 -45.6732 -45.6675 -45.6629
   -45.4254 -45.4254 -45.4170 -45.4170 -45.4169 -45.4169 -45.4086 -45.4086
   -45.3918 -45.3858 -45.3643 -45.3539 -45.3376 -45.3329 -45.3208 -45.3078
   -28.9370 -28.7058 -27.4384 -27.2393 -24.7838 -24.7837 -24.7292 -24.7277
   -24.7037 -24.7036 -24.7035 -24.7034 -24.6470 -24.6449 -24.6373 -24.6356
   -24.6195 -24.6194 -24.5500 -24.5479 -24.5253 -24.5242 -24.4103 -24.4099
   -24.4091 -24.4088 -24.2993 -24.2975 -24.2311 -24.2290 -24.2220 -24.2216
   -24.2176 -24.2165 -24.2136 -24.2128 -24.1230 -24.1225 -24.1028 -24.0925
   -24.0842 -24.0826 -24.0826 -24.0810 -24.0421 -24.0371 -24.0337 -24.0320
   -24.0154 -24.0153 -23.9904 -23.9828 -23.4645 -23.4645 -23.4035 -23.3994
   -23.3961 -23.3961 -23.3961 -23.3961 -23.3300 -23.3254 -23.3254 -23.3216
   -23.3189 -23.3028 -23.2482 -23.2285 -17.9875 -16.4061 -14.2213 -12.9663
   -11.3154 -11.2421 -10.8777 -10.6857  -9.7270  -9.2107  -8.5160  -8.1176
    -7.6882  -7.4356  -7.4352  -7.3962  -7.3951  -7.3051  -7.2568  -7.2516
    -7.2513  -7.2481  -7.2462  -7.2162  -7.2145  -7.1381  -7.1352  -7.0956
    -7.0942  -7.0935  -7.0930  -7.0638  -7.0631  -7.0546  -7.0529  -7.0519
    -7.0513  -7.0499  -7.0491  -7.0478  -7.0477  -7.0167  -7.0002  -6.9827
    -6.9247  -6.9236  -6.9236  -6.9234  -6.8683  -6.8666  -6.8658  -6.8652
    -6.8448  -6.8190  -6.8184  -6.8172  -6.8166  -6.7740  -6.7720  -6.7639
    -6.6282  -6.6276  -6.6275  -6.6274  -6.6243  -6.6242  -6.5962  -6.5678
    -6.5651  -6.5556  -6.5544  -6.5527  -6.5515  -6.3793  -6.3788  -6.3786
    -6.3781  -6.3275  -6.3268  -6.3264  -6.3261  -6.2838  -6.2831  -6.0833
    -6.0539  -6.0529  -6.0325  -6.0318  -6.0052  -6.0046  -6.0042  -6.0036
    -5.9686  -5.9666  -5.9539  -5.9469  -5.9400  -5.9393  -5.9264  -5.9258
    -5.9250  -5.9247  -5.8349  -5.8346  -5.7784  -5.7777  -5.7713  -5.7689
    -5.7642  -5.7622  -5.7619  -5.7594  -5.6512  -5.6507  -5.6462  -5.6449
    -5.6245  -5.6236  -5.5928  -5.5913  -5.5684  -5.5678  -5.5669  -5.5668
    -5.5374  -5.5359  -5.5330  -5.5323  -5.4990  -5.4974  -5.4945  -5.4926
    -5.4925  -5.4924  -5.4478  -5.4478  -5.4472  -5.4448  -5.3888  -5.3878
    -5.3871  -5.3867  -5.3757  -5.3747  -5.3742  -5.3736  -5.2588  -5.2587
    -5.2565  -5.2560  -5.2553  -5.2543  -5.2471  -5.2469  -5.2028  -5.1997
    -5.1730  -5.1607  -5.1583  -5.1518  -5.1498  -5.1064  -5.1062  -5.0869
    -5.0862  -5.0851  -5.0845  -5.0566  -5.0555  -5.0518  -5.0512  -5.0462
    -5.0427  -4.9959  -4.9915  -4.9858  -4.9766  -4.9602  -4.9572  -4.9532
    -4.9508  -4.9051  -4.8977  -4.8834  -4.8804  -4.8564  -4.8561  -4.8558
    -4.8556  -4.7891  -4.7838  -4.7823  -4.7807  -4.7629  -4.7628  -4.7013
    -4.6982  -4.6582  -4.6580  -4.6576  -4.6573  -4.6389  -4.6388  -4.6087
    -4.6015  -4.5781  -4.5602  -4.5459  -4.5342  -4.2477  -4.2477  -4.1843
    -4.1668

          k = 0.2500 0.0000 0.0000 (200254 PWs)   bands (ev):

   -46.3989 -46.3969 -46.3938 -46.3924 -46.3871 -46.3861 -46.3822 -46.3813
   -46.3499 -46.3483 -46.3280 -46.3266 -46.3193 -46.2995 -46.2960 -46.2840
   -45.8674 -45.8635 -45.8613 -45.8584 -45.8546 -45.8529 -45.8488 -45.8476
   -45.8470 -45.8435 -45.8336 -45.8309 -45.8261 -45.8235 -45.8127 -45.8107
   -45.7099 -45.7027 -45.7025 -45.6977 -45.6953 -45.6932 -45.6921 -45.6887
   -45.6869 -45.6851 -45.6834 -45.6797 -45.6757 -45.6718 -45.6674 -45.6628
   -45.4250 -45.4243 -45.4203 -45.4198 -45.4141 -45.4134 -45.4096 -45.4086
   -45.3917 -45.3857 -45.3643 -45.3538 -45.3375 -45.3327 -45.3208 -45.3077
   -28.9369 -28.7058 -27.4384 -27.2393 -24.7999 -24.7552 -24.7492 -24.7450
   -24.7204 -24.7013 -24.6858 -24.6730 -24.6707 -24.6543 -24.6352 -24.6168
   -24.6135 -24.6094 -24.5610 -24.5568 -24.5466 -24.4900 -24.3904 -24.3809
   -24.3782 -24.3486 -24.3361 -24.2894 -24.2787 -24.2775 -24.2637 -24.2467
   -24.2345 -24.2278 -24.1950 -24.1755 -24.1693 -24.1659 -24.1488 -24.1199
   -24.0819 -24.0564 -24.0512 -24.0370 -24.0353 -24.0333 -24.0238 -24.0139
   -24.0058 -24.0040 -23.9841 -23.9702 -23.4831 -23.4428 -23.4352 -23.4216
   -23.4019 -23.3847 -23.3761 -23.3621 -23.3538 -23.3427 -23.3195 -23.3190
   -23.3115 -23.2783 -23.2579 -23.2250 -17.9875 -16.4061 -14.2214 -12.9666
   -11.3150 -11.2423 -10.8772 -10.6858  -9.7270  -9.2109  -8.5144  -8.1161
    -7.6881  -7.5784  -7.5637  -7.5329  -7.3423  -7.3413  -7.3207  -7.3100
    -7.3047  -7.2877  -7.2751  -7.2605  -7.2484  -7.2144  -7.1446  -7.1318
    -7.1086  -7.0917  -7.0893  -7.0634  -7.0547  -7.0424  -7.0063  -7.0029
    -6.9868  -6.9762  -6.9567  -6.9139  -6.9119  -6.9019  -6.8864  -6.8833
    -6.8690  -6.8667  -6.8492  -6.8447  -6.8349  -6.8074  -6.8023  -6.7915
    -6.7850  -6.7689  -6.7641  -6.7576  -6.7526  -6.7453  -6.7372  -6.7370
    -6.7293  -6.6970  -6.6854  -6.6337  -6.6328  -6.5937  -6.5770  -6.5623
    -6.5281  -6.5052  -6.4988  -6.4869  -6.4512  -6.4396  -6.4330  -6.4135
    -6.3990  -6.3445  -6.3395  -6.3323  -6.3311  -6.2905  -6.2722  -6.2601
    -6.2496  -6.2029  -6.1564  -6.1461  -6.1363  -6.1349  -6.1185  -6.1004
    -6.0813  -6.0691  -6.0484  -6.0202  -6.0095  -5.9893  -5.9800  -5.9702
    -5.9453  -5.9425  -5.9113  -5.8889  -5.8769  -5.8618  -5.7830  -5.7824
    -5.7711  -5.7250  -5.7123  -5.7038  -5.6964  -5.6807  -5.6754  -5.6630
    -5.6591  -5.6434  -5.6089  -5.5939  -5.5875  -5.5773  -5.5528  -5.5435
    -5.5236  -5.5123  -5.5003  -5.4911  -5.4304  -5.4301  -5.4179  -5.4131
    -5.4090  -5.4031  -5.4009  -5.3714  -5.3672  -5.3668  -5.3607  -5.3302
    -5.3205  -5.2789  -5.2682  -5.2615  -5.2457  -5.2445  -5.2417  -5.2384
    -5.2380  -5.2248  -5.2117  -5.2063  -5.2043  -5.1984  -5.1961  -5.1934
    -5.1838  -5.1814  -5.1785  -5.1728  -5.1637  -5.1497  -5.1458  -5.1402
    -5.1045  -5.0989  -5.0987  -5.0954  -5.0800  -5.0691  -5.0623  -5.0292
    -5.0223  -5.0210  -5.0061  -4.9958  -4.9886  -4.9759  -4.9600  -4.9583
    -4.9506  -4.9308  -4.9281  -4.9215  -4.9000  -4.8950  -4.8918  -4.8493
    -4.8434  -4.8195  -4.7951  -4.7672  -4.7380  -4.7322  -4.7129  -4.6970
    -4.6728  -4.6609  -4.6535  -4.6416  -4.6385  -4.6141  -4.6024  -4.5966
    -4.5575  -4.5472  -4.5442  -4.5268  -4.4643  -4.3116  -4.2838  -4.2412
    -4.2084

          k = 0.2500 0.3536 0.0000 (200411 PWs)   bands (ev):

   -46.3986 -46.3974 -46.3936 -46.3926 -46.3870 -46.3862 -46.3821 -46.3816
   -46.3498 -46.3487 -46.3278 -46.3269 -46.3194 -46.2996 -46.2960 -46.2840
   -45.8669 -45.8642 -45.8609 -45.8589 -45.8544 -45.8532 -45.8487 -45.8479
   -45.8466 -45.8441 -45.8333 -45.8313 -45.8258 -45.8238 -45.8126 -45.8109
   -45.7093 -45.7046 -45.7021 -45.6988 -45.6948 -45.6928 -45.6915 -45.6885
   -45.6873 -45.6853 -45.6829 -45.6801 -45.6751 -45.6723 -45.6675 -45.6629
   -45.4249 -45.4247 -45.4202 -45.4199 -45.4140 -45.4135 -45.4095 -45.4088
   -45.3917 -45.3857 -45.3643 -45.3538 -45.3376 -45.3328 -45.3208 -45.3077
   -28.9369 -28.7058 -27.4384 -27.2393 -24.7934 -24.7619 -24.7449 -24.7390
   -24.7246 -24.7079 -24.6814 -24.6727 -24.6710 -24.6590 -24.6325 -24.6195
   -24.6131 -24.6100 -24.5591 -24.5490 -24.5471 -24.4820 -24.4605 -24.4079
   -24.3757 -24.3277 -24.3185 -24.2820 -24.2797 -24.2636 -24.2559 -24.2345
   -24.2319 -24.2195 -24.1819 -24.1784 -24.1730 -24.1442 -24.1377 -24.0982
   -24.0793 -24.0686 -24.0547 -24.0493 -24.0416 -24.0402 -24.0303 -24.0215
   -24.0156 -24.0006 -23.9926 -23.9755 -23.4762 -23.4423 -23.4369 -23.4150
   -23.4080 -23.3827 -23.3802 -23.3584 -23.3565 -23.3392 -23.3249 -23.3225
   -23.3077 -23.2826 -23.2552 -23.2278 -17.9875 -16.4061 -14.2214 -12.9664
   -11.3152 -11.2423 -10.8774 -10.6857  -9.7270  -9.2107  -8.5153  -8.1169
    -7.6881  -7.5153  -7.4842  -7.4747  -7.3404  -7.3051  -7.2827  -7.2759
    -7.2732  -7.2650  -7.2566  -7.2530  -7.2358  -7.1728  -7.1447  -7.1252
    -7.0957  -7.0860  -7.0805  -7.0785  -7.0673  -7.0498  -7.0478  -7.0166
    -7.0103  -7.0065  -6.9936  -6.9933  -6.9835  -6.9790  -6.9704  -6.9596
    -6.9306  -6.9133  -6.8971  -6.8791  -6.8658  -6.8609  -6.8539  -6.8525
    -6.8432  -6.8415  -6.8003  -6.7697  -6.7653  -6.7489  -6.7271  -6.7087
    -6.7056  -6.6826  -6.6400  -6.6286  -6.6161  -6.5940  -6.5799  -6.5742
    -6.5545  -6.5037  -6.4754  -6.4719  -6.4572  -6.4529  -6.4433  -6.4383
    -6.4006  -6.3588  -6.2944  -6.2833  -6.2556  -6.2477  -6.1985  -6.1878
    -6.1764  -6.1494  -6.1463  -6.1104  -6.0830  -6.0777  -6.0675  -6.0417
    -6.0329  -6.0118  -5.9975  -5.9914  -5.9836  -5.9640  -5.9569  -5.9556
    -5.9243  -5.9218  -5.9123  -5.8719  -5.8691  -5.8267  -5.7885  -5.7632
    -5.7606  -5.7476  -5.7360  -5.7064  -5.6757  -5.6731  -5.6620  -5.6500
    -5.6468  -5.6436  -5.6141  -5.5956  -5.5843  -5.5811  -5.5570  -5.4964
    -5.4836  -5.4795  -5.4781  -5.4763  -5.4702  -5.4642  -5.4589  -5.4470
    -5.4439  -5.4358  -5.4264  -5.4245  -5.4222  -5.4088  -5.3908  -5.3882
    -5.3394  -5.3365  -5.3237  -5.3170  -5.2893  -5.2815  -5.2811  -5.2709
    -5.2634  -5.2541  -5.2366  -5.2261  -5.2170  -5.2122  -5.2013  -5.1935
    -5.1853  -5.1732  -5.1622  -5.1576  -5.1487  -5.1203  -5.1061  -5.1018
    -5.0993  -5.0943  -5.0827  -5.0804  -5.0677  -5.0601  -5.0502  -5.0422
    -5.0126  -5.0115  -5.0047  -4.9950  -4.9933  -4.9904  -4.9847  -4.9736
    -4.9562  -4.9413  -4.9352  -4.9219  -4.9176  -4.8975  -4.8957  -4.8621
    -4.8516  -4.7894  -4.7788  -4.7645  -4.7398  -4.7325  -4.7126  -4.6910
    -4.6726  -4.6604  -4.6548  -4.6485  -4.6414  -4.6056  -4.5970  -4.5954
    -4.5576  -4.5567  -4.5462  -4.5217  -4.4744  -4.3081  -4.2873  -4.2383
    -4.2113

          k = 0.2500-0.7071 0.0000 (200442 PWs)   bands (ev):

   -46.3981 -46.3980 -46.3932 -46.3931 -46.3866 -46.3865 -46.3819 -46.3819
   -46.3495 -46.3490 -46.3276 -46.3272 -46.3194 -46.2996 -46.2960 -46.2840
   -45.8658 -45.8653 -45.8600 -45.8599 -45.8539 -45.8537 -45.8485 -45.8481
   -45.8460 -45.8447 -45.8328 -45.8318 -45.8254 -45.8243 -45.8124 -45.8112
   -45.7078 -45.7069 -45.7008 -45.7006 -45.6940 -45.6936 -45.6899 -45.6880
   -45.6877 -45.6862 -45.6819 -45.6809 -45.6741 -45.6731 -45.6675 -45.6629
   -45.4248 -45.4248 -45.4201 -45.4201 -45.4137 -45.4137 -45.4092 -45.4092
   -45.3917 -45.3858 -45.3643 -45.3538 -45.3376 -45.3328 -45.3208 -45.3078
   -28.9369 -28.7058 -27.4384 -27.2393 -24.7779 -24.7777 -24.7348 -24.7347
   -24.7245 -24.7231 -24.6720 -24.6718 -24.6713 -24.6694 -24.6261 -24.6259
   -24.6125 -24.6106 -24.5551 -24.5530 -24.5172 -24.5161 -24.4562 -24.4551
   -24.3591 -24.3579 -24.2927 -24.2909 -24.2626 -24.2613 -24.2461 -24.2448
   -24.1996 -24.1989 -24.1953 -24.1944 -24.1201 -24.1194 -24.1026 -24.0985
   -24.0945 -24.0873 -24.0654 -24.0632 -24.0601 -24.0539 -24.0256 -24.0235
   -24.0179 -24.0120 -23.9914 -23.9849 -23.4594 -23.4594 -23.4225 -23.4225
   -23.4006 -23.3972 -23.3693 -23.3693 -23.3470 -23.3344 -23.3309 -23.3309
   -23.3012 -23.2893 -23.2518 -23.2314 -17.9875 -16.4061 -14.2213 -12.9663
   -11.3153 -11.2422 -10.8776 -10.6856  -9.7268  -9.2106  -8.5160  -8.1176
    -7.6881  -7.3968  -7.3963  -7.3564  -7.3550  -7.3050  -7.2541  -7.2317
    -7.2310  -7.2012  -7.2008  -7.1993  -7.1977  -7.1788  -7.1777  -7.1218
    -7.1191  -7.0933  -7.0927  -7.0900  -7.0897  -7.0881  -7.0874  -7.0596
    -7.0590  -7.0346  -7.0338  -7.0292  -7.0290  -7.0135  -6.9919  -6.9803
    -6.9768  -6.9755  -6.9533  -6.9519  -6.9376  -6.9368  -6.9299  -6.9294
    -6.9049  -6.9019  -6.8437  -6.7899  -6.7896  -6.7737  -6.7709  -6.7635
    -6.6556  -6.6553  -6.6164  -6.6161  -6.5961  -6.5593  -6.5584  -6.5535
    -6.5500  -6.5061  -6.5057  -6.4407  -6.4406  -6.4229  -6.4219  -6.3849
    -6.3837  -6.2879  -6.2873  -6.2704  -6.2693  -6.1863  -6.1854  -6.1804
    -6.1800  -6.0832  -6.0652  -6.0643  -6.0187  -6.0161  -6.0034  -6.0030
    -5.9902  -5.9898  -5.9537  -5.9533  -5.9409  -5.9401  -5.9028  -5.8976
    -5.8836  -5.8824  -5.8749  -5.8746  -5.8292  -5.8263  -5.7652  -5.7640
    -5.7482  -5.7470  -5.7017  -5.7012  -5.6946  -5.6934  -5.6685  -5.6674
    -5.6339  -5.6335  -5.6262  -5.6227  -5.6205  -5.6201  -5.6139  -5.6134
    -5.5254  -5.5233  -5.4901  -5.4888  -5.4697  -5.4681  -5.4593  -5.4577
    -5.4347  -5.4320  -5.4223  -5.4197  -5.4014  -5.4000  -5.3912  -5.3902
    -5.3525  -5.3508  -5.3472  -5.3470  -5.3369  -5.3326  -5.3175  -5.3153
    -5.2991  -5.2980  -5.2340  -5.2339  -5.2038  -5.2029  -5.1930  -5.1906
    -5.1790  -5.1688  -5.1667  -5.1616  -5.1600  -5.1546  -5.1535  -5.1257
    -5.1257  -5.1005  -5.1004  -5.0656  -5.0653  -5.0384  -5.0361  -5.0241
    -5.0112  -4.9990  -4.9976  -4.9875  -4.9874  -4.9688  -4.9680  -4.9653
    -4.9645  -4.9585  -4.9555  -4.9307  -4.9268  -4.9003  -4.8979  -4.8629
    -4.8606  -4.7732  -4.7730  -4.7564  -4.7563  -4.7215  -4.7152  -4.6815
    -4.6746  -4.6668  -4.6603  -4.6454  -4.6449  -4.5958  -4.5934  -4.5813
    -4.5813  -4.5569  -4.5460  -4.5002  -4.4993  -4.2975  -4.2974  -4.2330
    -4.2161

          k =-0.5000 0.0000 0.0000 (200370 PWs)   bands (ev):

   -46.3975 -46.3962 -46.3958 -46.3945 -46.3848 -46.3839 -46.3836 -46.3827
   -46.3499 -46.3484 -46.3281 -46.3267 -46.3192 -46.2995 -46.2960 -46.2840
   -45.8664 -45.8633 -45.8629 -45.8599 -45.8528 -45.8514 -45.8498 -45.8483
   -45.8469 -45.8436 -45.8340 -45.8312 -45.8257 -45.8233 -45.8128 -45.8108
   -45.7092 -45.7043 -45.7021 -45.6993 -45.6937 -45.6923 -45.6906 -45.6905
   -45.6876 -45.6852 -45.6837 -45.6797 -45.6754 -45.6718 -45.6675 -45.6628
   -45.4236 -45.4231 -45.4226 -45.4221 -45.4120 -45.4111 -45.4109 -45.4100
   -45.3917 -45.3857 -45.3644 -45.3538 -45.3375 -45.3328 -45.3208 -45.3077
   -28.9369 -28.7058 -27.4384 -27.2393 -24.7806 -24.7786 -24.7421 -24.7406
   -24.7356 -24.7060 -24.6970 -24.6650 -24.6502 -24.6488 -24.6402 -24.6390
   -24.5991 -24.5916 -24.5654 -24.5580 -24.5345 -24.5265 -24.3760 -24.3713
   -24.3655 -24.3570 -24.3217 -24.3201 -24.2661 -24.2620 -24.2617 -24.2559
   -24.2543 -24.2478 -24.1779 -24.1753 -24.1595 -24.1587 -24.1563 -24.1396
   -24.0542 -24.0516 -24.0453 -24.0417 -24.0378 -24.0287 -24.0273 -24.0222
   -24.0174 -24.0085 -23.9795 -23.9686 -23.4676 -23.4665 -23.4225 -23.4214
   -23.4177 -23.3739 -23.3732 -23.3602 -23.3590 -23.3336 -23.3324 -23.3267
   -23.2993 -23.2699 -23.2633 -23.2280 -17.9875 -16.4061 -14.2214 -12.9667
   -11.3150 -11.2424 -10.8773 -10.6859  -9.7269  -9.2109  -8.5145  -8.1162
    -7.6880  -7.4917  -7.4826  -7.4658  -7.4616  -7.4104  -7.4007  -7.3051
    -7.2540  -7.2485  -7.2328  -7.2213  -7.2195  -7.1790  -7.1670  -7.1618
    -7.1542  -7.1391  -7.1374  -7.1152  -7.1087  -7.1020  -7.0896  -7.0009
    -6.9821  -6.9788  -6.9759  -6.9690  -6.8468  -6.8434  -6.8418  -6.8372
    -6.8304  -6.8298  -6.8293  -6.8250  -6.8225  -6.8184  -6.8169  -6.8091
    -6.8082  -6.8050  -6.7873  -6.7635  -6.7574  -6.7564  -6.7547  -6.7419
    -6.6605  -6.6574  -6.6506  -6.6456  -6.5949  -6.5930  -6.5812  -6.5626
    -6.5568  -6.5318  -6.5204  -6.5195  -6.5136  -6.5069  -6.4886  -6.3354
    -6.3318  -6.3261  -6.3258  -6.2889  -6.2791  -6.2609  -6.2568  -6.2093
    -6.2031  -6.2027  -6.2003  -6.1533  -6.1450  -6.1000  -6.0954  -6.0946
    -6.0852  -6.0813  -6.0549  -6.0384  -6.0321  -6.0316  -6.0295  -6.0241
    -6.0050  -5.9853  -5.9029  -5.8991  -5.8678  -5.8662  -5.8356  -5.8161
    -5.7268  -5.7267  -5.6878  -5.6872  -5.6468  -5.6421  -5.6366  -5.6324
    -5.6043  -5.5988  -5.5931  -5.5920  -5.5885  -5.5843  -5.5532  -5.5484
    -5.5120  -5.5068  -5.5028  -5.5020  -5.5014  -5.4986  -5.4623  -5.4590
    -5.3418  -5.3371  -5.3362  -5.3319  -5.3306  -5.3269  -5.3257  -5.3249
    -5.3237  -5.3230  -5.3031  -5.3018  -5.2947  -5.2915  -5.2400  -5.2393
    -5.2049  -5.2027  -5.2020  -5.1999  -5.1910  -5.1886  -5.1850  -5.1811
    -5.1773  -5.1769  -5.1723  -5.1644  -5.1607  -5.1555  -5.1476  -5.1373
    -5.1198  -5.0933  -5.0896  -5.0894  -5.0851  -5.0840  -5.0809  -5.0471
    -5.0452  -5.0322  -5.0255  -5.0110  -5.0029  -5.0022  -4.9852  -4.9710
    -4.9699  -4.9601  -4.9597  -4.9480  -4.9309  -4.9047  -4.8964  -4.8718
    -4.8528  -4.8038  -4.7925  -4.7336  -4.7325  -4.7261  -4.6926  -4.6811
    -4.6554  -4.6543  -4.6515  -4.6508  -4.6406  -4.5952  -4.5865  -4.5575
    -4.5433  -4.4332  -4.4323  -4.4266  -4.4259  -4.3687  -4.3622  -4.3552
    -4.3336

          k =-0.5000 0.3536 0.0000 (200424 PWs)   bands (ev):

   -46.3973 -46.3961 -46.3960 -46.3948 -46.3847 -46.3841 -46.3834 -46.3829
   -46.3498 -46.3486 -46.3279 -46.3269 -46.3192 -46.2996 -46.2960 -46.2840
   -45.8660 -45.8634 -45.8629 -45.8604 -45.8526 -45.8517 -45.8496 -45.8486
   -45.8465 -45.8440 -45.8337 -45.8316 -45.8254 -45.8236 -45.8127 -45.8110
   -45.7086 -45.7039 -45.7037 -45.7003 -45.6921 -45.6920 -45.6909 -45.6899
   -45.6882 -45.6853 -45.6832 -45.6801 -45.6749 -45.6722 -45.6675 -45.6629
   -45.4236 -45.4232 -45.4225 -45.4222 -45.4118 -45.4113 -45.4108 -45.4102
   -45.3917 -45.3857 -45.3644 -45.3539 -45.3375 -45.3328 -45.3208 -45.3078
   -28.9369 -28.7058 -27.4384 -27.2393 -24.7751 -24.7731 -24.7478 -24.7463
   -24.7303 -24.7029 -24.7002 -24.6711 -24.6487 -24.6473 -24.6417 -24.6404
   -24.5982 -24.5927 -24.5644 -24.5589 -24.5257 -24.5178 -24.4431 -24.4364
   -24.3186 -24.3171 -24.3059 -24.2992 -24.2884 -24.2878 -24.2654 -24.2578
   -24.2234 -24.2202 -24.1676 -24.1658 -24.1644 -24.1609 -24.1325 -24.1157
   -24.0626 -24.0597 -24.0514 -24.0511 -24.0457 -24.0339 -24.0313 -24.0253
   -24.0235 -24.0097 -23.9864 -23.9753 -23.4611 -23.4600 -23.4292 -23.4281
   -23.4113 -23.3801 -23.3674 -23.3563 -23.3552 -23.3375 -23.3364 -23.3328
   -23.2956 -23.2737 -23.2605 -23.2311 -17.9875 -16.4061 -14.2213 -12.9665
   -11.3152 -11.2423 -10.8774 -10.6857  -9.7268  -9.2107  -8.5153  -8.1170
    -7.6879  -7.4193  -7.4154  -7.4005  -7.3917  -7.3641  -7.3544  -7.3051
    -7.2538  -7.2284  -7.2271  -7.1904  -7.1846  -7.1748  -7.1632  -7.1618
    -7.1569  -7.1216  -7.1208  -7.1201  -7.1127  -7.0481  -7.0378  -7.0317
    -7.0295  -7.0204  -7.0199  -7.0013  -6.9772  -6.9759  -6.9688  -6.9610
    -6.9201  -6.9137  -6.9021  -6.8976  -6.8910  -6.8862  -6.8732  -6.8614
    -6.8494  -6.8427  -6.8334  -6.7701  -6.7654  -6.7504  -6.6979  -6.6942
    -6.6653  -6.6645  -6.6623  -6.6500  -6.6190  -6.6024  -6.5929  -6.5564
    -6.5554  -6.5170  -6.5029  -6.4372  -6.4256  -6.4125  -6.4084  -6.3633
    -6.3592  -6.3054  -6.2989  -6.2472  -6.2459  -6.2215  -6.2205  -6.1340
    -6.1265  -6.1231  -6.1222  -6.0866  -6.0835  -6.0813  -6.0805  -6.0770
    -6.0623  -6.0615  -6.0218  -6.0072  -6.0039  -5.9979  -5.9741  -5.9710
    -5.9504  -5.9344  -5.9325  -5.9306  -5.9277  -5.9275  -5.7660  -5.7618
    -5.7152  -5.7148  -5.7063  -5.7055  -5.7031  -5.7013  -5.6605  -5.6553
    -5.6372  -5.6359  -5.6251  -5.6229  -5.5560  -5.5546  -5.5409  -5.5361
    -5.4707  -5.4658  -5.4593  -5.4587  -5.4474  -5.4395  -5.4269  -5.4236
    -5.4079  -5.4064  -5.3655  -5.3635  -5.3591  -5.3565  -5.3549  -5.3497
    -5.3475  -5.3449  -5.3214  -5.3164  -5.3015  -5.2937  -5.2926  -5.2909
    -5.2627  -5.2610  -5.2478  -5.2422  -5.2249  -5.2232  -5.2209  -5.2188
    -5.1783  -5.1701  -5.1680  -5.1628  -5.1615  -5.1574  -5.1557  -5.0994
    -5.0988  -5.0952  -5.0915  -5.0801  -5.0729  -5.0717  -5.0707  -5.0585
    -5.0573  -5.0458  -5.0379  -5.0273  -5.0151  -4.9840  -4.9816  -4.9759
    -4.9758  -4.9545  -4.9388  -4.9308  -4.9225  -4.8974  -4.8958  -4.8735
    -4.8675  -4.7852  -4.7748  -4.7380  -4.7363  -4.7235  -4.6978  -4.6774
    -4.6603  -4.6570  -4.6553  -4.6544  -4.6417  -4.5938  -4.5858  -4.5562
    -4.5430  -4.4319  -4.4310  -4.4270  -4.4263  -4.3669  -4.3618  -4.3566
    -4.3331

          k =-0.5000-0.7071 0.0000 (200236 PWs)   bands (ev):

   -46.3968 -46.3966 -46.3954 -46.3954 -46.3843 -46.3842 -46.3830 -46.3830
   -46.3494 -46.3489 -46.3276 -46.3271 -46.3192 -46.2995 -46.2959 -46.2839
   -45.8651 -45.8644 -45.8618 -45.8615 -45.8522 -45.8518 -45.8492 -45.8487
   -45.8459 -45.8446 -45.8331 -45.8321 -45.8250 -45.8239 -45.8123 -45.8111
   -45.7073 -45.7063 -45.7025 -45.7022 -45.6914 -45.6913 -45.6907 -45.6891
   -45.6883 -45.6860 -45.6818 -45.6809 -45.6738 -45.6729 -45.6673 -45.6628
   -45.4234 -45.4234 -45.4224 -45.4223 -45.4114 -45.4114 -45.4104 -45.4103
   -45.3917 -45.3857 -45.3643 -45.3538 -45.3375 -45.3327 -45.3207 -45.3077
   -28.9369 -28.7058 -27.4384 -27.2393 -24.7616 -24.7614 -24.7599 -24.7598
   -24.7175 -24.7162 -24.6868 -24.6847 -24.6453 -24.6450 -24.6439 -24.6438
   -24.5965 -24.5946 -24.5626 -24.5605 -24.4971 -24.4957 -24.4895 -24.4886
   -24.3088 -24.3079 -24.3078 -24.3063 -24.2773 -24.2754 -24.2697 -24.2684
   -24.1906 -24.1901 -24.1878 -24.1868 -24.1143 -24.1124 -24.1095 -24.1090
   -24.0917 -24.0808 -24.0719 -24.0670 -24.0448 -24.0427 -24.0419 -24.0417
   -24.0084 -24.0002 -23.9944 -23.9896 -23.4453 -23.4452 -23.4441 -23.4441
   -23.3969 -23.3947 -23.3573 -23.3469 -23.3469 -23.3458 -23.3457 -23.3430
   -23.2895 -23.2799 -23.2568 -23.2348 -17.9874 -16.4061 -14.2212 -12.9661
   -11.3152 -11.2420 -10.8774 -10.6855  -9.7266  -9.2104  -8.5159  -8.1176
    -7.6877  -7.3054  -7.2977  -7.2962  -7.2952  -7.2940  -7.2570  -7.2462
    -7.2456  -7.2336  -7.2315  -7.1552  -7.1537  -7.1485  -7.1467  -7.1380
    -7.1377  -7.1344  -7.1337  -7.1142  -7.1137  -7.1072  -7.1063  -7.0866
    -7.0849  -7.0739  -7.0725  -7.0492  -7.0468  -7.0402  -7.0387  -7.0074
    -6.9937  -6.9935  -6.9895  -6.9892  -6.9683  -6.9681  -6.9476  -6.9364
    -6.8436  -6.7885  -6.7882  -6.7845  -6.7836  -6.7803  -6.7797  -6.7736
    -6.7707  -6.7633  -6.6119  -6.6116  -6.6083  -6.6073  -6.5945  -6.5228
    -6.5226  -6.5081  -6.5027  -6.3405  -6.3403  -6.3382  -6.3377  -6.3125
    -6.3112  -6.3014  -6.3004  -6.1669  -6.1663  -6.1656  -6.1650  -6.1287
    -6.1265  -6.1152  -6.1127  -6.0841  -6.0624  -6.0615  -6.0600  -6.0573
    -6.0290  -6.0282  -6.0209  -6.0205  -5.9856  -5.9846  -5.9801  -5.9797
    -5.8597  -5.8561  -5.8515  -5.8473  -5.7423  -5.7414  -5.7410  -5.7386
    -5.7223  -5.7212  -5.7203  -5.7201  -5.6939  -5.6931  -5.6910  -5.6906
    -5.6598  -5.6587  -5.6565  -5.6558  -5.6539  -5.6525  -5.6463  -5.6444
    -5.4491  -5.4463  -5.4443  -5.4442  -5.4379  -5.4375  -5.4364  -5.4363
    -5.4230  -5.4223  -5.4205  -5.4193  -5.4059  -5.4041  -5.3994  -5.3980
    -5.3701  -5.3666  -5.3627  -5.3603  -5.2702  -5.2691  -5.2679  -5.2677
    -5.2589  -5.2575  -5.2548  -5.2547  -5.2021  -5.2016  -5.1941  -5.1934
    -5.1832  -5.1822  -5.1794  -5.1793  -5.1739  -5.1399  -5.1377  -5.1376
    -5.1353  -5.1171  -5.1153  -5.1014  -5.1009  -5.0606  -5.0606  -5.0606
    -5.0605  -5.0091  -5.0087  -4.9986  -4.9965  -4.9921  -4.9899  -4.9800
    -4.9715  -4.9654  -4.9640  -4.9621  -4.9579  -4.9016  -4.9010  -4.8729
    -4.8686  -4.7513  -4.7512  -4.7490  -4.7489  -4.7177  -4.7105  -4.6707
    -4.6649  -4.6578  -4.6563  -4.6555  -4.6460  -4.5918  -4.5848  -4.5538
    -4.5424  -4.4288  -4.4288  -4.4281  -4.4280  -4.3626  -4.3626  -4.3587
    -4.3326

          k =-0.2500 0.3536 0.0000 (200411 PWs)   bands (ev):

   -46.3986 -46.3974 -46.3936 -46.3926 -46.3870 -46.3862 -46.3821 -46.3816
   -46.3498 -46.3487 -46.3278 -46.3269 -46.3194 -46.2996 -46.2960 -46.2840
   -45.8669 -45.8642 -45.8609 -45.8589 -45.8544 -45.8532 -45.8487 -45.8479
   -45.8466 -45.8441 -45.8333 -45.8313 -45.8258 -45.8238 -45.8126 -45.8109
   -45.7093 -45.7046 -45.7021 -45.6988 -45.6949 -45.6928 -45.6915 -45.6885
   -45.6873 -45.6853 -45.6829 -45.6801 -45.6751 -45.6723 -45.6675 -45.6629
   -45.4249 -45.4247 -45.4202 -45.4199 -45.4140 -45.4135 -45.4095 -45.4088
   -45.3917 -45.3857 -45.3643 -45.3538 -45.3376 -45.3328 -45.3208 -45.3077
   -28.9369 -28.7058 -27.4384 -27.2393 -24.7934 -24.7619 -24.7449 -24.7390
   -24.7246 -24.7079 -24.6814 -24.6727 -24.6710 -24.6590 -24.6325 -24.6195
   -24.6131 -24.6099 -24.5591 -24.5490 -24.5471 -24.4820 -24.4605 -24.4079
   -24.3757 -24.3277 -24.3185 -24.2820 -24.2797 -24.2636 -24.2559 -24.2345
   -24.2319 -24.2195 -24.1819 -24.1784 -24.1730 -24.1442 -24.1377 -24.0982
   -24.0793 -24.0686 -24.0547 -24.0493 -24.0416 -24.0402 -24.0303 -24.0215
   -24.0156 -24.0006 -23.9926 -23.9755 -23.4762 -23.4423 -23.4369 -23.4150
   -23.4080 -23.3827 -23.3802 -23.3584 -23.3565 -23.3392 -23.3249 -23.3225
   -23.3077 -23.2826 -23.2552 -23.2278 -17.9875 -16.4061 -14.2213 -12.9665
   -11.3152 -11.2422 -10.8774 -10.6858  -9.7269  -9.2107  -8.5153  -8.1170
    -7.6881  -7.5153  -7.4842  -7.4747  -7.3404  -7.3051  -7.2826  -7.2759
    -7.2733  -7.2648  -7.2567  -7.2534  -7.2357  -7.1728  -7.1448  -7.1251
    -7.0958  -7.0860  -7.0805  -7.0785  -7.0673  -7.0498  -7.0479  -7.0166
    -7.0102  -7.0065  -6.9936  -6.9932  -6.9836  -6.9790  -6.9705  -6.9596
    -6.9306  -6.9133  -6.8971  -6.8789  -6.8658  -6.8609  -6.8538  -6.8523
    -6.8438  -6.8413  -6.8004  -6.7697  -6.7651  -6.7489  -6.7271  -6.7087
    -6.7056  -6.6826  -6.6401  -6.6286  -6.6162  -6.5942  -6.5797  -6.5741
    -6.5545  -6.5037  -6.4754  -6.4718  -6.4574  -6.4530  -6.4431  -6.4382
    -6.4006  -6.3588  -6.2944  -6.2833  -6.2556  -6.2477  -6.1985  -6.1878
    -6.1765  -6.1494  -6.1463  -6.1104  -6.0838  -6.0773  -6.0675  -6.0417
    -6.0329  -6.0118  -5.9975  -5.9913  -5.9836  -5.9639  -5.9569  -5.9556
    -5.9244  -5.9216  -5.9123  -5.8719  -5.8691  -5.8267  -5.7885  -5.7632
    -5.7605  -5.7476  -5.7360  -5.7064  -5.6758  -5.6730  -5.6620  -5.6499
    -5.6468  -5.6436  -5.6142  -5.5956  -5.5843  -5.5811  -5.5570  -5.4964
    -5.4836  -5.4795  -5.4780  -5.4764  -5.4703  -5.4641  -5.4588  -5.4470
    -5.4439  -5.4358  -5.4265  -5.4244  -5.4221  -5.4089  -5.3908  -5.3881
    -5.3394  -5.3365  -5.3237  -5.3170  -5.2893  -5.2815  -5.2811  -5.2709
    -5.2635  -5.2540  -5.2366  -5.2261  -5.2171  -5.2122  -5.2013  -5.1940
    -5.1852  -5.1727  -5.1622  -5.1576  -5.1485  -5.1202  -5.1065  -5.1018
    -5.0993  -5.0943  -5.0828  -5.0802  -5.0676  -5.0601  -5.0502  -5.0422
    -5.0128  -5.0115  -5.0047  -4.9950  -4.9933  -4.9903  -4.9849  -4.9736
    -4.9563  -4.9409  -4.9352  -4.9220  -4.9180  -4.8975  -4.8949  -4.8621
    -4.8520  -4.7896  -4.7788  -4.7645  -4.7398  -4.7326  -4.7124  -4.6907
    -4.6726  -4.6606  -4.6548  -4.6486  -4.6414  -4.6056  -4.5974  -4.5952
    -4.5577  -4.5567  -4.5462  -4.5214  -4.4746  -4.3081  -4.2873  -4.2383
    -4.2113

     highest occupied level (ev):    -4.1539

!    total energy              =   -4345.71255848 Ry
     estimated scf accuracy    <          1.5E-11 Ry

     The total energy is the sum of the following terms:
     one-electron contribution = -103132.02366203 Ry
     hartree contribution      =   51710.01618719 Ry
     xc contribution           =    -998.21934264 Ry
     ewald contribution        =   48074.51425900 Ry

     convergence has been achieved in   1 iterations

     Forces acting on atoms (cartesian axes, Ry/au):

     atom    1 type  1   force =    -0.00000024    0.00000041    0.00007423
     atom    2 type  1   force =     0.00000835   -0.00000168    0.00022592
     atom    3 type  1   force =     0.00000318   -0.00000338    0.00023125
     atom    4 type  1   force =     0.00000053    0.00000025    0.00007248
     atom    5 type  2   force =    -0.00000536    0.00000073   -0.00034869
     atom    6 type  2   force =     0.00000252    0.00000372   -0.00009517
     atom    7 type  2   force =    -0.00000554    0.00000142   -0.00009977
     atom    8 type  2   force =    -0.00000281    0.00000037   -0.00033031
     atom    9 type  1   force =     0.00001013   -0.00000018    0.00027327
     atom   10 type  1   force =    -0.00000103   -0.00002191    0.00017032
     atom   11 type  1   force =     0.00002061   -0.00002608    0.00020010
     atom   12 type  1   force =    -0.00000582    0.00000030    0.00027516
     atom   13 type  2   force =    -0.00000903   -0.00000100   -0.00011164
     atom   14 type  2   force =    -0.00001986    0.00000437   -0.00003963
     atom   15 type  2   force =     0.00000947    0.00001155   -0.00003355
     atom   16 type  2   force =    -0.00001918    0.00000065   -0.00015446
     atom   17 type  1   force =    -0.00003989    0.00000833    0.00021548
     atom   18 type  1   force =     0.00001818   -0.00011072    0.00009079
     atom   19 type  1   force =    -0.00004276   -0.00017931   -0.00004869
     atom   20 type  1   force =     0.00005008    0.00000800    0.00020942
     atom   21 type  2   force =     0.00008521    0.00007683   -0.00016064
     atom   22 type  2   force =     0.00003126    0.00005881   -0.00024554
     atom   23 type  2   force =    -0.00005461    0.00001507   -0.00025061
     atom   24 type  2   force =    -0.00000344    0.00004352   -0.00028974
     atom   25 type  1   force =     0.00032630    0.00007864    0.00035328
     atom   26 type  1   force =     0.00008573   -0.00011368    0.00062016
     atom   27 type  1   force =     0.00011078    0.00018807   -0.00006777
     atom   28 type  1   force =    -0.00020377    0.00001841    0.00020370
     atom   29 type  2   force =    -0.00006854    0.00003407   -0.00058366
     atom   30 type  2   force =    -0.00042554    0.00015261   -0.00022558
     atom   31 type  2   force =     0.00024600    0.00003302   -0.00011101
     atom   32 type  2   force =    -0.00030109    0.00003147    0.00001400
     atom   33 type  1   force =     0.00000030    0.00000056    0.00007407
     atom   34 type  1   force =     0.00000866    0.00000259    0.00022693
     atom   35 type  1   force =     0.00000361    0.00000426    0.00023157
     atom   36 type  1   force =    -0.00000188    0.00000072    0.00006741
     atom   37 type  2   force =    -0.00000294    0.00000027   -0.00036700
     atom   38 type  2   force =     0.00000258   -0.00000276   -0.00009459
     atom   39 type  2   force =    -0.00000543   -0.00000046   -0.00009980
     atom   40 type  2   force =    -0.00000047    0.00000056   -0.00031535
     atom   41 type  1   force =     0.00001075    0.00000078    0.00023246
     atom   42 type  1   force =     0.00000031    0.00002247    0.00017058
     atom   43 type  1   force =     0.00002213    0.00002472    0.00020522
     atom   44 type  1   force =    -0.00000822    0.00000028    0.00026408
     atom   45 type  2   force =     0.00000865    0.00000279   -0.00005148
     atom   46 type  2   force =    -0.00001951   -0.00000416   -0.00003899
     atom   47 type  2   force =     0.00000962   -0.00001112   -0.00003070
     atom   48 type  2   force =    -0.00000034   -0.00000209   -0.00025923
     atom   49 type  1   force =    -0.00006722    0.00000647    0.00018633
     atom   50 type  1   force =     0.00002989    0.00019478    0.00005664
     atom   51 type  1   force =    -0.00004734    0.00023075   -0.00005834
     atom   52 type  1   force =     0.00006918    0.00000292   -0.00002535
     atom   53 type  2   force =     0.00009580    0.00007534   -0.00019626
     atom   54 type  2   force =     0.00003318   -0.00003443   -0.00023173
     atom   55 type  2   force =    -0.00004818    0.00001091   -0.00024881
     atom   56 type  2   force =     0.00015995    0.00003808   -0.00011979
     atom   57 type  1   force =    -0.00002953    0.00005951    0.00017184
     atom   58 type  1   force =     0.00006286    0.00015046    0.00063370
     atom   59 type  1   force =     0.00009098   -0.00004770   -0.00018696
     atom   60 type  1   force =    -0.00010486    0.00000768    0.00044652
     atom   61 type  2   force =    -0.00007186    0.00005204   -0.00092612
     atom   62 type  2   force =    -0.00042511   -0.00000744   -0.00027101
     atom   63 type  2   force =     0.00025228   -0.00000024   -0.00008526
     atom   64 type  2   force =    -0.00010990   -0.00001612    0.00076423
     atom   65 type  1   force =     0.00000037    0.00000016    0.00006627
     atom   66 type  1   force =    -0.00000876   -0.00000204    0.00023003
     atom   67 type  1   force =    -0.00000273   -0.00000271    0.00022604
     atom   68 type  1   force =    -0.00000063    0.00000032    0.00006814
     atom   69 type  2   force =     0.00000570    0.00000029   -0.00033986
     atom   70 type  2   force =    -0.00000169   -0.00000143   -0.00011145
     atom   71 type  2   force =     0.00000473    0.00000086   -0.00010712
     atom   72 type  2   force =     0.00000248    0.00000064   -0.00036036
     atom   73 type  1   force =    -0.00001103    0.00000005    0.00026724
     atom   74 type  1   force =    -0.00000255   -0.00002716    0.00023563
     atom   75 type  1   force =    -0.00001679   -0.00001448    0.00019783
     atom   76 type  1   force =     0.00000678   -0.00000034    0.00026539
     atom   77 type  2   force =     0.00000920   -0.00000025   -0.00018679
     atom   78 type  2   force =     0.00001613    0.00000309   -0.00004384
     atom   79 type  2   force =    -0.00000573   -0.00000483   -0.00004746
     atom   80 type  2   force =     0.00001918   -0.00000050   -0.00013508
     atom   81 type  1   force =     0.00003627    0.00000602    0.00020896
     atom   82 type  1   force =     0.00000686   -0.00006873    0.00008474
     atom   83 type  1   force =     0.00000335   -0.00009467    0.00026351
     atom   84 type  1   force =    -0.00004791    0.00000844    0.00020470
     atom   85 type  2   force =    -0.00009675    0.00003115   -0.00021200
     atom   86 type  2   force =    -0.00001493   -0.00001477   -0.00018039
     atom   87 type  2   force =     0.00003820    0.00001084   -0.00018779
     atom   88 type  2   force =    -0.00000345    0.00007326   -0.00009498
     atom   89 type  1   force =    -0.00032333    0.00006451    0.00046750
     atom   90 type  1   force =    -0.00011402    0.00016343   -0.00018670
     atom   91 type  1   force =    -0.00019295   -0.00001391    0.00025206
     atom   92 type  1   force =     0.00017967    0.00012071    0.00058497
     atom   93 type  2   force =     0.00011661    0.00002544    0.00034372
     atom   94 type  2   force =     0.00035098    0.00007438   -0.00023264
     atom   95 type  2   force =    -0.00023963    0.00008379   -0.00037815
     atom   96 type  2   force =     0.00022301    0.00002334   -0.00019738
     atom   97 type  1   force =     0.00000055    0.00000081    0.00005640
     atom   98 type  1   force =    -0.00000904    0.00000289    0.00023015
     atom   99 type  1   force =    -0.00000320    0.00000362    0.00022652
     atom  100 type  1   force =     0.00000104    0.00000065    0.00006290
     atom  101 type  2   force =     0.00000317    0.00000062   -0.00033761
     atom  102 type  2   force =    -0.00000176    0.00000240   -0.00011207
     atom  103 type  2   force =     0.00000463    0.00000010   -0.00010694
     atom  104 type  2   force =     0.00000027    0.00000036   -0.00036770
     atom  105 type  1   force =    -0.00000874    0.00000059    0.00023470
     atom  106 type  1   force =    -0.00000437    0.00002593    0.00023270
     atom  107 type  1   force =    -0.00001788    0.00001611    0.00019690
     atom  108 type  1   force =     0.00000611    0.00000098    0.00020853
     atom  109 type  2   force =    -0.00000888   -0.00000090   -0.00023206
     atom  110 type  2   force =     0.00001581   -0.00000273   -0.00004400
     atom  111 type  2   force =    -0.00000592    0.00000494   -0.00005072
     atom  112 type  2   force =     0.00000062    0.00000358   -0.00013939
     atom  113 type  1   force =     0.00004528    0.00000135   -0.00010669
     atom  114 type  1   force =     0.00000314    0.00010229    0.00008415
     atom  115 type  1   force =     0.00000068    0.00017250    0.00021445
     atom  116 type  1   force =    -0.00004269    0.00000244    0.00002961
     atom  117 type  2   force =    -0.00017135    0.00002298   -0.00022462
     atom  118 type  2   force =    -0.00001737    0.00004042   -0.00020154
     atom  119 type  2   force =     0.00003185    0.00001275   -0.00019471
     atom  120 type  2   force =    -0.00008861    0.00006355   -0.00018592
     atom  121 type  1   force =    -0.00021998    0.00005145   -0.00003094
     atom  122 type  1   force =    -0.00007948   -0.00000810   -0.00020135
     atom  123 type  1   force =    -0.00019313    0.00004548    0.00026032
     atom  124 type  1   force =     0.00019862    0.00011066   -0.00039123
     atom  125 type  2   force =     0.00010773    0.00004519    0.00079031
     atom  126 type  2   force =     0.00036370    0.00003235   -0.00028524
     atom  127 type  2   force =    -0.00024891    0.00013894   -0.00047617
     atom  128 type  2   force =     0.00012147    0.00002636   -0.00007266
     atom  129 type  3   force =    -0.00009258   -0.00009902   -0.00007973
     atom  130 type  3   force =    -0.00003224   -0.00041521   -0.00008706
     atom  131 type  4   force =     0.00018991   -0.00014270   -0.00026892
     atom  132 type  4   force =    -0.00000025    0.00003028    0.00015311
     atom  133 type  4   force =     0.00040196    0.00010858   -0.00042036
     atom  134 type  3   force =    -0.00009053   -0.00013825   -0.00001399
     atom  135 type  2   force =    -0.00024505   -0.00066071    0.00059941
     atom  136 type  4   force =     0.00042005    0.00035869    0.00067473
     atom  137 type  3   force =    -0.00027418   -0.00004146   -0.00019913
     atom  138 type  2   force =     0.00013360   -0.00094118   -0.00071107
     atom  139 type  4   force =    -0.00004451   -0.00021126   -0.00051324
     atom  140 type  2   force =     0.00004823   -0.00038434    0.00004017
     atom  141 type  2   force =     0.00009172   -0.00015929    0.00054719
     atom  142 type  4   force =     0.00005607    0.00025530    0.00009014

     Total force =     0.003988     Total SCF correction =     0.000016


     Computing stress (Cartesian axis) and pressure

          total   stress  (Ry/bohr**3)                   (kbar)     P=      -51.75
  -0.00029199   0.00000008  -0.00000013          -42.95        0.01       -0.02
   0.00000008  -0.00042969  -0.00000058            0.01      -63.21       -0.09
  -0.00000013  -0.00000058  -0.00033375           -0.02       -0.09      -49.10


     Writing all to output data dir ./tmp/LiF_PVDF/LiF_PVDF.save/ :
     XML data file, charge density, pseudopotentials, collected wavefunctions

     init_run     :     51.15s CPU     68.29s WALL (       1 calls)
     electrons    :   1830.80s CPU   1988.13s WALL (       1 calls)
     forces       :    283.43s CPU    161.19s WALL (       1 calls)
     stress       :    863.13s CPU    463.12s WALL (       1 calls)

     Called by init_run:
     wfcinit      :     39.02s CPU     53.54s WALL (       1 calls)
     potinit      :      2.79s CPU      3.78s WALL (       1 calls)
     hinit0       :      4.91s CPU      6.34s WALL (       1 calls)

     Called by electrons:
     c_bands      :   1697.45s CPU   1823.31s WALL (       2 calls)
     sum_band     :    130.84s CPU    160.56s WALL (       2 calls)
     v_of_rho     :      3.65s CPU      5.27s WALL (       2 calls)
     mix_rho      :      0.03s CPU      0.05s WALL (       2 calls)

     Called by c_bands:
     init_us_2    :     19.31s CPU     25.08s WALL (      60 calls)
     cegterg      :   1658.13s CPU   1774.52s WALL (      20 calls)

     Called by *egterg:
     cdiaghg      :    247.11s CPU    404.11s WALL (      30 calls)
     h_psi        :    949.16s CPU    773.87s WALL (      50 calls)
     g_psi        :      1.68s CPU      1.95s WALL (      30 calls)

     Called by h_psi:
     h_psi:calbec :    253.81s CPU    135.36s WALL (      50 calls)
     vloc_psi     :    436.39s CPU    524.91s WALL (      50 calls)
                                        0.00s GPU  (      50 calls)
     add_vuspsi   :    257.15s CPU    107.48s WALL (      50 calls)

     General routines
     calbec       :   1305.78s CPU    637.81s WALL (     220 calls)
     fft          :      6.90s CPU      9.02s WALL (      47 calls)
     ffts         :      0.62s CPU      0.75s WALL (       4 calls)
     fftw         :    492.72s CPU    597.36s WALL (   34570 calls)
     interpolate  :      0.74s CPU      0.94s WALL (       2 calls)

     Parallel routines

     PWSCF        :  51m 0.17s CPU  45m50.00s WALL


   This run was terminated on:  16:29:35  22Jul2026            

=------------------------------------------------------------------------------=
   JOB DONE.
=------------------------------------------------------------------------------=
