
     Program PWSCF v.7.4 starts on 30Aug2026 at 11: 3:30 

     This program is part of the open-source Quantum ESPRESSO suite
     for quantum simulation of materials; please cite
         "P. Giannozzi et al., J. Phys.:Condens. Matter 21 395502 (2009);
         "P. Giannozzi et al., J. Phys.:Condens. Matter 29 465901 (2017);
         "P. Giannozzi et al., J. Chem. Phys. 152 154105 (2020);
          URL http://www.quantum-espresso.org", 
     in publications or presentations arising from this work. More details at
     http://www.quantum-espresso.org/quote

     Parallel version (MPI & OpenMP), running on      96 processor cores
     Number of MPI processes:                96
     Threads/MPI process:                     1

     MPI processes distributed on     2 nodes
     179938 MiB available memory on the printing compute node when the environment starts
 
     Reading input from Lislab_relax.in

     Current dimensions of program PWSCF are:
     Max number of different atomic species (ntypx) = 10
     Max number of k-points (npk) =  40000
     Max angular momentum in pseudopotentials (lmaxx) =  4
     Message from routine setup:
     no reason to have ecutrho>4*ecutwfc
     Found identity + ( -0.0000  0.3333  0.0000) symmetry
     This is a supercell, fractional translations are disabled
     Message from routine setup:
     using ibrav=0 with symmetry is DISCOURAGED, use correct ibrav instead
 
     R & G space division:  proc/nbgrp/npool/nimage =      96
     Subspace diagonalization in iterative solution of the eigenvalue problem:
     one sub-group per band group will be used
     scalapack distributed-memory algorithm (size of sub-group:  2*  2 procs)

 
     Parallelization info
     --------------------
     sticks:   dense  smooth     PW     G-vecs:    dense   smooth      PW
     Min         262     130     34                94192    33284    4445
     Max         263     131     36                94205    33313    4456
     Sum       25171   12547   3283              9042677  3196635  427113
 
     Using Slab Decomposition
 


     bravais-lattice index     =            0
     lattice parameter (alat)  =      27.5744  a.u.
     unit-cell volume          =   50920.4522 (a.u.)^3
     number of atoms/cell      =          108
     number of atomic types    =            1
     number of electrons       =       324.00
     number of Kohn-Sham states=          194
     kinetic-energy cutoff     =      60.0000  Ry
     charge density cutoff     =     480.0000  Ry
     scf convergence threshold =      1.0E-08
     mixing beta               =       0.3000
     number of iterations used =            8  plain     mixing
     energy convergence thresh.=      1.0E-04
     force convergence thresh. =      1.0E-03
     Exchange-correlation= PBE
                           (   1   4   3   4   0   0   0)
     nstep                     =           50


     celldm(1)=  27.574443  celldm(2)=   0.000000  celldm(3)=   0.000000
     celldm(4)=   0.000000  celldm(5)=   0.000000  celldm(6)=   0.000000

     crystal axes: (cart. coord. in units of alat)
               a(1) = (   1.000000   0.000000   0.000000 )  
               a(2) = (   0.500000   0.866025   0.000000 )  
               a(3) = (   0.000000   0.000000   2.804409 )  

     reciprocal axes: (cart. coord. in units 2 pi/alat)
               b(1) = (  1.000000 -0.577350  0.000000 )  
               b(2) = (  0.000000  1.154701  0.000000 )  
               b(3) = (  0.000000  0.000000  0.356581 )  


     PseudoPot. # 1 for Li read from file:
     ./pseudo/Li.upf
     MD5 check sum: dbcf0ea72988e720c8c712b432d51b0d
     Pseudo is Norm-conserving, Zval =  3.0
     Generated using ONCVPSP code by D. R. Hamann
     Using radial grid of 1944 points,  4 beta functions with: 
                l(1) =   0
                l(2) =   0
                l(3) =   1
                l(4) =   1

     atomic species   valence    mass     pseudopotential
     Li                3.00     6.94000     Li( 1.00)

      6 Sym. Ops. (no inversion) found



   Cartesian axes

     site n.     atom                  positions (alat units)
         1        Li     tau(   1) = (   0.0000000   0.0000000   1.0279769  )
         2        Li     tau(   2) = (   0.1666667   0.0962250   1.0960183  )
         3        Li     tau(   3) = (   0.3333333   0.1924501   1.1640597  )
         4        Li     tau(   4) = (   0.5000000   0.2886751   1.2321011  )
         5        Li     tau(   5) = (   0.1666667   0.0962250   1.3001425  )
         6        Li     tau(   6) = (   0.3333333   0.1924501   1.3681839  )
         7        Li     tau(   7) = (   0.1666667   0.2886751   1.4362252  )
         8        Li     tau(   8) = (   0.1666667   0.0962250   1.5042666  )
         9        Li     tau(   9) = (   0.3333333   0.1924501   1.5723080  )
        10        Li     tau(  10) = (   0.5000000   0.2886751   1.6403494  )
        11        Li     tau(  11) = (   0.1666667   0.0962250   1.7083908  )
        12        Li     tau(  12) = (   0.3333333   0.1924501   1.7764321  )
        13        Li     tau(  13) = (   0.1666667   0.2886751   1.0279769  )
        14        Li     tau(  14) = (   0.3333333   0.3849002   1.0960183  )
        15        Li     tau(  15) = (   0.5000000   0.4811252   1.1640597  )
        16        Li     tau(  16) = (   0.6666667   0.5773503   1.2321011  )
        17        Li     tau(  17) = (   0.3333333   0.3849002   1.3001425  )
        18        Li     tau(  18) = (   0.5000000   0.4811252   1.3681839  )
        19        Li     tau(  19) = (   0.3333333   0.5773503   1.4362252  )
        20        Li     tau(  20) = (   0.3333333   0.3849002   1.5042666  )
        21        Li     tau(  21) = (   0.5000000   0.4811252   1.5723080  )
        22        Li     tau(  22) = (   0.6666667   0.5773503   1.6403494  )
        23        Li     tau(  23) = (   0.3333333   0.3849002   1.7083908  )
        24        Li     tau(  24) = (   0.5000000   0.4811252   1.7764321  )
        25        Li     tau(  25) = (   0.3333333   0.5773503   1.0279769  )
        26        Li     tau(  26) = (   0.5000000   0.6735753   1.0960183  )
        27        Li     tau(  27) = (   0.6666667   0.7698004   1.1640597  )
        28        Li     tau(  28) = (   0.8333333   0.8660254   1.2321011  )
        29        Li     tau(  29) = (   0.5000000   0.6735753   1.3001425  )
        30        Li     tau(  30) = (   0.6666667   0.7698004   1.3681839  )
        31        Li     tau(  31) = (   0.5000000   0.8660254   1.4362252  )
        32        Li     tau(  32) = (   0.5000000   0.6735753   1.5042666  )
        33        Li     tau(  33) = (   0.6666667   0.7698004   1.5723080  )
        34        Li     tau(  34) = (   0.8333333   0.8660254   1.6403494  )
        35        Li     tau(  35) = (   0.5000000   0.6735753   1.7083908  )
        36        Li     tau(  36) = (   0.6666667   0.7698004   1.7764321  )
        37        Li     tau(  37) = (   0.3333333   0.0000000   1.0279769  )
        38        Li     tau(  38) = (   0.5000000   0.0962250   1.0960183  )
        39        Li     tau(  39) = (   0.6666667   0.1924501   1.1640597  )
        40        Li     tau(  40) = (   0.8333333   0.2886751   1.2321011  )
        41        Li     tau(  41) = (   0.5000000   0.0962250   1.3001425  )
        42        Li     tau(  42) = (   0.6666667   0.1924501   1.3681839  )
        43        Li     tau(  43) = (   0.5000000   0.2886751   1.4362252  )
        44        Li     tau(  44) = (   0.5000000   0.0962250   1.5042666  )
        45        Li     tau(  45) = (   0.6666667   0.1924501   1.5723080  )
        46        Li     tau(  46) = (   0.8333333   0.2886751   1.6403494  )
        47        Li     tau(  47) = (   0.5000000   0.0962250   1.7083908  )
        48        Li     tau(  48) = (   0.6666667   0.1924501   1.7764321  )
        49        Li     tau(  49) = (   0.5000000   0.2886751   1.0279769  )
        50        Li     tau(  50) = (   0.6666667   0.3849002   1.0960183  )
        51        Li     tau(  51) = (   0.8333333   0.4811252   1.1640597  )
        52        Li     tau(  52) = (   1.0000000   0.5773503   1.2321011  )
        53        Li     tau(  53) = (   0.6666667   0.3849002   1.3001425  )
        54        Li     tau(  54) = (   0.8333333   0.4811252   1.3681839  )
        55        Li     tau(  55) = (   0.6666667   0.5773503   1.4362252  )
        56        Li     tau(  56) = (   0.6666667   0.3849002   1.5042666  )
        57        Li     tau(  57) = (   0.8333333   0.4811252   1.5723080  )
        58        Li     tau(  58) = (   1.0000000   0.5773503   1.6403494  )
        59        Li     tau(  59) = (   0.6666667   0.3849002   1.7083908  )
        60        Li     tau(  60) = (   0.8333333   0.4811252   1.7764321  )
        61        Li     tau(  61) = (   0.6666667   0.5773503   1.0279769  )
        62        Li     tau(  62) = (   0.8333333   0.6735753   1.0960183  )
        63        Li     tau(  63) = (   1.0000000   0.7698004   1.1640597  )
        64        Li     tau(  64) = (   1.1666667   0.8660254   1.2321011  )
        65        Li     tau(  65) = (   0.8333333   0.6735753   1.3001425  )
        66        Li     tau(  66) = (   1.0000000   0.7698004   1.3681839  )
        67        Li     tau(  67) = (   0.8333333   0.8660254   1.4362252  )
        68        Li     tau(  68) = (   0.8333333   0.6735753   1.5042666  )
        69        Li     tau(  69) = (   1.0000000   0.7698004   1.5723080  )
        70        Li     tau(  70) = (   1.1666667   0.8660254   1.6403494  )
        71        Li     tau(  71) = (   0.8333333   0.6735753   1.7083908  )
        72        Li     tau(  72) = (   1.0000000   0.7698004   1.7764321  )
        73        Li     tau(  73) = (   0.6666667   0.0000000   1.0279769  )
        74        Li     tau(  74) = (   0.8333333   0.0962250   1.0960183  )
        75        Li     tau(  75) = (   1.0000000   0.1924501   1.1640597  )
        76        Li     tau(  76) = (   0.1666667   0.2886751   1.2321011  )
        77        Li     tau(  77) = (   0.8333333   0.0962250   1.3001425  )
        78        Li     tau(  78) = (   1.0000000   0.1924501   1.3681839  )
        79        Li     tau(  79) = (   0.8333333   0.2886751   1.4362252  )
        80        Li     tau(  80) = (   0.8333333   0.0962250   1.5042666  )
        81        Li     tau(  81) = (   1.0000000   0.1924501   1.5723080  )
        82        Li     tau(  82) = (   1.1666667   0.2886751   1.6403494  )
        83        Li     tau(  83) = (   0.8333333   0.0962250   1.7083908  )
        84        Li     tau(  84) = (   1.0000000   0.1924501   1.7764321  )
        85        Li     tau(  85) = (   0.8333333   0.2886751   1.0279769  )
        86        Li     tau(  86) = (   1.0000000   0.3849002   1.0960183  )
        87        Li     tau(  87) = (   1.1666667   0.4811252   1.1640597  )
        88        Li     tau(  88) = (   1.3333333   0.5773503   1.2321011  )
        89        Li     tau(  89) = (   1.0000000   0.3849002   1.3001425  )
        90        Li     tau(  90) = (   1.1666667   0.4811252   1.3681839  )
        91        Li     tau(  91) = (   1.0000000   0.5773503   1.4362252  )
        92        Li     tau(  92) = (   1.0000000   0.3849002   1.5042666  )
        93        Li     tau(  93) = (   1.1666667   0.4811252   1.5723080  )
        94        Li     tau(  94) = (   1.3333333   0.5773503   1.6403494  )
        95        Li     tau(  95) = (   1.0000000   0.3849002   1.7083908  )
        96        Li     tau(  96) = (   1.1666667   0.4811252   1.7764321  )
        97        Li     tau(  97) = (   1.0000000   0.5773503   1.0279769  )
        98        Li     tau(  98) = (   1.1666667   0.6735753   1.0960183  )
        99        Li     tau(  99) = (   1.3333333   0.7698004   1.1640597  )
       100        Li     tau( 100) = (   1.5000000   0.8660254   1.2321011  )
       101        Li     tau( 101) = (   1.1666667   0.6735753   1.3001425  )
       102        Li     tau( 102) = (   1.3333333   0.7698004   1.3681839  )
       103        Li     tau( 103) = (   1.1666667   0.8660254   1.4362252  )
       104        Li     tau( 104) = (   1.1666667   0.6735753   1.5042666  )
       105        Li     tau( 105) = (   1.3333333   0.7698004   1.5723080  )
       106        Li     tau( 106) = (   1.5000000   0.8660254   1.6403494  )
       107        Li     tau( 107) = (   1.1666667   0.6735753   1.7083908  )
       108        Li     tau( 108) = (   1.3333333   0.7698004   1.7764321  )

     number of k points=     4  Marzari-Vanderbilt smearing, width (Ry)=  0.0200
                       cart. coord. in units 2pi/alat
        k(    1) = (   0.0000000   0.0000000   0.0000000), wk =   0.1250000
        k(    2) = (   0.0000000   0.2886751   0.0000000), wk =   0.7500000
        k(    3) = (   0.0000000  -0.5773503   0.0000000), wk =   0.3750000
        k(    4) = (   0.2500000  -0.7216878   0.0000000), wk =   0.7500000

     Dense  grid:  9042677 G-vectors     FFT dimensions: ( 200, 200, 540)

     Smooth grid:  3196635 G-vectors     FFT dimensions: ( 135, 135, 384)

     Estimated max dynamical RAM per process >     225.72 MB

     Estimated total dynamical RAM >      21.16 GB

     Initial potential from superposition of free atoms

     starting charge     323.5075, renormalised to     324.0000

     negative rho (up, down):  2.555E-04 0.000E+00
     Starting wfcs are  216 randomized atomic wfcs

     total cpu time spent up to now is       26.2 secs

     per-process dynamical memory:   115.9 Mb

     Self-consistent Calculation

     iteration #  1     ecut=    60.00 Ry     beta= 0.30
     Davidson diagonalization with overlap
     ethr =  1.00E-02,  avg # of iterations =  6.5

     negative rho (up, down):  7.941E-05 0.000E+00

     total cpu time spent up to now is       46.8 secs

     total energy              =   -1550.57572346 Ry
     estimated scf accuracy    <      12.36859834 Ry

     iteration #  2     ecut=    60.00 Ry     beta= 0.30
     Davidson diagonalization with overlap
     ethr =  3.82E-03,  avg # of iterations =  5.8

     negative rho (up, down):  4.634E-05 0.000E+00

     total cpu time spent up to now is       66.2 secs

     total energy              =   -1546.73985315 Ry
     estimated scf accuracy    <     130.41780456 Ry

     iteration #  3     ecut=    60.00 Ry     beta= 0.30
     Davidson diagonalization with overlap
     ethr =  3.82E-03,  avg # of iterations =  5.0

     negative rho (up, down):  6.407E-06 0.000E+00

     total cpu time spent up to now is       83.9 secs

     total energy              =   -1554.92044621 Ry
     estimated scf accuracy    <       1.32782187 Ry

     iteration #  4     ecut=    60.00 Ry     beta= 0.30
     Davidson diagonalization with overlap
     ethr =  4.10E-04,  avg # of iterations =  5.0

     negative rho (up, down):  3.893E-05 0.000E+00

     total cpu time spent up to now is       99.2 secs

     total energy              =   -1555.05331940 Ry
     estimated scf accuracy    <       0.06684613 Ry

     iteration #  5     ecut=    60.00 Ry     beta= 0.30
     Davidson diagonalization with overlap
     ethr =  2.06E-05,  avg # of iterations = 12.5

     negative rho (up, down):  6.698E-05 0.000E+00

     total cpu time spent up to now is      119.9 secs

     total energy              =   -1555.06270928 Ry
     estimated scf accuracy    <       1.34439591 Ry

     iteration #  6     ecut=    60.00 Ry     beta= 0.30
     Davidson diagonalization with overlap
     ethr =  2.06E-05,  avg # of iterations =  9.8

     negative rho (up, down):  9.182E-06 0.000E+00

     total cpu time spent up to now is      135.6 secs

     total energy              =   -1555.02948146 Ry
     estimated scf accuracy    <       0.31518060 Ry

     iteration #  7     ecut=    60.00 Ry     beta= 0.30
     Davidson diagonalization with overlap
     ethr =  2.06E-05,  avg # of iterations =  5.8

     negative rho (up, down):  2.589E-06 0.000E+00

     total cpu time spent up to now is      151.5 secs

     total energy              =   -1555.04565100 Ry
     estimated scf accuracy    <       0.01174173 Ry

     iteration #  8     ecut=    60.00 Ry     beta= 0.30
     Davidson diagonalization with overlap
     ethr =  3.62E-06,  avg # of iterations = 11.5

     negative rho (up, down):  9.556E-06 0.000E+00

     total cpu time spent up to now is      172.4 secs

     total energy              =   -1555.04986445 Ry
     estimated scf accuracy    <       0.00901637 Ry

     iteration #  9     ecut=    60.00 Ry     beta= 0.30
     Davidson diagonalization with overlap
     ethr =  2.78E-06,  avg # of iterations =  2.0

     negative rho (up, down):  6.054E-06 0.000E+00

     total cpu time spent up to now is      185.3 secs

     total energy              =   -1555.04973934 Ry
     estimated scf accuracy    <       0.00730485 Ry

     iteration # 10     ecut=    60.00 Ry     beta= 0.30
     Davidson diagonalization with overlap
     ethr =  2.25E-06,  avg # of iterations =  1.0

     negative rho (up, down):  3.870E-07 0.000E+00

     total cpu time spent up to now is      197.3 secs

     total energy              =   -1555.04824943 Ry
     estimated scf accuracy    <       0.00506310 Ry

     iteration # 11     ecut=    60.00 Ry     beta= 0.30
     Davidson diagonalization with overlap
     ethr =  1.56E-06,  avg # of iterations =  3.2

     negative rho (up, down):  6.384E-07 0.000E+00

     total cpu time spent up to now is      211.7 secs

     total energy              =   -1555.04910721 Ry
     estimated scf accuracy    <       0.00050297 Ry

     iteration # 12     ecut=    60.00 Ry     beta= 0.30
     Davidson diagonalization with overlap
     ethr =  1.55E-07,  avg # of iterations =  4.2

     negative rho (up, down):  1.234E-07 0.000E+00

     total cpu time spent up to now is      225.6 secs

     total energy              =   -1555.04910568 Ry
     estimated scf accuracy    <       0.00015761 Ry

     iteration # 13     ecut=    60.00 Ry     beta= 0.30
     Davidson diagonalization with overlap
     ethr =  4.86E-08,  avg # of iterations =  4.5

     total cpu time spent up to now is      240.4 secs

     total energy              =   -1555.04911880 Ry
     estimated scf accuracy    <       0.00006108 Ry

     iteration # 14     ecut=    60.00 Ry     beta= 0.30
     Davidson diagonalization with overlap
     ethr =  1.89E-08,  avg # of iterations =  2.0

     total cpu time spent up to now is      253.4 secs

     total energy              =   -1555.04912041 Ry
     estimated scf accuracy    <       0.00001778 Ry

     iteration # 15     ecut=    60.00 Ry     beta= 0.30
     Davidson diagonalization with overlap
     ethr =  5.49E-09,  avg # of iterations =  4.0

     total cpu time spent up to now is      268.3 secs

     total energy              =   -1555.04912130 Ry
     estimated scf accuracy    <       0.00001644 Ry

     iteration # 16     ecut=    60.00 Ry     beta= 0.30
     Davidson diagonalization with overlap
     ethr =  5.07E-09,  avg # of iterations =  1.8

     total cpu time spent up to now is      280.9 secs

     total energy              =   -1555.04912358 Ry
     estimated scf accuracy    <       0.00002689 Ry

     iteration # 17     ecut=    60.00 Ry     beta= 0.30
     Davidson diagonalization with overlap
     ethr =  5.07E-09,  avg # of iterations =  2.0

     total cpu time spent up to now is      293.7 secs

     total energy              =   -1555.04912432 Ry
     estimated scf accuracy    <       0.00000105 Ry

     iteration # 18     ecut=    60.00 Ry     beta= 0.30
     Davidson diagonalization with overlap
     ethr =  3.25E-10,  avg # of iterations =  4.8

     total cpu time spent up to now is      308.3 secs

     total energy              =   -1555.04912461 Ry
     estimated scf accuracy    <       0.00000050 Ry

     iteration # 19     ecut=    60.00 Ry     beta= 0.30
     Davidson diagonalization with overlap
     ethr =  1.56E-10,  avg # of iterations =  4.0

     total cpu time spent up to now is      322.5 secs

     total energy              =   -1555.04912465 Ry
     estimated scf accuracy    <       0.00000021 Ry

     iteration # 20     ecut=    60.00 Ry     beta= 0.30
     Davidson diagonalization with overlap
     ethr =  6.35E-11,  avg # of iterations =  2.8

     total cpu time spent up to now is      336.2 secs

     total energy              =   -1555.04912472 Ry
     estimated scf accuracy    <       0.00000009 Ry

     iteration # 21     ecut=    60.00 Ry     beta= 0.30
     Davidson diagonalization with overlap
     ethr =  2.87E-11,  avg # of iterations =  2.2

     total cpu time spent up to now is      349.8 secs

     total energy              =   -1555.04912473 Ry
     estimated scf accuracy    <       0.00000003 Ry

     iteration # 22     ecut=    60.00 Ry     beta= 0.30
     Davidson diagonalization with overlap
     ethr =  9.01E-12,  avg # of iterations =  4.2

     total cpu time spent up to now is      364.5 secs

     total energy              =   -1555.04912474 Ry
     estimated scf accuracy    <       0.00000002 Ry

     iteration # 23     ecut=    60.00 Ry     beta= 0.30
     Davidson diagonalization with overlap
     ethr =  6.37E-12,  avg # of iterations =  2.8

     total cpu time spent up to now is      378.0 secs

     End of self-consistent calculation

          k = 0.0000 0.0000 0.0000 (399281 PWs)   bands (ev):

   -49.3566 -49.3566 -49.3566 -49.3566 -49.3566 -49.3565 -49.3565 -49.3565
   -49.3565 -49.3565 -49.3565 -49.3565 -49.3564 -49.3564 -49.3564 -49.3564
   -49.3564 -49.3564 -48.6762 -48.6762 -48.6762 -48.6761 -48.6761 -48.6761
   -48.6761 -48.6761 -48.6761 -48.6761 -48.6761 -48.6761 -48.6761 -48.6761
   -48.6761 -48.6760 -48.6760 -48.6760 -48.3368 -48.3365 -48.3365 -48.3365
   -48.3365 -48.3365 -48.3364 -48.3364 -48.3364 -48.3364 -48.3364 -48.3364
   -48.3364 -48.3364 -48.3364 -48.3364 -48.3364 -48.3364 -48.2899 -48.2878
   -48.2878 -48.2878 -48.2878 -48.2878 -48.2878 -48.2869 -48.2869 -48.2846
   -48.2835 -48.2835 -48.2835 -48.2835 -48.2835 -48.2835 -48.2830 -48.2830
   -48.2687 -48.2677 -48.2677 -48.2677 -48.2677 -48.2677 -48.2677 -48.2652
   -48.2652 -48.2652 -48.2652 -48.2614 -48.2613 -48.2613 -48.2613 -48.2613
   -48.2613 -48.2581 -48.2299 -48.2299 -48.2299 -48.2299 -48.2295 -48.2295
   -48.2295 -48.2295 -48.2295 -48.2295 -48.2295 -48.2295 -48.2295 -48.2295
   -48.2295 -48.2295 -48.2291 -48.2286  -5.1832  -4.7516  -4.4795  -4.4795
    -4.4795  -4.4794  -4.4794  -4.4794  -4.0437  -4.0437  -4.0437  -4.0437
    -4.0437  -4.0437  -4.0233  -3.3107  -3.3107  -3.3107  -3.3107  -3.3107
    -3.3106  -3.0949  -3.0949  -3.0909  -3.0909  -3.0909  -3.0909  -3.0888
    -2.6450  -2.6450  -2.6450  -2.6450  -2.6385  -2.6385  -2.3938  -2.3938
    -2.3938  -2.3938  -2.3938  -2.3938  -2.3533  -2.3533  -2.3533  -2.3533
    -2.3533  -2.3533  -2.1043  -1.9193  -1.9193  -1.9193  -1.9193  -1.9193
    -1.9193  -1.9124  -1.9124  -1.9124  -1.9124  -1.8523  -1.8523  -1.4836
    -1.4836  -1.4836  -1.4836  -1.4836  -1.4836  -1.1708  -1.1708  -1.1708
    -1.1708  -1.1708  -1.1708  -1.1168  -1.1168  -1.1168  -1.1168  -1.1021
    -1.1021  -1.1021  -1.1021  -1.1021  -1.1021  -1.0821  -0.7074  -0.7074
    -0.5609  -0.5608

          k = 0.0000 0.2887 0.0000 (399667 PWs)   bands (ev):

   -49.3567 -49.3567 -49.3567 -49.3566 -49.3566 -49.3566 -49.3566 -49.3566
   -49.3566 -49.3565 -49.3565 -49.3565 -49.3565 -49.3565 -49.3565 -49.3565
   -49.3565 -49.3565 -48.6764 -48.6763 -48.6762 -48.6762 -48.6762 -48.6762
   -48.6762 -48.6762 -48.6762 -48.6761 -48.6761 -48.6761 -48.6761 -48.6761
   -48.6761 -48.6761 -48.6761 -48.6761 -48.3368 -48.3367 -48.3366 -48.3366
   -48.3365 -48.3365 -48.3365 -48.3365 -48.3365 -48.3365 -48.3365 -48.3365
   -48.3365 -48.3364 -48.3364 -48.3364 -48.3364 -48.3364 -48.2899 -48.2886
   -48.2881 -48.2881 -48.2875 -48.2875 -48.2874 -48.2870 -48.2870 -48.2846
   -48.2839 -48.2836 -48.2836 -48.2833 -48.2833 -48.2833 -48.2831 -48.2831
   -48.2687 -48.2682 -48.2679 -48.2679 -48.2675 -48.2675 -48.2674 -48.2662
   -48.2662 -48.2643 -48.2643 -48.2625 -48.2621 -48.2621 -48.2610 -48.2610
   -48.2604 -48.2586 -48.2300 -48.2300 -48.2299 -48.2299 -48.2298 -48.2297
   -48.2297 -48.2297 -48.2296 -48.2296 -48.2295 -48.2295 -48.2295 -48.2294
   -48.2294 -48.2294 -48.2292 -48.2290  -5.1393  -4.7876  -4.7075  -4.6117
    -4.6117  -4.3536  -4.2595  -4.2595  -4.1766  -4.1766  -4.0829  -3.9788
    -3.8226  -3.8226  -3.6456  -3.6218  -3.5619  -3.5619  -3.4438  -3.4438
    -3.1264  -3.1264  -3.0897  -3.0897  -3.0435  -3.0378  -3.0378  -3.0254
    -2.9174  -2.6842  -2.6803  -2.6803  -2.6138  -2.6138  -2.5736  -2.5418
    -2.5418  -2.5072  -2.5072  -2.3759  -2.3759  -2.2387  -2.2387  -2.1495
    -2.1495  -2.0883  -2.0883  -2.0595  -2.0090  -1.9907  -1.9907  -1.8501
    -1.8497  -1.8497  -1.7206  -1.6327  -1.5630  -1.5630  -1.5549  -1.5549
    -1.5315  -1.5315  -1.4918  -1.4918  -1.4221  -1.4221  -1.3320  -1.3320
    -1.2755  -1.2093  -1.2093  -1.2050  -1.2050  -1.1959  -1.1920  -1.0438
    -1.0071  -1.0071  -0.9174  -0.9174  -0.9063  -0.9063  -0.8329  -0.8134
    -0.7329  -0.7039

          k = 0.0000-0.5774 0.0000 (399688 PWs)   bands (ev):

   -49.3567 -49.3567 -49.3567 -49.3567 -49.3566 -49.3566 -49.3566 -49.3566
   -49.3566 -49.3566 -49.3565 -49.3565 -49.3565 -49.3565 -49.3565 -49.3565
   -49.3565 -49.3565 -48.6763 -48.6763 -48.6763 -48.6762 -48.6762 -48.6762
   -48.6762 -48.6762 -48.6762 -48.6761 -48.6761 -48.6761 -48.6761 -48.6761
   -48.6761 -48.6761 -48.6761 -48.6761 -48.3368 -48.3368 -48.3366 -48.3366
   -48.3366 -48.3365 -48.3365 -48.3365 -48.3365 -48.3365 -48.3365 -48.3365
   -48.3365 -48.3364 -48.3364 -48.3364 -48.3364 -48.3364 -48.2894 -48.2894
   -48.2882 -48.2882 -48.2872 -48.2872 -48.2872 -48.2872 -48.2872 -48.2843
   -48.2843 -48.2837 -48.2837 -48.2832 -48.2832 -48.2832 -48.2831 -48.2831
   -48.2685 -48.2685 -48.2679 -48.2679 -48.2671 -48.2669 -48.2669 -48.2669
   -48.2669 -48.2631 -48.2631 -48.2631 -48.2631 -48.2630 -48.2609 -48.2609
   -48.2594 -48.2594 -48.2299 -48.2298 -48.2298 -48.2298 -48.2298 -48.2297
   -48.2297 -48.2297 -48.2297 -48.2297 -48.2295 -48.2295 -48.2294 -48.2294
   -48.2293 -48.2293 -48.2292 -48.2292  -5.0076  -5.0076  -4.6558  -4.6558
    -4.5749  -4.5749  -4.2209  -4.2209  -3.9529  -3.9529  -3.9529  -3.9529
    -3.8449  -3.8448  -3.6023  -3.5958  -3.5143  -3.5143  -3.5143  -3.5143
    -3.4882  -3.4882  -3.1595  -3.1566  -2.9081  -2.9081  -2.9060  -2.9060
    -2.9060  -2.9060  -2.7850  -2.7850  -2.7850  -2.7850  -2.5505  -2.5505
    -2.4506  -2.4506  -2.4506  -2.4506  -2.4442  -2.4022  -1.9713  -1.9713
    -1.9713  -1.9713  -1.9270  -1.9270  -1.8724  -1.8724  -1.8724  -1.8724
    -1.7213  -1.7213  -1.7213  -1.7213  -1.6743  -1.6068  -1.6068  -1.5721
    -1.5721  -1.5570  -1.5570  -1.4816  -1.4816  -1.4816  -1.4816  -1.3633
    -1.3333  -1.1110  -1.1110  -1.1022  -1.1022  -1.0719  -1.0719  -1.0719
    -1.0719  -0.9509  -0.9509  -0.8304  -0.8304  -0.7777  -0.7777  -0.7777
    -0.7777  -0.7775

          k = 0.2500-0.7217 0.0000 (399610 PWs)   bands (ev):

   -49.3567 -49.3567 -49.3566 -49.3566 -49.3566 -49.3566 -49.3566 -49.3566
   -49.3565 -49.3565 -49.3565 -49.3565 -49.3565 -49.3565 -49.3565 -49.3565
   -49.3565 -49.3564 -48.6763 -48.6762 -48.6762 -48.6762 -48.6762 -48.6762
   -48.6762 -48.6762 -48.6762 -48.6762 -48.6761 -48.6761 -48.6761 -48.6761
   -48.6761 -48.6761 -48.6761 -48.6761 -48.3368 -48.3367 -48.3366 -48.3366
   -48.3366 -48.3365 -48.3365 -48.3365 -48.3365 -48.3365 -48.3365 -48.3365
   -48.3365 -48.3364 -48.3364 -48.3364 -48.3363 -48.3363 -48.2895 -48.2888
   -48.2888 -48.2875 -48.2875 -48.2873 -48.2872 -48.2872 -48.2871 -48.2844
   -48.2840 -48.2840 -48.2833 -48.2833 -48.2832 -48.2831 -48.2831 -48.2831
   -48.2685 -48.2682 -48.2682 -48.2674 -48.2674 -48.2670 -48.2670 -48.2669
   -48.2667 -48.2637 -48.2632 -48.2630 -48.2630 -48.2620 -48.2620 -48.2600
   -48.2599 -48.2591 -48.2299 -48.2299 -48.2299 -48.2299 -48.2298 -48.2298
   -48.2297 -48.2297 -48.2296 -48.2296 -48.2296 -48.2296 -48.2293 -48.2293
   -48.2293 -48.2293 -48.2292 -48.2292  -5.0515  -4.8757  -4.8756  -4.6191
    -4.4421  -4.4421  -4.3480  -4.3480  -3.9975  -3.9113  -3.9113  -3.8895
    -3.8195  -3.8195  -3.7110  -3.7110  -3.5587  -3.4752  -3.4693  -3.3860
    -3.3860  -3.2857  -3.2857  -3.1774  -3.1774  -3.0297  -3.0292  -2.9531
    -2.8597  -2.8597  -2.8252  -2.7733  -2.7733  -2.6329  -2.6329  -2.4576
    -2.4546  -2.3150  -2.2785  -2.2785  -2.2689  -2.2327  -2.2327  -2.1247
    -2.1247  -2.0194  -2.0058  -1.9929  -1.9707  -1.8840  -1.8303  -1.8303
    -1.7978  -1.7978  -1.7960  -1.7960  -1.7537  -1.7537  -1.5350  -1.5306
    -1.5306  -1.5277  -1.3515  -1.3515  -1.3471  -1.3471  -1.2877  -1.2783
    -1.2415  -1.2409  -1.2409  -1.2406  -1.2406  -1.0653  -1.0653  -1.0119
    -1.0119  -0.9729  -0.9726  -0.8981  -0.8981  -0.8585  -0.8585  -0.7994
    -0.7525  -0.7525

     the Fermi energy is    -1.7646 ev

!    total energy              =   -1555.04912473 Ry
     estimated scf accuracy    <          9.7E-09 Ry
     smearing contrib. (-TS)   =      -0.01415737 Ry
     internal energy E=F+TS    =   -1555.03496736 Ry

     The total energy is F=E-TS. E is the sum of the following terms:
     one-electron contribution =  -14002.55786264 Ry
     hartree contribution      =    6834.61323452 Ry
     xc contribution           =    -358.97178317 Ry
     ewald contribution        =    5971.88144393 Ry

     convergence has been achieved in  23 iterations

     Forces acting on atoms (cartesian axes, Ry/au):

     atom    1 type  1   force =    -0.00000000   -0.00000000   -0.00029874
     atom    2 type  1   force =     0.00000034    0.00000020    0.00648123
     atom    3 type  1   force =     0.00000041    0.00000024   -0.00433935
     atom    4 type  1   force =     0.00000000    0.00000000   -0.00238398
     atom    5 type  1   force =     0.00000055    0.00000032   -0.00015438
     atom    6 type  1   force =     0.00000048    0.00000028    0.00014485
     atom    7 type  1   force =     0.00000030    0.00000054   -0.00014494
     atom    8 type  1   force =     0.00000054    0.00000031    0.00015443
     atom    9 type  1   force =     0.00000038    0.00000022    0.00238406
     atom   10 type  1   force =     0.00000000    0.00000000    0.00433952
     atom   11 type  1   force =     0.00000035    0.00000020   -0.00648129
     atom   12 type  1   force =     0.00000011    0.00000007    0.00029786
     atom   13 type  1   force =     0.00000016    0.00000023   -0.00029787
     atom   14 type  1   force =    -0.00000005    0.00000003    0.00648176
     atom   15 type  1   force =     0.00000000   -0.00000047   -0.00433935
     atom   16 type  1   force =     0.00000042   -0.00000053   -0.00238413
     atom   17 type  1   force =    -0.00000000    0.00000000   -0.00015431
     atom   18 type  1   force =     0.00000000   -0.00000056    0.00014485
     atom   19 type  1   force =    -0.00000032   -0.00000053   -0.00014494
     atom   20 type  1   force =     0.00000002   -0.00000001    0.00015420
     atom   21 type  1   force =     0.00000000   -0.00000044    0.00238406
     atom   22 type  1   force =     0.00000017   -0.00000036    0.00433953
     atom   23 type  1   force =     0.00000014   -0.00000008   -0.00648167
     atom   24 type  1   force =     0.00000000   -0.00000013    0.00029786
     atom   25 type  1   force =    -0.00000012   -0.00000026   -0.00029787
     atom   26 type  1   force =     0.00000000   -0.00000039    0.00648123
     atom   27 type  1   force =     0.00000051   -0.00000030   -0.00433959
     atom   28 type  1   force =     0.00000067   -0.00000010   -0.00238413
     atom   29 type  1   force =     0.00000000   -0.00000064   -0.00015438
     atom   30 type  1   force =     0.00000056   -0.00000032    0.00014487
     atom   31 type  1   force =    -0.00000000   -0.00000000   -0.00014493
     atom   32 type  1   force =     0.00000000   -0.00000062    0.00015443
     atom   33 type  1   force =     0.00000048   -0.00000028    0.00238430
     atom   34 type  1   force =     0.00000039    0.00000003    0.00433953
     atom   35 type  1   force =     0.00000000   -0.00000041   -0.00648129
     atom   36 type  1   force =     0.00000024   -0.00000014    0.00029819
     atom   37 type  1   force =     0.00000028    0.00000002   -0.00029787
     atom   38 type  1   force =     0.00000000   -0.00000006    0.00648176
     atom   39 type  1   force =    -0.00000041    0.00000024   -0.00433935
     atom   40 type  1   force =    -0.00000025    0.00000063   -0.00238413
     atom   41 type  1   force =     0.00000000   -0.00000000   -0.00015431
     atom   42 type  1   force =    -0.00000048    0.00000028    0.00014485
     atom   43 type  1   force =     0.00000000    0.00000000   -0.00014500
     atom   44 type  1   force =     0.00000000    0.00000002    0.00015420
     atom   45 type  1   force =    -0.00000038    0.00000022    0.00238406
     atom   46 type  1   force =    -0.00000022    0.00000032    0.00433953
     atom   47 type  1   force =     0.00000000    0.00000016   -0.00648167
     atom   48 type  1   force =    -0.00000011    0.00000007    0.00029786
     atom   49 type  1   force =     0.00000000    0.00000000   -0.00029775
     atom   50 type  1   force =     0.00000005    0.00000003    0.00648176
     atom   51 type  1   force =     0.00000005    0.00000003   -0.00433938
     atom   52 type  1   force =     0.00000000    0.00000000   -0.00238403
     atom   53 type  1   force =     0.00000000    0.00000000   -0.00015431
     atom   54 type  1   force =     0.00000000    0.00000000    0.00014462
     atom   55 type  1   force =     0.00000032   -0.00000053   -0.00014494
     atom   56 type  1   force =    -0.00000002   -0.00000001    0.00015420
     atom   57 type  1   force =     0.00000003    0.00000002    0.00238402
     atom   58 type  1   force =    -0.00000000   -0.00000000    0.00433921
     atom   59 type  1   force =    -0.00000014   -0.00000008   -0.00648167
     atom   60 type  1   force =     0.00000004    0.00000003    0.00029787
     atom   61 type  1   force =     0.00000012   -0.00000026   -0.00029787
     atom   62 type  1   force =     0.00000030   -0.00000017    0.00648187
     atom   63 type  1   force =     0.00000000   -0.00000006   -0.00433938
     atom   64 type  1   force =    -0.00000067   -0.00000010   -0.00238413
     atom   65 type  1   force =     0.00000048   -0.00000028   -0.00015451
     atom   66 type  1   force =     0.00000000   -0.00000000    0.00014462
     atom   67 type  1   force =     0.00000062   -0.00000001   -0.00014494
     atom   68 type  1   force =     0.00000040   -0.00000023    0.00015434
     atom   69 type  1   force =     0.00000000   -0.00000004    0.00238402
     atom   70 type  1   force =    -0.00000039    0.00000003    0.00433953
     atom   71 type  1   force =     0.00000020   -0.00000011   -0.00648166
     atom   72 type  1   force =     0.00000000   -0.00000005    0.00029787
     atom   73 type  1   force =    -0.00000028    0.00000002   -0.00029787
     atom   74 type  1   force =    -0.00000034    0.00000020    0.00648123
     atom   75 type  1   force =     0.00000000    0.00000059   -0.00433959
     atom   76 type  1   force =     0.00000025    0.00000063   -0.00238413
     atom   77 type  1   force =    -0.00000055    0.00000032   -0.00015438
     atom   78 type  1   force =     0.00000000    0.00000064    0.00014487
     atom   79 type  1   force =    -0.00000030    0.00000054   -0.00014494
     atom   80 type  1   force =    -0.00000054    0.00000031    0.00015443
     atom   81 type  1   force =     0.00000000    0.00000055    0.00238430
     atom   82 type  1   force =     0.00000022    0.00000032    0.00433953
     atom   83 type  1   force =    -0.00000035    0.00000020   -0.00648129
     atom   84 type  1   force =     0.00000000    0.00000028    0.00029819
     atom   85 type  1   force =    -0.00000016    0.00000023   -0.00029787
     atom   86 type  1   force =     0.00000000    0.00000035    0.00648187
     atom   87 type  1   force =    -0.00000005    0.00000003   -0.00433938
     atom   88 type  1   force =    -0.00000042   -0.00000053   -0.00238413
     atom   89 type  1   force =     0.00000000    0.00000056   -0.00015451
     atom   90 type  1   force =    -0.00000000    0.00000000    0.00014462
     atom   91 type  1   force =     0.00000000    0.00000000   -0.00014495
     atom   92 type  1   force =     0.00000000    0.00000047    0.00015434
     atom   93 type  1   force =    -0.00000003    0.00000002    0.00238402
     atom   94 type  1   force =    -0.00000017   -0.00000036    0.00433953
     atom   95 type  1   force =     0.00000000    0.00000023   -0.00648166
     atom   96 type  1   force =    -0.00000004    0.00000003    0.00029787
     atom   97 type  1   force =    -0.00000000   -0.00000000   -0.00029748
     atom   98 type  1   force =    -0.00000030   -0.00000017    0.00648187
     atom   99 type  1   force =    -0.00000051   -0.00000030   -0.00433959
     atom  100 type  1   force =    -0.00000000   -0.00000000   -0.00238430
     atom  101 type  1   force =    -0.00000048   -0.00000028   -0.00015451
     atom  102 type  1   force =    -0.00000056   -0.00000032    0.00014487
     atom  103 type  1   force =    -0.00000062   -0.00000001   -0.00014494
     atom  104 type  1   force =    -0.00000040   -0.00000023    0.00015434
     atom  105 type  1   force =    -0.00000048   -0.00000028    0.00238430
     atom  106 type  1   force =    -0.00000000   -0.00000000    0.00433991
     atom  107 type  1   force =    -0.00000020   -0.00000011   -0.00648166
     atom  108 type  1   force =    -0.00000024   -0.00000014    0.00029819

     Total force =     0.034639     Total SCF correction =     0.000147


     Computing stress (Cartesian axis) and pressure

          total   stress  (Ry/bohr**3)                   (kbar)     P=       -4.90
  -0.00003533  -0.00000000   0.00000000           -5.20       -0.00        0.00
  -0.00000000  -0.00003533   0.00000000           -0.00       -5.20        0.00
   0.00000000   0.00000000  -0.00002921            0.00        0.00       -4.30


     BFGS Geometry Optimization
     Energy error            =      1.2E-03 Ry
     Gradient error          =      6.5E-03 Ry/Bohr

     number of scf cycles    =   1
     number of bfgs steps    =   0

     energy             new  =   -1555.0491247342 Ry

     new trust radius        =       0.0064818653 bohr
     new conv_thr            =       0.0000000100 Ry


ATOMIC_POSITIONS (angstrom)
Li              -0.0000000000       -0.0000000000       14.9998419143
Li               2.4319613357        1.4040935319       15.9962737040
Li               4.8639225279        2.8081869808       16.9833916840
Li               7.2958834680        4.2122802843       17.9772704029
Li               2.4319614487        1.4040935971       18.9712942454
Li               4.8639225672        2.8081870035       19.9642965747
Li               2.4319613141        4.2122805699       20.9569872065
Li               2.4319614397        1.4040935919       21.9499896137
Li               4.8639225125        2.8081869719       22.9440134681
Li               7.2958834680        4.2122802843       23.9378922335
Li               2.4319613426        1.4040935358       24.9250100918
Li               4.8639223719        2.8081868908       25.9214414468
Li               2.4319612408        4.2122804079       14.9998423736
Li               4.8639222836        5.6163737287       15.9962739833
Li               7.2958834680        7.0204668911       16.9833916840
Li               9.7278448487        8.4245602891       17.9772703252
Li               4.8639223101        5.6163737134       18.9712942828
Li               7.2958834680        7.0204668457       19.9642965747
Li               4.8639221437        8.4245602887       20.9569872065
Li               4.8639223211        5.6163737071       21.9499894922
Li               7.2958834680        7.0204669089       22.9440134681
Li               9.7278447129        8.4245603801       23.9378922419
Li               4.8639223846        5.6163736704       24.9250098918
Li               7.2958834680        7.0204670712       25.9214414468
Li               4.8639222474        8.4245604333       14.9998423736
Li               7.2958834680        9.8286537891       15.9962737040
Li               9.7278448966       11.2327472674       16.9833915544
Li              12.1598061344       12.6368407980       17.9772703252
Li               7.2958834680        9.8286536587       18.9712942454
Li               9.7278449197       11.2327472541       19.9642965839
Li               7.2958834680       12.6368408528       20.9569872118
Li               7.2958834680        9.8286536690       21.9499896137
Li               9.7278448765       11.2327472790       22.9440135948
Li              12.1598059876       12.6368408700       23.9378922419
Li               7.2958834680        9.8286537812       24.9250100918
Li               9.7278447509       11.2327473515       25.9214416220
Li               4.8639224614        0.0000000117       14.9998423736
Li               7.2958834680        1.4040933954       15.9962739833
Li               9.7278444082        2.8081869808       16.9833916840
Li              12.1598056504        4.2122806185       17.9772703252
Li               7.2958834680        1.4040934259       18.9712942828
Li               9.7278443689        2.8081870035       19.9642965747
Li               7.2958834680        4.2122802843       20.9569871780
Li               7.2958834680        1.4040934386       21.9499894922
Li               9.7278444236        2.8081869719       22.9440134681
Li              12.1598056614        4.2122804554       23.9378922419
Li               7.2958834680        1.4040935120       24.9250098918
Li               9.7278445642        2.8081868908       25.9214414468
Li               7.2958834680        4.2122802843       14.9998424400
Li               9.7278446525        5.6163737287       15.9962739833
Li              12.1598058055        7.0204671551       16.9833916683
Li              14.5917669361        8.4245605685       17.9772703769
Li               9.7278446260        5.6163737134       18.9712942828
Li              12.1598057806        7.0204671407       19.9642964504
Li               9.7278447924        8.4245602887       20.9569872065
Li               9.7278446150        5.6163737071       21.9499894922
Li              12.1598057981        7.0204671508       22.9440134442
Li              14.5917669361        8.4245605685       23.9378920694
Li               9.7278445515        5.6163736704       24.9250098918
Li              12.1598058031        7.0204671537       25.9214414553
Li               9.7278446887        8.4245604333       14.9998423736
Li              12.1598059404        9.8286539040       15.9962740398
Li              14.5917669361       11.2327473953       16.9833916683
Li              17.0237277378       12.6368407980       17.9772703252
Li              12.1598060345        9.8286538497       18.9712941762
Li              14.5917669361       11.2327474242       19.9642964504
Li              12.1598061065       12.6368408469       20.9569872065
Li              12.1598059940        9.8286538731       21.9499895626
Li              14.5917669361       11.2327474039       22.9440134442
Li              17.0237278846       12.6368408700       23.9378922419
Li              12.1598058849        9.8286539361       24.9250098949
Li              14.5917669361       11.2327473981       25.9214414553
Li               9.7278444747        0.0000000117       14.9998423736
Li              12.1598056004        1.4040935319       15.9962737040
Li              14.5917669361        2.8081871709       16.9833915544
Li               2.4319612857        4.2122806185       17.9772703252
Li              12.1598054874        1.4040935971       18.9712942454
Li              14.5917669361        2.8081871975       19.9642965839
Li              12.1598056220        4.2122805699       20.9569872065
Li              12.1598054964        1.4040935919       21.9499896137
Li              14.5917669361        2.8081871476       22.9440135948
Li              17.0237282108        4.2122804554       23.9378922419
Li              12.1598055935        1.4040935358       24.9250100918
Li              14.5917669361        2.8081870027       25.9214416220
Li              12.1598056953        4.2122804079       14.9998423736
Li              14.5917669361        5.6163738974       15.9962740398
Li              17.0237280667        7.0204671551       16.9833916683
Li              19.4556890235        8.4245602891       17.9772703252
Li              14.5917669361        5.6163740060       18.9712941762
Li              17.0237280916        7.0204671407       19.9642964504
Li              14.5917669361        8.4245605685       20.9569872025
Li              14.5917669361        5.6163739593       21.9499895626
Li              17.0237280741        7.0204671508       22.9440134442
Li              19.4556891593        8.4245603801       23.9378922419
Li              14.5917669361        5.6163738333       24.9250098949
Li              17.0237280691        7.0204671537       25.9214414553
Li              14.5917669361        8.4245605685       14.9998425787
Li              17.0237279318        9.8286539040       15.9962740398
Li              19.4556889756       11.2327472674       16.9833915544
Li              21.8876504041       12.6368408528       17.9772702365
Li              17.0237278377        9.8286538497       18.9712941762
Li              19.4556889525       11.2327472541       19.9642965839
Li              17.0237277657       12.6368408469       20.9569872065
Li              17.0237278782        9.8286538731       21.9499895626
Li              19.4556889957       11.2327472790       22.9440135948
Li              21.8876504041       12.6368408528       23.9378924406
Li              17.0237279873        9.8286539361       24.9250098949
Li              19.4556891213       11.2327473515       25.9214416220



     Writing config-only to output data dir /scratch/deepanthpcu/ml/tmp/Lislab/Lislab.save/ :
     XML data file
     NEW-OLD atomic charge density approx. for the potential

     negative rho (up, down):  1.836E-07 0.000E+00

     total cpu time spent up to now is      394.3 secs

     per-process dynamical memory:   117.9 Mb

     Self-consistent Calculation

     iteration #  1     ecut=    60.00 Ry     beta= 0.30
     Davidson diagonalization with overlap
     ethr =  1.00E-06,  avg # of iterations =  3.0

     Threshold (ethr) on eigenvalues was too large:
     Diagonalizing with lowered threshold

     Davidson diagonalization with overlap
     ethr =  5.58E-09,  avg # of iterations =  5.0

     negative rho (up, down):  1.596E-08 0.000E+00

     total cpu time spent up to now is      428.6 secs

     total energy              =   -1555.05029936 Ry
     estimated scf accuracy    <       0.00003135 Ry

     iteration #  2     ecut=    60.00 Ry     beta= 0.30
     Davidson diagonalization with overlap
     ethr =  9.68E-09,  avg # of iterations =  5.0

     negative rho (up, down):  1.560E-08 0.000E+00

     total cpu time spent up to now is      444.1 secs

     total energy              =   -1555.05029204 Ry
     estimated scf accuracy    <       0.00024569 Ry

     iteration #  3     ecut=    60.00 Ry     beta= 0.30
     Davidson diagonalization with overlap
     ethr =  9.68E-09,  avg # of iterations =  4.5

     total cpu time spent up to now is      458.8 secs

     total energy              =   -1555.05030801 Ry
     estimated scf accuracy    <       0.00000991 Ry

     iteration #  4     ecut=    60.00 Ry     beta= 0.30
     Davidson diagonalization with overlap
     ethr =  3.06E-09,  avg # of iterations =  4.5

     negative rho (up, down):  2.997E-08 0.000E+00

     total cpu time spent up to now is      472.8 secs

     total energy              =   -1555.05030469 Ry
     estimated scf accuracy    <       0.00022940 Ry

     iteration #  5     ecut=    60.00 Ry     beta= 0.30
     Davidson diagonalization with overlap
     ethr =  3.06E-09,  avg # of iterations =  3.2

     negative rho (up, down):  4.206E-08 0.000E+00

     total cpu time spent up to now is      486.4 secs

     total energy              =   -1555.05030934 Ry
     estimated scf accuracy    <       0.00000221 Ry

     iteration #  6     ecut=    60.00 Ry     beta= 0.30
     Davidson diagonalization with overlap
     ethr =  6.81E-10,  avg # of iterations =  4.0

     total cpu time spent up to now is      500.1 secs

     total energy              =   -1555.05030991 Ry
     estimated scf accuracy    <       0.00000041 Ry

     iteration #  7     ecut=    60.00 Ry     beta= 0.30
     Davidson diagonalization with overlap
     ethr =  1.25E-10,  avg # of iterations =  4.5

     total cpu time spent up to now is      514.9 secs

     total energy              =   -1555.05031008 Ry
     estimated scf accuracy    <       0.00000024 Ry

     iteration #  8     ecut=    60.00 Ry     beta= 0.30
     Davidson diagonalization with overlap
     ethr =  7.38E-11,  avg # of iterations =  2.0

     total cpu time spent up to now is      527.8 secs

     total energy              =   -1555.05031026 Ry
     estimated scf accuracy    <       0.00000008 Ry

     iteration #  9     ecut=    60.00 Ry     beta= 0.30
     Davidson diagonalization with overlap
     ethr =  2.49E-11,  avg # of iterations =  4.0

     total cpu time spent up to now is      542.5 secs

     total energy              =   -1555.05031035 Ry
     estimated scf accuracy    <       0.00000007 Ry

     iteration # 10     ecut=    60.00 Ry     beta= 0.30
     Davidson diagonalization with overlap
     ethr =  2.31E-11,  avg # of iterations =  1.0

     total cpu time spent up to now is      554.7 secs

     total energy              =   -1555.05031042 Ry
     estimated scf accuracy    <       0.00000003 Ry

     iteration # 11     ecut=    60.00 Ry     beta= 0.30
     Davidson diagonalization with overlap
     ethr =  1.03E-11,  avg # of iterations =  3.0

     total cpu time spent up to now is      568.4 secs

     End of self-consistent calculation

          k = 0.0000 0.0000 0.0000 (399281 PWs)   bands (ev):

   -49.3555 -49.3555 -49.3555 -49.3555 -49.3555 -49.3554 -49.3554 -49.3554
   -49.3554 -49.3554 -49.3554 -49.3554 -49.3553 -49.3553 -49.3553 -49.3553
   -49.3553 -49.3553 -48.6726 -48.6726 -48.6726 -48.6725 -48.6725 -48.6725
   -48.6725 -48.6725 -48.6725 -48.6725 -48.6725 -48.6724 -48.6724 -48.6724
   -48.6724 -48.6724 -48.6724 -48.6724 -48.3354 -48.3351 -48.3351 -48.3351
   -48.3351 -48.3351 -48.3351 -48.3351 -48.3351 -48.3351 -48.3351 -48.3351
   -48.3350 -48.3350 -48.3350 -48.3350 -48.3350 -48.3350 -48.2893 -48.2872
   -48.2872 -48.2872 -48.2872 -48.2872 -48.2872 -48.2863 -48.2863 -48.2840
   -48.2829 -48.2829 -48.2829 -48.2828 -48.2828 -48.2828 -48.2824 -48.2824
   -48.2686 -48.2677 -48.2677 -48.2677 -48.2677 -48.2677 -48.2676 -48.2652
   -48.2652 -48.2652 -48.2652 -48.2613 -48.2613 -48.2613 -48.2613 -48.2613
   -48.2613 -48.2581 -48.2281 -48.2281 -48.2281 -48.2281 -48.2277 -48.2277
   -48.2277 -48.2277 -48.2277 -48.2277 -48.2277 -48.2277 -48.2277 -48.2277
   -48.2277 -48.2277 -48.2273 -48.2268  -5.1822  -4.7510  -4.4784  -4.4784
    -4.4784  -4.4784  -4.4784  -4.4784  -4.0432  -4.0432  -4.0432  -4.0432
    -4.0432  -4.0432  -4.0223  -3.3097  -3.3097  -3.3097  -3.3097  -3.3097
    -3.3097  -3.0939  -3.0939  -3.0899  -3.0899  -3.0899  -3.0899  -3.0877
    -2.6449  -2.6449  -2.6449  -2.6449  -2.6381  -2.6381  -2.3927  -2.3927
    -2.3927  -2.3927  -2.3927  -2.3927  -2.3520  -2.3520  -2.3520  -2.3520
    -2.3520  -2.3520  -2.1032  -1.9191  -1.9191  -1.9191  -1.9191  -1.9191
    -1.9191  -1.9115  -1.9115  -1.9115  -1.9115  -1.8518  -1.8518  -1.4826
    -1.4826  -1.4826  -1.4826  -1.4826  -1.4826  -1.1701  -1.1701  -1.1701
    -1.1701  -1.1701  -1.1701  -1.1146  -1.1146  -1.1146  -1.1146  -1.1011
    -1.1011  -1.1011  -1.1011  -1.1011  -1.1011  -1.0795  -0.7064  -0.7064
    -0.5612  -0.5612

          k = 0.0000 0.2887 0.0000 (399667 PWs)   bands (ev):

   -49.3556 -49.3556 -49.3556 -49.3556 -49.3555 -49.3555 -49.3555 -49.3555
   -49.3555 -49.3554 -49.3554 -49.3554 -49.3554 -49.3554 -49.3554 -49.3554
   -49.3554 -49.3554 -48.6728 -48.6726 -48.6726 -48.6726 -48.6726 -48.6726
   -48.6726 -48.6726 -48.6725 -48.6725 -48.6725 -48.6725 -48.6725 -48.6725
   -48.6725 -48.6725 -48.6725 -48.6725 -48.3355 -48.3353 -48.3353 -48.3352
   -48.3352 -48.3352 -48.3352 -48.3351 -48.3351 -48.3351 -48.3351 -48.3351
   -48.3351 -48.3351 -48.3351 -48.3351 -48.3351 -48.3351 -48.2893 -48.2879
   -48.2875 -48.2875 -48.2869 -48.2869 -48.2868 -48.2864 -48.2864 -48.2840
   -48.2832 -48.2829 -48.2829 -48.2827 -48.2827 -48.2827 -48.2824 -48.2824
   -48.2686 -48.2681 -48.2678 -48.2678 -48.2674 -48.2674 -48.2673 -48.2662
   -48.2662 -48.2642 -48.2642 -48.2625 -48.2621 -48.2621 -48.2609 -48.2609
   -48.2604 -48.2585 -48.2282 -48.2282 -48.2281 -48.2281 -48.2280 -48.2279
   -48.2279 -48.2279 -48.2278 -48.2278 -48.2277 -48.2277 -48.2276 -48.2276
   -48.2276 -48.2276 -48.2274 -48.2272  -5.1383  -4.7866  -4.7070  -4.6107
    -4.6107  -4.3531  -4.2585  -4.2585  -4.1761  -4.1761  -4.0819  -3.9777
    -3.8222  -3.8222  -3.6452  -3.6208  -3.5608  -3.5608  -3.4428  -3.4428
    -3.1261  -3.1261  -3.0888  -3.0888  -3.0424  -3.0368  -3.0368  -3.0243
    -2.9166  -2.6830  -2.6792  -2.6792  -2.6136  -2.6136  -2.5733  -2.5408
    -2.5408  -2.5059  -2.5059  -2.3751  -2.3751  -2.2384  -2.2384  -2.1481
    -2.1481  -2.0882  -2.0882  -2.0583  -2.0077  -1.9896  -1.9896  -1.8490
    -1.8490  -1.8490  -1.7195  -1.6317  -1.5620  -1.5620  -1.5541  -1.5541
    -1.5313  -1.5313  -1.4901  -1.4901  -1.4210  -1.4210  -1.3311  -1.3311
    -1.2745  -1.2084  -1.2084  -1.2040  -1.2040  -1.1950  -1.1918  -1.0411
    -1.0055  -1.0055  -0.9165  -0.9165  -0.9065  -0.9065  -0.8313  -0.8124
    -0.7332  -0.7039

          k = 0.0000-0.5774 0.0000 (399688 PWs)   bands (ev):

   -49.3556 -49.3556 -49.3556 -49.3556 -49.3555 -49.3555 -49.3555 -49.3555
   -49.3555 -49.3555 -49.3554 -49.3554 -49.3554 -49.3554 -49.3554 -49.3554
   -49.3554 -49.3554 -48.6727 -48.6727 -48.6726 -48.6726 -48.6726 -48.6726
   -48.6725 -48.6725 -48.6725 -48.6725 -48.6725 -48.6725 -48.6725 -48.6725
   -48.6725 -48.6725 -48.6725 -48.6725 -48.3355 -48.3354 -48.3353 -48.3353
   -48.3352 -48.3352 -48.3352 -48.3351 -48.3351 -48.3351 -48.3351 -48.3351
   -48.3351 -48.3350 -48.3350 -48.3350 -48.3350 -48.3350 -48.2888 -48.2888
   -48.2875 -48.2875 -48.2866 -48.2866 -48.2866 -48.2866 -48.2866 -48.2836
   -48.2836 -48.2830 -48.2830 -48.2826 -48.2825 -48.2825 -48.2825 -48.2825
   -48.2684 -48.2684 -48.2679 -48.2679 -48.2671 -48.2669 -48.2669 -48.2669
   -48.2669 -48.2630 -48.2630 -48.2630 -48.2630 -48.2630 -48.2608 -48.2608
   -48.2593 -48.2593 -48.2281 -48.2280 -48.2280 -48.2280 -48.2280 -48.2279
   -48.2279 -48.2279 -48.2279 -48.2279 -48.2277 -48.2277 -48.2276 -48.2276
   -48.2275 -48.2275 -48.2274 -48.2274  -5.0065  -5.0065  -4.6548  -4.6548
    -4.5743  -4.5743  -4.2204  -4.2204  -3.9518  -3.9518  -3.9518  -3.9518
    -3.8438  -3.8438  -3.6013  -3.5948  -3.5140  -3.5140  -3.5140  -3.5140
    -3.4872  -3.4872  -3.1590  -3.1564  -2.9069  -2.9069  -2.9050  -2.9050
    -2.9049  -2.9049  -2.7842  -2.7842  -2.7842  -2.7842  -2.5492  -2.5492
    -2.4503  -2.4503  -2.4503  -2.4503  -2.4431  -2.4016  -1.9703  -1.9703
    -1.9703  -1.9703  -1.9259  -1.9259  -1.8712  -1.8712  -1.8712  -1.8712
    -1.7202  -1.7202  -1.7202  -1.7202  -1.6723  -1.6057  -1.6057  -1.5710
    -1.5710  -1.5561  -1.5561  -1.4815  -1.4815  -1.4815  -1.4815  -1.3623
    -1.3323  -1.1110  -1.1110  -1.1020  -1.1020  -1.0708  -1.0707  -1.0707
    -1.0707  -0.9486  -0.9486  -0.8292  -0.8292  -0.7771  -0.7771  -0.7771
    -0.7771  -0.7760

          k = 0.2500-0.7217 0.0000 (399610 PWs)   bands (ev):

   -49.3556 -49.3556 -49.3555 -49.3555 -49.3555 -49.3555 -49.3555 -49.3555
   -49.3555 -49.3554 -49.3554 -49.3554 -49.3554 -49.3554 -49.3554 -49.3554
   -49.3554 -49.3554 -48.6727 -48.6726 -48.6726 -48.6726 -48.6726 -48.6726
   -48.6726 -48.6726 -48.6725 -48.6725 -48.6725 -48.6725 -48.6725 -48.6725
   -48.6725 -48.6725 -48.6724 -48.6724 -48.3355 -48.3353 -48.3353 -48.3353
   -48.3352 -48.3352 -48.3352 -48.3351 -48.3351 -48.3351 -48.3351 -48.3351
   -48.3351 -48.3351 -48.3351 -48.3350 -48.3350 -48.3350 -48.2889 -48.2882
   -48.2882 -48.2869 -48.2869 -48.2866 -48.2866 -48.2866 -48.2865 -48.2838
   -48.2834 -48.2834 -48.2827 -48.2827 -48.2825 -48.2825 -48.2825 -48.2825
   -48.2684 -48.2682 -48.2681 -48.2674 -48.2674 -48.2670 -48.2670 -48.2668
   -48.2666 -48.2636 -48.2632 -48.2630 -48.2630 -48.2619 -48.2619 -48.2599
   -48.2599 -48.2591 -48.2281 -48.2281 -48.2281 -48.2280 -48.2280 -48.2280
   -48.2278 -48.2278 -48.2278 -48.2278 -48.2278 -48.2278 -48.2275 -48.2275
   -48.2275 -48.2275 -48.2274 -48.2274  -5.0505  -4.8746  -4.8746  -4.6186
    -4.4416  -4.4416  -4.3470  -4.3470  -3.9964  -3.9109  -3.9109  -3.8884
    -3.8185  -3.8185  -3.7100  -3.7100  -3.5583  -3.4742  -3.4683  -3.3856
    -3.3856  -3.2847  -3.2847  -3.1764  -3.1764  -3.0293  -3.0290  -2.9520
    -2.8594  -2.8594  -2.8244  -2.7721  -2.7721  -2.6320  -2.6320  -2.4566
    -2.4535  -2.3140  -2.2775  -2.2775  -2.2683  -2.2313  -2.2313  -2.1239
    -2.1239  -2.0183  -2.0056  -1.9928  -1.9696  -1.8825  -1.8297  -1.8297
    -1.7967  -1.7967  -1.7954  -1.7954  -1.7518  -1.7518  -1.5350  -1.5296
    -1.5296  -1.5257  -1.3505  -1.3505  -1.3471  -1.3471  -1.2869  -1.2775
    -1.2404  -1.2398  -1.2398  -1.2395  -1.2395  -1.0646  -1.0646  -1.0120
    -1.0120  -0.9717  -0.9703  -0.8967  -0.8967  -0.8570  -0.8570  -0.7989
    -0.7522  -0.7522

     the Fermi energy is    -1.7637 ev

!    total energy              =   -1555.05031056 Ry
     estimated scf accuracy    <          8.1E-09 Ry
     smearing contrib. (-TS)   =      -0.01413045 Ry
     internal energy E=F+TS    =   -1555.03618012 Ry

     The total energy is F=E-TS. E is the sum of the following terms:
     one-electron contribution =  -14003.05084114 Ry
     hartree contribution      =    6834.87723966 Ry
     xc contribution           =    -358.97428087 Ry
     ewald contribution        =    5972.11170225 Ry

     convergence has been achieved in  11 iterations

     Forces acting on atoms (cartesian axes, Ry/au):

     atom    1 type  1   force =     0.00000000    0.00000000   -0.00030560
     atom    2 type  1   force =    -0.00000005   -0.00000003    0.00633951
     atom    3 type  1   force =    -0.00000014   -0.00000008   -0.00423006
     atom    4 type  1   force =     0.00000000    0.00000000   -0.00232385
     atom    5 type  1   force =    -0.00000005   -0.00000003   -0.00009789
     atom    6 type  1   force =    -0.00000010   -0.00000006    0.00008859
     atom    7 type  1   force =    -0.00000028    0.00000033   -0.00008892
     atom    8 type  1   force =    -0.00000009   -0.00000005    0.00009767
     atom    9 type  1   force =    -0.00000010   -0.00000006    0.00232396
     atom   10 type  1   force =     0.00000000    0.00000000    0.00423037
     atom   11 type  1   force =    -0.00000003   -0.00000002   -0.00633930
     atom   12 type  1   force =    -0.00000005   -0.00000003    0.00030566
     atom   13 type  1   force =    -0.00000016    0.00000021   -0.00030546
     atom   14 type  1   force =    -0.00000036    0.00000021    0.00633952
     atom   15 type  1   force =     0.00000000    0.00000016   -0.00423006
     atom   16 type  1   force =     0.00000050    0.00000008   -0.00232387
     atom   17 type  1   force =    -0.00000035    0.00000020   -0.00009785
     atom   18 type  1   force =     0.00000000    0.00000012    0.00008859
     atom   19 type  1   force =    -0.00000042    0.00000008   -0.00008892
     atom   20 type  1   force =    -0.00000028    0.00000016    0.00009771
     atom   21 type  1   force =     0.00000000    0.00000011    0.00232396
     atom   22 type  1   force =     0.00000021    0.00000010    0.00423027
     atom   23 type  1   force =    -0.00000009    0.00000005   -0.00633931
     atom   24 type  1   force =     0.00000000    0.00000006    0.00030566
     atom   25 type  1   force =    -0.00000026    0.00000003   -0.00030546
     atom   26 type  1   force =     0.00000000    0.00000005    0.00633951
     atom   27 type  1   force =     0.00000020   -0.00000011   -0.00422999
     atom   28 type  1   force =     0.00000019   -0.00000047   -0.00232387
     atom   29 type  1   force =     0.00000000    0.00000005   -0.00009789
     atom   30 type  1   force =     0.00000025   -0.00000014    0.00008854
     atom   31 type  1   force =     0.00000000    0.00000000   -0.00008889
     atom   32 type  1   force =     0.00000000    0.00000010    0.00009767
     atom   33 type  1   force =     0.00000010   -0.00000006    0.00232390
     atom   34 type  1   force =     0.00000002   -0.00000023    0.00423027
     atom   35 type  1   force =     0.00000000    0.00000003   -0.00633930
     atom   36 type  1   force =     0.00000010   -0.00000006    0.00030561
     atom   37 type  1   force =     0.00000010   -0.00000024   -0.00030546
     atom   38 type  1   force =     0.00000000   -0.00000041    0.00633952
     atom   39 type  1   force =     0.00000014   -0.00000008   -0.00423006
     atom   40 type  1   force =     0.00000032    0.00000040   -0.00232387
     atom   41 type  1   force =     0.00000000   -0.00000041   -0.00009785
     atom   42 type  1   force =     0.00000010   -0.00000006    0.00008859
     atom   43 type  1   force =     0.00000000    0.00000000   -0.00008881
     atom   44 type  1   force =     0.00000000   -0.00000033    0.00009771
     atom   45 type  1   force =     0.00000010   -0.00000006    0.00232396
     atom   46 type  1   force =     0.00000019    0.00000013    0.00423027
     atom   47 type  1   force =     0.00000000   -0.00000011   -0.00633931
     atom   48 type  1   force =     0.00000005   -0.00000003    0.00030566
     atom   49 type  1   force =     0.00000000    0.00000000   -0.00030570
     atom   50 type  1   force =     0.00000036    0.00000021    0.00633952
     atom   51 type  1   force =     0.00000039    0.00000023   -0.00422984
     atom   52 type  1   force =     0.00000000    0.00000000   -0.00232375
     atom   53 type  1   force =     0.00000035    0.00000020   -0.00009785
     atom   54 type  1   force =     0.00000048    0.00000028    0.00008839
     atom   55 type  1   force =     0.00000042    0.00000008   -0.00008892
     atom   56 type  1   force =     0.00000028    0.00000016    0.00009771
     atom   57 type  1   force =     0.00000032    0.00000018    0.00232374
     atom   58 type  1   force =     0.00000000    0.00000000    0.00423002
     atom   59 type  1   force =     0.00000009    0.00000005   -0.00633931
     atom   60 type  1   force =     0.00000016    0.00000010    0.00030542
     atom   61 type  1   force =     0.00000026    0.00000003   -0.00030546
     atom   62 type  1   force =     0.00000036   -0.00000021    0.00634000
     atom   63 type  1   force =     0.00000000   -0.00000045   -0.00422984
     atom   64 type  1   force =    -0.00000019   -0.00000047   -0.00232387
     atom   65 type  1   force =     0.00000049   -0.00000028   -0.00009791
     atom   66 type  1   force =     0.00000000   -0.00000055    0.00008839
     atom   67 type  1   force =     0.00000014   -0.00000041   -0.00008892
     atom   68 type  1   force =     0.00000037   -0.00000021    0.00009743
     atom   69 type  1   force =     0.00000000   -0.00000036    0.00232374
     atom   70 type  1   force =    -0.00000002   -0.00000023    0.00423027
     atom   71 type  1   force =     0.00000015   -0.00000008   -0.00633951
     atom   72 type  1   force =     0.00000000   -0.00000019    0.00030542
     atom   73 type  1   force =    -0.00000010   -0.00000024   -0.00030546
     atom   74 type  1   force =     0.00000005   -0.00000003    0.00633951
     atom   75 type  1   force =     0.00000000    0.00000023   -0.00422999
     atom   76 type  1   force =    -0.00000032    0.00000040   -0.00232387
     atom   77 type  1   force =     0.00000005   -0.00000003   -0.00009789
     atom   78 type  1   force =     0.00000000    0.00000029    0.00008854
     atom   79 type  1   force =     0.00000028    0.00000033   -0.00008892
     atom   80 type  1   force =     0.00000009   -0.00000005    0.00009767
     atom   81 type  1   force =     0.00000000    0.00000012    0.00232390
     atom   82 type  1   force =    -0.00000019    0.00000013    0.00423027
     atom   83 type  1   force =     0.00000003   -0.00000002   -0.00633930
     atom   84 type  1   force =     0.00000000    0.00000012    0.00030561
     atom   85 type  1   force =     0.00000016    0.00000021   -0.00030546
     atom   86 type  1   force =     0.00000000    0.00000041    0.00634000
     atom   87 type  1   force =    -0.00000039    0.00000023   -0.00422984
     atom   88 type  1   force =    -0.00000050    0.00000008   -0.00232387
     atom   89 type  1   force =     0.00000000    0.00000057   -0.00009791
     atom   90 type  1   force =    -0.00000048    0.00000028    0.00008839
     atom   91 type  1   force =     0.00000000    0.00000000   -0.00008929
     atom   92 type  1   force =     0.00000000    0.00000043    0.00009743
     atom   93 type  1   force =    -0.00000032    0.00000018    0.00232374
     atom   94 type  1   force =    -0.00000021    0.00000010    0.00423027
     atom   95 type  1   force =     0.00000000    0.00000017   -0.00633951
     atom   96 type  1   force =    -0.00000016    0.00000010    0.00030542
     atom   97 type  1   force =     0.00000000    0.00000000   -0.00030495
     atom   98 type  1   force =    -0.00000036   -0.00000021    0.00634000
     atom   99 type  1   force =    -0.00000020   -0.00000011   -0.00422999
     atom  100 type  1   force =     0.00000000    0.00000000   -0.00232392
     atom  101 type  1   force =    -0.00000049   -0.00000028   -0.00009791
     atom  102 type  1   force =    -0.00000025   -0.00000014    0.00008854
     atom  103 type  1   force =    -0.00000014   -0.00000041   -0.00008892
     atom  104 type  1   force =    -0.00000037   -0.00000021    0.00009743
     atom  105 type  1   force =    -0.00000010   -0.00000006    0.00232390
     atom  106 type  1   force =     0.00000000    0.00000000    0.00423023
     atom  107 type  1   force =    -0.00000015   -0.00000008   -0.00633951
     atom  108 type  1   force =    -0.00000010   -0.00000006    0.00030561

     Total force =     0.033833     Total SCF correction =     0.000144


     Computing stress (Cartesian axis) and pressure

          total   stress  (Ry/bohr**3)                   (kbar)     P=       -4.89
  -0.00003534  -0.00000000  -0.00000000           -5.20       -0.00       -0.00
  -0.00000000  -0.00003534  -0.00000000           -0.00       -5.20       -0.00
   0.00000000   0.00000000  -0.00002912            0.00        0.00       -4.28

     Energy error            =      1.2E-03 Ry
     Gradient error          =      6.3E-03 Ry/Bohr

     number of scf cycles    =   2
     number of bfgs steps    =   1

     energy             old  =   -1555.0491247342 Ry
     energy             new  =   -1555.0503105635 Ry

     CASE: energy            _new < energy            _old


     WARNING: bfgs curvature condition failed, Theta= 0.819
     new trust radius        =       0.0071300519 bohr
     new conv_thr            =       0.0000000006 Ry


ATOMIC_POSITIONS (angstrom)
Li              -0.0000000000       -0.0000000000       14.9996652143
Li               2.4319614544        1.4040936004       16.0000464227
Li               4.8639226524        2.8081870527       16.9808687680
Li               7.2958834680        4.2122802843       17.9758843641
Li               2.4319616479        1.4040937121       18.9712155046
Li               4.8639227277        2.8081870962       19.9643697763
Li               2.4319613680        4.2122808418       20.9569139031
Li               2.4319616237        1.4040936981       21.9500683299
Li               4.8639226351        2.8081870427       22.9453995612
Li               7.2958834680        4.2122802843       23.9404152765
Li               2.4319614697        1.4040936092       24.9212373937
Li               4.8639224043        2.8081869095       25.9216178261
Li               2.4319612676        4.2122805402       14.9996660297
Li               4.8639221882        5.6163737838       16.0000469037
Li               7.2958834680        7.0204667474       16.9808687680
Li               9.7278451144        8.4245601060       17.9758842267
Li               4.8639222346        5.6163737570       18.9712155764
Li               7.2958834680        7.0204666604       19.9643697763
Li               4.8639219352        8.4245601061       20.9569139031
Li               4.8639222685        5.6163737374       21.9500681302
Li               7.2958834680        7.0204667674       22.9453995612
Li               9.7278448201        8.4245602663       23.9404152713
Li               4.8639224170        5.6163736517       24.9212370480
Li               7.2958834680        7.0204670338       25.9216178261
Li               4.8639221462        8.4245603439       14.9996660297
Li               7.2958834680        9.8286536521       16.0000464227
Li               9.7278451320       11.2327471315       16.9808685604
Li              12.1598064258       12.6368406595       17.9758842267
Li               7.2958834680        9.8286534287       18.9712155046
Li               9.7278451824       11.2327471024       19.9643697812
Li               7.2958834680       12.6368408528       20.9569139183
Li               7.2958834680        9.8286534565       21.9500683299
Li               9.7278450778       11.2327471628       22.9453997658
Li              12.1598061398       12.6368408342       23.9404152713
Li               7.2958834680        9.8286536343       24.9212373937
Li               9.7278448625       11.2327472870       25.9216181164
Li               4.8639225895       -0.0000000313       14.9996660297
Li               7.2958834680        1.4040932852       16.0000469037
Li               9.7278442837        2.8081870527       16.9808687680
Li              12.1598056247        4.2122809401       17.9758842267
Li               7.2958834680        1.4040933387       18.9712155764
Li               9.7278442084        2.8081870962       19.9643697763
Li               7.2958834680        4.2122802843       20.9569138765
Li               7.2958834680        1.4040933779       21.9500681302
Li               9.7278443010        2.8081870427       22.9453995612
Li              12.1598056164        4.2122806051       23.9404152713
Li               7.2958834680        1.4040935494       24.9212370480
Li               9.7278445318        2.8081869095       25.9216178261
Li               7.2958834680        4.2122802843       14.9996660940
Li               9.7278447479        5.6163737838       16.0000469037
Li              12.1598059058        7.0204672130       16.9808687873
Li              14.5917669361        8.4245605685       17.9758843400
Li               9.7278447015        5.6163737570       18.9712155764
Li              12.1598058813        7.0204671988       19.9643695214
Li               9.7278450009        8.4245601061       20.9569139031
Li               9.7278446676        5.6163737374       21.9500681302
Li              12.1598058769        7.0204671963       22.9453994745
Li              14.5917669361        8.4245605685       23.9404149235
Li               9.7278445191        5.6163736517       24.9212370480
Li              12.1598058541        7.0204671831       25.9216177915
Li               9.7278447899        8.4245603439       14.9996660297
Li              12.1598061294        9.8286537949       16.0000471008
Li              14.5917669361       11.2327472796       16.9808687873
Li              17.0237274464       12.6368406595       17.9758842267
Li              12.1598063189        9.8286536855       18.9712153807
Li              14.5917669361       11.2327473079       19.9643695214
Li              12.1598063689       12.6368407576       20.9569139031
Li              12.1598062244        9.8286537401       21.9500681933
Li              14.5917669361       11.2327473129       22.9453994745
Li              17.0237277324       12.6368408342       23.9404152713
Li              12.1598059899        9.8286538755       24.9212370118
Li              14.5917669361       11.2327473393       25.9216177915
Li               9.7278443466       -0.0000000313       14.9996660297
Li              12.1598054817        1.4040936004       16.0000464227
Li              14.5917669361        2.8081874426       16.9808685604
Li               2.4319613114        4.2122809401       17.9758842267
Li              12.1598052882        1.4040937121       18.9712155046
Li              14.5917669361        2.8081875009       19.9643697812
Li              12.1598055681        4.2122808418       20.9569139031
Li              12.1598053124        1.4040936981       21.9500683299
Li              14.5917669361        2.8081873801       22.9453997658
Li              17.0237282558        4.2122806051       23.9404152713
Li              12.1598054664        1.4040936092       24.9212373937
Li              14.5917669361        2.8081871315       25.9216181164
Li              12.1598056685        4.2122805402       14.9996660297
Li              14.5917669361        5.6163741156       16.0000471008
Li              17.0237279664        7.0204672130       16.9808687873
Li              19.4556887578        8.4245601060       17.9758842267
Li              14.5917669361        5.6163743344       18.9712153807
Li              17.0237279909        7.0204671988       19.9643695214
Li              14.5917669361        8.4245605685       20.9569138192
Li              14.5917669361        5.6163742253       21.9500681933
Li              17.0237279953        7.0204671963       22.9453994745
Li              19.4556890521        8.4245602663       23.9404152713
Li              14.5917669361        5.6163739546       24.9212370118
Li              17.0237280181        7.0204671831       25.9216177915
Li              14.5917669361        8.4245605685       14.9996664894
Li              17.0237277428        9.8286537949       16.0000471008
Li              19.4556887402       11.2327471315       16.9808685604
Li              21.8876504041       12.6368408528       17.9758840634
Li              17.0237275533        9.8286536855       18.9712153807
Li              19.4556886898       11.2327471024       19.9643697812
Li              17.0237275033       12.6368407576       20.9569139031
Li              17.0237276478        9.8286537401       21.9500681933
Li              19.4556887944       11.2327471628       22.9453997658
Li              21.8876504041       12.6368408528       23.9404156022
Li              17.0237278823        9.8286538755       24.9212370118
Li              19.4556890097       11.2327472870       25.9216181164



     Writing config-only to output data dir /scratch/deepanthpcu/ml/tmp/Lislab/Lislab.save/ :
     XML data file
     NEW-OLD atomic charge density approx. for the potential

     negative rho (up, down):  3.020E-07 0.000E+00

     total cpu time spent up to now is      584.7 secs

     per-process dynamical memory:   119.1 Mb

     Self-consistent Calculation

     iteration #  1     ecut=    60.00 Ry     beta= 0.30
     Davidson diagonalization with overlap
     ethr =  1.00E-06,  avg # of iterations =  3.0

     Threshold (ethr) on eigenvalues was too large:
     Diagonalizing with lowered threshold

     Davidson diagonalization with overlap
     ethr =  7.14E-09,  avg # of iterations =  5.0

     negative rho (up, down):  3.392E-08 0.000E+00

     total cpu time spent up to now is      618.9 secs

     total energy              =   -1555.05156802 Ry
     estimated scf accuracy    <       0.00003977 Ry

     iteration #  2     ecut=    60.00 Ry     beta= 0.30
     Davidson diagonalization with overlap
     ethr =  1.23E-08,  avg # of iterations =  4.8

     negative rho (up, down):  3.453E-08 0.000E+00

     total cpu time spent up to now is      634.5 secs

     total energy              =   -1555.05155656 Ry
     estimated scf accuracy    <       0.00037096 Ry

     iteration #  3     ecut=    60.00 Ry     beta= 0.30
     Davidson diagonalization with overlap
     ethr =  1.23E-08,  avg # of iterations =  4.5

     negative rho (up, down):  1.806E-07 0.000E+00

     total cpu time spent up to now is      649.5 secs

     total energy              =   -1555.05157233 Ry
     estimated scf accuracy    <       0.00014860 Ry

     iteration #  4     ecut=    60.00 Ry     beta= 0.30
     Davidson diagonalization with overlap
     ethr =  1.23E-08,  avg # of iterations =  2.5

     negative rho (up, down):  5.467E-08 0.000E+00

     total cpu time spent up to now is      662.6 secs

     total energy              =   -1555.05157777 Ry
     estimated scf accuracy    <       0.00015006 Ry

     iteration #  5     ecut=    60.00 Ry     beta= 0.30
     Davidson diagonalization with overlap
     ethr =  1.23E-08,  avg # of iterations =  1.0

     negative rho (up, down):  5.381E-08 0.000E+00

     total cpu time spent up to now is      674.6 secs

     total energy              =   -1555.05158090 Ry
     estimated scf accuracy    <       0.00000136 Ry

     iteration #  6     ecut=    60.00 Ry     beta= 0.30
     Davidson diagonalization with overlap
     ethr =  4.21E-10,  avg # of iterations =  4.5

     total cpu time spent up to now is      688.8 secs

     total energy              =   -1555.05158142 Ry
     estimated scf accuracy    <       0.00000063 Ry

     iteration #  7     ecut=    60.00 Ry     beta= 0.30
     Davidson diagonalization with overlap
     ethr =  1.95E-10,  avg # of iterations =  4.0

     total cpu time spent up to now is      703.2 secs

     total energy              =   -1555.05158162 Ry
     estimated scf accuracy    <       0.00000038 Ry

     iteration #  8     ecut=    60.00 Ry     beta= 0.30
     Davidson diagonalization with overlap
     ethr =  1.17E-10,  avg # of iterations =  1.2

     total cpu time spent up to now is      715.4 secs

     total energy              =   -1555.05158174 Ry
     estimated scf accuracy    <       0.00000015 Ry

     iteration #  9     ecut=    60.00 Ry     beta= 0.30
     Davidson diagonalization with overlap
     ethr =  4.50E-11,  avg # of iterations =  4.2

     total cpu time spent up to now is      729.9 secs

     total energy              =   -1555.05158188 Ry
     estimated scf accuracy    <       0.00000011 Ry

     iteration # 10     ecut=    60.00 Ry     beta= 0.30
     Davidson diagonalization with overlap
     ethr =  3.25E-11,  avg # of iterations =  1.0

     total cpu time spent up to now is      742.0 secs

     total energy              =   -1555.05158192 Ry
     estimated scf accuracy    <       0.00000003 Ry

     iteration # 11     ecut=    60.00 Ry     beta= 0.30
     Davidson diagonalization with overlap
     ethr =  1.02E-11,  avg # of iterations =  4.0

     total cpu time spent up to now is      756.3 secs

     total energy              =   -1555.05158199 Ry
     estimated scf accuracy    <       0.00000001 Ry

     iteration # 12     ecut=    60.00 Ry     beta= 0.30
     Davidson diagonalization with overlap
     ethr =  4.14E-12,  avg # of iterations =  1.8

     total cpu time spent up to now is      768.9 secs

     total energy              =   -1555.05158203 Ry
     estimated scf accuracy    <          5.1E-09 Ry

     iteration # 13     ecut=    60.00 Ry     beta= 0.30
     Davidson diagonalization with overlap
     ethr =  1.57E-12,  avg # of iterations =  2.0

     total cpu time spent up to now is      781.7 secs

     End of self-consistent calculation

          k = 0.0000 0.0000 0.0000 (399281 PWs)   bands (ev):

   -49.3543 -49.3543 -49.3543 -49.3543 -49.3543 -49.3542 -49.3542 -49.3542
   -49.3542 -49.3542 -49.3542 -49.3542 -49.3541 -49.3541 -49.3541 -49.3541
   -49.3541 -49.3541 -48.6687 -48.6686 -48.6686 -48.6685 -48.6685 -48.6685
   -48.6685 -48.6685 -48.6685 -48.6685 -48.6685 -48.6685 -48.6685 -48.6685
   -48.6685 -48.6685 -48.6685 -48.6685 -48.3339 -48.3337 -48.3336 -48.3336
   -48.3336 -48.3336 -48.3336 -48.3336 -48.3336 -48.3336 -48.3336 -48.3336
   -48.3335 -48.3335 -48.3335 -48.3335 -48.3335 -48.3335 -48.2887 -48.2865
   -48.2865 -48.2865 -48.2865 -48.2865 -48.2865 -48.2856 -48.2856 -48.2833
   -48.2821 -48.2821 -48.2821 -48.2821 -48.2821 -48.2821 -48.2817 -48.2817
   -48.2684 -48.2676 -48.2676 -48.2676 -48.2676 -48.2676 -48.2676 -48.2651
   -48.2651 -48.2651 -48.2651 -48.2612 -48.2612 -48.2612 -48.2612 -48.2612
   -48.2612 -48.2580 -48.2261 -48.2261 -48.2261 -48.2261 -48.2257 -48.2257
   -48.2257 -48.2257 -48.2257 -48.2257 -48.2257 -48.2257 -48.2257 -48.2257
   -48.2257 -48.2257 -48.2253 -48.2248  -5.1810  -4.7504  -4.4773  -4.4773
    -4.4773  -4.4773  -4.4773  -4.4773  -4.0427  -4.0427  -4.0427  -4.0427
    -4.0427  -4.0427  -4.0211  -3.3086  -3.3086  -3.3086  -3.3086  -3.3086
    -3.3086  -3.0927  -3.0927  -3.0888  -3.0888  -3.0888  -3.0888  -3.0865
    -2.6447  -2.6447  -2.6447  -2.6447  -2.6376  -2.6376  -2.3914  -2.3914
    -2.3914  -2.3914  -2.3914  -2.3914  -2.3506  -2.3506  -2.3506  -2.3506
    -2.3506  -2.3506  -2.1019  -1.9188  -1.9188  -1.9188  -1.9188  -1.9188
    -1.9188  -1.9105  -1.9105  -1.9105  -1.9105  -1.8512  -1.8512  -1.4815
    -1.4815  -1.4815  -1.4815  -1.4815  -1.4815  -1.1693  -1.1693  -1.1693
    -1.1693  -1.1693  -1.1693  -1.1121  -1.1121  -1.1121  -1.1121  -1.0999
    -1.0999  -1.0999  -1.0999  -1.0999  -1.0999  -1.0765  -0.7053  -0.7053
    -0.5615  -0.5615

          k = 0.0000 0.2887 0.0000 (399667 PWs)   bands (ev):

   -49.3544 -49.3544 -49.3543 -49.3543 -49.3543 -49.3543 -49.3543 -49.3543
   -49.3543 -49.3542 -49.3542 -49.3542 -49.3542 -49.3542 -49.3542 -49.3542
   -49.3542 -49.3542 -48.6688 -48.6687 -48.6686 -48.6686 -48.6686 -48.6686
   -48.6686 -48.6686 -48.6686 -48.6686 -48.6685 -48.6685 -48.6685 -48.6685
   -48.6685 -48.6685 -48.6685 -48.6685 -48.3340 -48.3338 -48.3338 -48.3337
   -48.3337 -48.3337 -48.3337 -48.3336 -48.3336 -48.3336 -48.3336 -48.3336
   -48.3336 -48.3336 -48.3336 -48.3336 -48.3336 -48.3336 -48.2886 -48.2873
   -48.2868 -48.2868 -48.2862 -48.2862 -48.2861 -48.2857 -48.2857 -48.2833
   -48.2825 -48.2822 -48.2822 -48.2820 -48.2820 -48.2820 -48.2817 -48.2817
   -48.2685 -48.2680 -48.2677 -48.2677 -48.2673 -48.2673 -48.2672 -48.2661
   -48.2661 -48.2642 -48.2642 -48.2624 -48.2620 -48.2620 -48.2609 -48.2609
   -48.2603 -48.2584 -48.2261 -48.2261 -48.2261 -48.2261 -48.2260 -48.2259
   -48.2259 -48.2259 -48.2257 -48.2257 -48.2256 -48.2256 -48.2256 -48.2256
   -48.2256 -48.2256 -48.2253 -48.2252  -5.1371  -4.7854  -4.7063  -4.6095
    -4.6095  -4.3525  -4.2573  -4.2573  -4.1755  -4.1755  -4.0807  -3.9765
    -3.8217  -3.8217  -3.6448  -3.6197  -3.5597  -3.5597  -3.4417  -3.4417
    -3.1258  -3.1258  -3.0878  -3.0878  -3.0412  -3.0356  -3.0356  -3.0232
    -2.9156  -2.6816  -2.6780  -2.6780  -2.6134  -2.6134  -2.5729  -2.5396
    -2.5396  -2.5045  -2.5045  -2.3741  -2.3741  -2.2380  -2.2380  -2.1466
    -2.1466  -2.0879  -2.0879  -2.0571  -2.0063  -1.9884  -1.9884  -1.8482
    -1.8482  -1.8477  -1.7183  -1.6305  -1.5609  -1.5609  -1.5531  -1.5531
    -1.5310  -1.5310  -1.4882  -1.4882  -1.4199  -1.4199  -1.3300  -1.3300
    -1.2733  -1.2074  -1.2074  -1.2028  -1.2028  -1.1939  -1.1916  -1.0382
    -1.0037  -1.0037  -0.9155  -0.9155  -0.9066  -0.9066  -0.8294  -0.8112
    -0.7335  -0.7039

          k = 0.0000-0.5774 0.0000 (399688 PWs)   bands (ev):

   -49.3544 -49.3544 -49.3544 -49.3544 -49.3543 -49.3543 -49.3543 -49.3543
   -49.3543 -49.3543 -49.3542 -49.3542 -49.3542 -49.3542 -49.3542 -49.3542
   -49.3542 -49.3542 -48.6687 -48.6687 -48.6687 -48.6687 -48.6686 -48.6686
   -48.6686 -48.6686 -48.6686 -48.6686 -48.6686 -48.6686 -48.6685 -48.6685
   -48.6685 -48.6685 -48.6685 -48.6685 -48.3340 -48.3340 -48.3338 -48.3338
   -48.3338 -48.3337 -48.3337 -48.3337 -48.3337 -48.3337 -48.3337 -48.3336
   -48.3336 -48.3335 -48.3335 -48.3335 -48.3335 -48.3335 -48.2882 -48.2882
   -48.2869 -48.2869 -48.2859 -48.2859 -48.2859 -48.2859 -48.2859 -48.2829
   -48.2829 -48.2823 -48.2823 -48.2819 -48.2818 -48.2818 -48.2818 -48.2818
   -48.2683 -48.2683 -48.2678 -48.2678 -48.2670 -48.2668 -48.2668 -48.2668
   -48.2668 -48.2630 -48.2630 -48.2630 -48.2630 -48.2629 -48.2607 -48.2607
   -48.2592 -48.2592 -48.2261 -48.2260 -48.2260 -48.2260 -48.2260 -48.2259
   -48.2259 -48.2259 -48.2259 -48.2259 -48.2256 -48.2256 -48.2256 -48.2256
   -48.2255 -48.2255 -48.2254 -48.2254  -5.0054  -5.0054  -4.6536  -4.6536
    -4.5737  -4.5737  -4.2199  -4.2199  -3.9507  -3.9507  -3.9507  -3.9507
    -3.8426  -3.8426  -3.6001  -3.5936  -3.5135  -3.5135  -3.5135  -3.5135
    -3.4861  -3.4861  -3.1585  -3.1561  -2.9057  -2.9057  -2.9038  -2.9038
    -2.9038  -2.9038  -2.7833  -2.7833  -2.7833  -2.7833  -2.5478  -2.5478
    -2.4500  -2.4500  -2.4500  -2.4500  -2.4418  -2.4009  -1.9691  -1.9691
    -1.9691  -1.9691  -1.9246  -1.9246  -1.8698  -1.8698  -1.8698  -1.8698
    -1.7190  -1.7190  -1.7190  -1.7190  -1.6700  -1.6046  -1.6046  -1.5698
    -1.5698  -1.5549  -1.5549  -1.4813  -1.4813  -1.4813  -1.4813  -1.3613
    -1.3311  -1.1109  -1.1109  -1.1018  -1.1018  -1.0695  -1.0695  -1.0695
    -1.0695  -0.9460  -0.9460  -0.8278  -0.8278  -0.7764  -0.7764  -0.7764
    -0.7764  -0.7744

          k = 0.2500-0.7217 0.0000 (399610 PWs)   bands (ev):

   -49.3544 -49.3544 -49.3543 -49.3543 -49.3543 -49.3543 -49.3543 -49.3542
   -49.3542 -49.3542 -49.3542 -49.3542 -49.3542 -49.3542 -49.3542 -49.3542
   -49.3542 -49.3542 -48.6688 -48.6686 -48.6686 -48.6686 -48.6686 -48.6686
   -48.6686 -48.6686 -48.6686 -48.6686 -48.6685 -48.6685 -48.6685 -48.6685
   -48.6685 -48.6685 -48.6685 -48.6685 -48.3340 -48.3338 -48.3338 -48.3338
   -48.3337 -48.3337 -48.3337 -48.3337 -48.3336 -48.3336 -48.3336 -48.3336
   -48.3336 -48.3336 -48.3336 -48.3336 -48.3335 -48.3335 -48.2883 -48.2875
   -48.2875 -48.2862 -48.2862 -48.2859 -48.2859 -48.2859 -48.2858 -48.2831
   -48.2827 -48.2827 -48.2820 -48.2820 -48.2818 -48.2818 -48.2818 -48.2818
   -48.2683 -48.2680 -48.2680 -48.2673 -48.2673 -48.2669 -48.2669 -48.2668
   -48.2666 -48.2636 -48.2631 -48.2629 -48.2629 -48.2619 -48.2618 -48.2598
   -48.2598 -48.2590 -48.2261 -48.2260 -48.2260 -48.2260 -48.2260 -48.2259
   -48.2258 -48.2258 -48.2258 -48.2258 -48.2257 -48.2257 -48.2255 -48.2255
   -48.2255 -48.2255 -48.2254 -48.2254  -5.0493  -4.8735  -4.8735  -4.6179
    -4.4410  -4.4410  -4.3458  -4.3458  -3.9953  -3.9103  -3.9103  -3.8873
    -3.8174  -3.8174  -3.7088  -3.7088  -3.5578  -3.4730  -3.4672  -3.3852
    -3.3852  -3.2835  -3.2835  -3.1754  -3.1754  -3.0288  -3.0287  -2.9507
    -2.8591  -2.8591  -2.8234  -2.7708  -2.7708  -2.6309  -2.6309  -2.4554
    -2.4523  -2.3129  -2.2763  -2.2763  -2.2676  -2.2298  -2.2298  -2.1231
    -2.1231  -2.0171  -2.0053  -1.9926  -1.9683  -1.8809  -1.8289  -1.8289
    -1.7955  -1.7955  -1.7947  -1.7947  -1.7498  -1.7498  -1.5349  -1.5284
    -1.5284  -1.5234  -1.3494  -1.3494  -1.3470  -1.3470  -1.2860  -1.2766
    -1.2391  -1.2386  -1.2386  -1.2383  -1.2383  -1.0638  -1.0638  -1.0121
    -1.0121  -0.9706  -0.9675  -0.8952  -0.8952  -0.8552  -0.8552  -0.7983
    -0.7518  -0.7518

     the Fermi energy is    -1.7626 ev

!    total energy              =   -1555.05158213 Ry
     estimated scf accuracy    <          2.8E-10 Ry
     smearing contrib. (-TS)   =      -0.01410057 Ry
     internal energy E=F+TS    =   -1555.03748156 Ry

     The total energy is F=E-TS. E is the sum of the following terms:
     one-electron contribution =  -14003.58699119 Ry
     hartree contribution      =    6835.16160290 Ry
     xc contribution           =    -358.97701357 Ry
     ewald contribution        =    5972.36492031 Ry

     convergence has been achieved in  13 iterations

     Forces acting on atoms (cartesian axes, Ry/au):

     atom    1 type  1   force =     0.00000000    0.00000000   -0.00031256
     atom    2 type  1   force =     0.00000002    0.00000001    0.00618318
     atom    3 type  1   force =    -0.00000002   -0.00000001   -0.00411080
     atom    4 type  1   force =    -0.00000000   -0.00000000   -0.00225751
     atom    5 type  1   force =    -0.00000000   -0.00000000   -0.00003613
     atom    6 type  1   force =    -0.00000001   -0.00000001    0.00002759
     atom    7 type  1   force =    -0.00000002    0.00000001   -0.00002755
     atom    8 type  1   force =    -0.00000001   -0.00000001    0.00003618
     atom    9 type  1   force =     0.00000001    0.00000001    0.00225756
     atom   10 type  1   force =     0.00000000    0.00000000    0.00411080
     atom   11 type  1   force =    -0.00000002   -0.00000001   -0.00618318
     atom   12 type  1   force =     0.00000001    0.00000001    0.00031250
     atom   13 type  1   force =    -0.00000002    0.00000004   -0.00031252
     atom   14 type  1   force =    -0.00000007    0.00000004    0.00618322
     atom   15 type  1   force =     0.00000000    0.00000003   -0.00411080
     atom   16 type  1   force =     0.00000004   -0.00000000   -0.00225755
     atom   17 type  1   force =    -0.00000005    0.00000003   -0.00003611
     atom   18 type  1   force =     0.00000000    0.00000002    0.00002759
     atom   19 type  1   force =    -0.00000001    0.00000001   -0.00002755
     atom   20 type  1   force =    -0.00000000    0.00000000    0.00003617
     atom   21 type  1   force =    -0.00000000   -0.00000002    0.00225756
     atom   22 type  1   force =    -0.00000003   -0.00000001    0.00411082
     atom   23 type  1   force =     0.00000003   -0.00000002   -0.00618321
     atom   24 type  1   force =    -0.00000000   -0.00000001    0.00031250
     atom   25 type  1   force =    -0.00000005   -0.00000000   -0.00031252
     atom   26 type  1   force =     0.00000000   -0.00000003    0.00618318
     atom   27 type  1   force =     0.00000004   -0.00000002   -0.00411083
     atom   28 type  1   force =     0.00000002   -0.00000003   -0.00225755
     atom   29 type  1   force =     0.00000000    0.00000000   -0.00003613
     atom   30 type  1   force =     0.00000003   -0.00000002    0.00002758
     atom   31 type  1   force =     0.00000000    0.00000000   -0.00002751
     atom   32 type  1   force =     0.00000000    0.00000002    0.00003618
     atom   33 type  1   force =    -0.00000003    0.00000002    0.00225757
     atom   34 type  1   force =    -0.00000001    0.00000003    0.00411082
     atom   35 type  1   force =     0.00000000    0.00000002   -0.00618318
     atom   36 type  1   force =    -0.00000001    0.00000000    0.00031249
     atom   37 type  1   force =     0.00000003   -0.00000004   -0.00031252
     atom   38 type  1   force =     0.00000000   -0.00000008    0.00618322
     atom   39 type  1   force =     0.00000002   -0.00000001   -0.00411080
     atom   40 type  1   force =     0.00000002    0.00000004   -0.00225755
     atom   41 type  1   force =     0.00000000   -0.00000006   -0.00003611
     atom   42 type  1   force =     0.00000001   -0.00000001    0.00002759
     atom   43 type  1   force =     0.00000000    0.00000000   -0.00002749
     atom   44 type  1   force =     0.00000000   -0.00000000    0.00003617
     atom   45 type  1   force =    -0.00000001    0.00000001    0.00225756
     atom   46 type  1   force =    -0.00000003   -0.00000002    0.00411082
     atom   47 type  1   force =     0.00000000    0.00000004   -0.00618321
     atom   48 type  1   force =    -0.00000001    0.00000001    0.00031250
     atom   49 type  1   force =    -0.00000000   -0.00000000   -0.00031255
     atom   50 type  1   force =     0.00000007    0.00000004    0.00618322
     atom   51 type  1   force =     0.00000004    0.00000002   -0.00411084
     atom   52 type  1   force =     0.00000000    0.00000000   -0.00225761
     atom   53 type  1   force =     0.00000005    0.00000003   -0.00003611
     atom   54 type  1   force =     0.00000002    0.00000001    0.00002754
     atom   55 type  1   force =     0.00000001    0.00000001   -0.00002755
     atom   56 type  1   force =     0.00000000    0.00000000    0.00003617
     atom   57 type  1   force =    -0.00000004   -0.00000002    0.00225752
     atom   58 type  1   force =     0.00000000    0.00000000    0.00411079
     atom   59 type  1   force =    -0.00000003   -0.00000002   -0.00618321
     atom   60 type  1   force =    -0.00000002   -0.00000001    0.00031251
     atom   61 type  1   force =     0.00000005   -0.00000000   -0.00031252
     atom   62 type  1   force =     0.00000006   -0.00000004    0.00618321
     atom   63 type  1   force =     0.00000000   -0.00000004   -0.00411084
     atom   64 type  1   force =    -0.00000002   -0.00000003   -0.00225755
     atom   65 type  1   force =     0.00000002   -0.00000001   -0.00003617
     atom   66 type  1   force =     0.00000000   -0.00000002    0.00002754
     atom   67 type  1   force =    -0.00000000   -0.00000002   -0.00002755
     atom   68 type  1   force =    -0.00000002    0.00000001    0.00003610
     atom   69 type  1   force =     0.00000000    0.00000005    0.00225752
     atom   70 type  1   force =     0.00000001    0.00000003    0.00411082
     atom   71 type  1   force =    -0.00000007    0.00000004   -0.00618320
     atom   72 type  1   force =     0.00000000    0.00000002    0.00031251
     atom   73 type  1   force =    -0.00000003   -0.00000004   -0.00031252
     atom   74 type  1   force =    -0.00000002    0.00000001    0.00618318
     atom   75 type  1   force =     0.00000000    0.00000004   -0.00411083
     atom   76 type  1   force =    -0.00000002    0.00000004   -0.00225755
     atom   77 type  1   force =     0.00000000   -0.00000000   -0.00003613
     atom   78 type  1   force =     0.00000000    0.00000003    0.00002758
     atom   79 type  1   force =     0.00000002    0.00000001   -0.00002755
     atom   80 type  1   force =     0.00000001   -0.00000001    0.00003618
     atom   81 type  1   force =     0.00000000   -0.00000003    0.00225757
     atom   82 type  1   force =     0.00000003   -0.00000002    0.00411082
     atom   83 type  1   force =     0.00000002   -0.00000001   -0.00618318
     atom   84 type  1   force =     0.00000000   -0.00000001    0.00031249
     atom   85 type  1   force =     0.00000002    0.00000004   -0.00031252
     atom   86 type  1   force =     0.00000000    0.00000007    0.00618321
     atom   87 type  1   force =    -0.00000004    0.00000002   -0.00411084
     atom   88 type  1   force =    -0.00000004   -0.00000000   -0.00225755
     atom   89 type  1   force =     0.00000000    0.00000003   -0.00003617
     atom   90 type  1   force =    -0.00000002    0.00000001    0.00002754
     atom   91 type  1   force =     0.00000000    0.00000000   -0.00002764
     atom   92 type  1   force =     0.00000000   -0.00000002    0.00003610
     atom   93 type  1   force =     0.00000004   -0.00000002    0.00225752
     atom   94 type  1   force =     0.00000003   -0.00000001    0.00411082
     atom   95 type  1   force =     0.00000000   -0.00000009   -0.00618320
     atom   96 type  1   force =     0.00000002   -0.00000001    0.00031251
     atom   97 type  1   force =     0.00000000    0.00000000   -0.00031248
     atom   98 type  1   force =    -0.00000006   -0.00000004    0.00618321
     atom   99 type  1   force =    -0.00000004   -0.00000002   -0.00411083
     atom  100 type  1   force =     0.00000000    0.00000000   -0.00225757
     atom  101 type  1   force =    -0.00000002   -0.00000001   -0.00003617
     atom  102 type  1   force =    -0.00000003   -0.00000002    0.00002758
     atom  103 type  1   force =     0.00000000   -0.00000002   -0.00002755
     atom  104 type  1   force =     0.00000002    0.00000001    0.00003610
     atom  105 type  1   force =     0.00000003    0.00000002    0.00225757
     atom  106 type  1   force =     0.00000000    0.00000000    0.00411086
     atom  107 type  1   force =     0.00000007    0.00000004   -0.00618320
     atom  108 type  1   force =     0.00000001    0.00000000    0.00031249

     Total force =     0.032953     Total SCF correction =     0.000024


     Computing stress (Cartesian axis) and pressure

          total   stress  (Ry/bohr**3)                   (kbar)     P=       -4.89
  -0.00003534  -0.00000000  -0.00000000           -5.20       -0.00       -0.00
  -0.00000000  -0.00003534  -0.00000000           -0.00       -5.20       -0.00
   0.00000000   0.00000000  -0.00002903            0.00        0.00       -4.27

     Energy error            =      1.3E-03 Ry
     Gradient error          =      6.2E-03 Ry/Bohr

     number of scf cycles    =   3
     number of bfgs steps    =   2

     energy             old  =   -1555.0503105635 Ry
     energy             new  =   -1555.0515821309 Ry

     CASE: energy            _new < energy            _old

     new trust radius        =       0.0106950778 bohr
     new conv_thr            =       0.0000000006 Ry


ATOMIC_POSITIONS (angstrom)
Li              -0.0000000000       -0.0000000000       14.9993884109
Li               2.4319616873        1.4040937348       16.0057056467
Li               4.8639229317        2.8081872140       16.9770964134
Li               7.2958834680        4.2122802843       17.9738125748
Li               2.4319619814        1.4040939047       18.9711454908
Li               4.8639230387        2.8081872758       19.9644319009
Li               2.4319616585        4.2122809982       20.9568519105
Li               2.4319619580        1.4040938912       21.9501385201
Li               4.8639229073        2.8081871999       22.9474713778
Li               7.2958834680        4.2122802843       23.9441875795
Li               2.4319616689        1.4040937242       24.9155780410
Li               4.8639225025        2.8081869662       25.9218940521
Li               2.4319614183        4.2122806075       14.9993896820
Li               4.8639222736        5.6163737345       16.0057064471
Li               7.2958834680        7.0204664248       16.9770964134
Li               9.7278451466        8.4245597669       17.9738123310
Li               4.8639223626        5.6163736831       18.9711456026
Li               7.2958834680        7.0204663012       19.9644319009
Li               4.8639219450        8.4245597763       20.9568519105
Li               4.8639224101        5.6163736556       21.9501381592
Li               7.2958834680        7.0204664530       22.9474713778
Li               9.7278447887        8.4245600098       23.9441876401
Li               4.8639225643        5.6163735666       24.9155774565
Li               7.2958834680        7.0204669204       25.9218940521
Li               4.8639221633        8.4245601797       14.9993896820
Li               7.2958834680        9.8286533832       16.0057056467
Li               9.7278453604       11.2327469996       16.9770960121
Li              12.1598067356       12.6368408011       17.9738123310
Li               7.2958834680        9.8286530435       18.9711454908
Li               9.7278454028       11.2327469751       19.9644319388
Li               7.2958834680       12.6368408528       20.9568519549
Li               7.2958834680        9.8286530705       21.9501385201
Li               9.7278452751       11.2327470488       22.9474717592
Li              12.1598063463       12.6368409896       23.9441876401
Li               7.2958834680        9.8286534044       24.9155780410
Li               9.7278449453       11.2327472393       25.9218945475
Li               4.8639227230        0.0000000656       14.9993896820
Li               7.2958834680        1.4040933837       16.0057064471
Li               9.7278440044        2.8081872140       16.9770964134
Li              12.1598053471        4.2122811376       17.9738123310
Li               7.2958834680        1.4040934865       18.9711456026
Li               9.7278438974        2.8081872758       19.9644319009
Li               7.2958834680        4.2122802843       20.9568518527
Li               7.2958834680        1.4040935414       21.9501381592
Li               9.7278440288        2.8081871999       22.9474713778
Li              12.1598053785        4.2122807062       23.9441876401
Li               7.2958834680        1.4040937194       24.9155774565
Li               9.7278444336        2.8081869662       25.9218940521
Li               7.2958834680        4.2122802843       14.9993899044
Li               9.7278446625        5.6163737345       16.0057064471
Li              12.1598057760        7.0204671380       16.9770962815
Li              14.5917669361        8.4245605685       17.9738123945
Li               9.7278445735        5.6163736831       18.9711456026
Li              12.1598056691        7.0204670763       19.9644315725
Li               9.7278449911        8.4245597763       20.9568519105
Li               9.7278445260        5.6163736556       21.9501381592
Li              12.1598057139        7.0204671022       22.9474713406
Li              14.5917669361        8.4245605685       23.9441872028
Li               9.7278443718        5.6163735666       24.9155774565
Li              12.1598057856        7.0204671436       25.9218941502
Li               9.7278447728        8.4245601797       14.9993896820
Li              12.1598061814        9.8286537649       16.0057064716
Li              14.5917669361       11.2327474295       16.9770962815
Li              17.0237271366       12.6368408011       17.9738123310
Li              12.1598063742        9.8286536536       18.9711452730
Li              14.5917669361       11.2327475529       19.9644315725
Li              12.1598066496       12.6368409311       20.9568519105
Li              12.1598062588        9.8286537202       21.9501383748
Li              14.5917669361       11.2327475012       22.9474713406
Li              17.0237275259       12.6368409896       23.9441876401
Li              12.1598059723        9.8286538856       24.9155775342
Li              14.5917669361       11.2327474183       25.9218941502
Li               9.7278442131        0.0000000656       14.9993896820
Li              12.1598052488        1.4040937348       16.0057056467
Li              14.5917669361        2.8081877064       16.9770960121
Li               2.4319615890        4.2122811376       17.9738123310
Li              12.1598049547        1.4040939047       18.9711454908
Li              14.5917669361        2.8081877553       19.9644319388
Li              12.1598052776        4.2122809982       20.9568519105
Li              12.1598049781        1.4040938912       21.9501385201
Li              14.5917669361        2.8081876079       22.9474717592
Li              17.0237284937        4.2122807062       23.9441876401
Li              12.1598052672        1.4040937242       24.9155780410
Li              14.5917669361        2.8081872271       25.9218945475
Li              12.1598055178        4.2122806075       14.9993896820
Li              14.5917669361        5.6163741756       16.0057064716
Li              17.0237280962        7.0204671380       16.9770962815
Li              19.4556887256        8.4245597669       17.9738123310
Li              14.5917669361        5.6163743983       18.9711452730
Li              17.0237282031        7.0204670763       19.9644315725
Li              14.5917669361        8.4245605685       20.9568519281
Li              14.5917669361        5.6163742650       21.9501383748
Li              17.0237281583        7.0204671022       22.9474713406
Li              19.4556890835        8.4245600098       23.9441876401
Li              14.5917669361        5.6163739343       24.9155775342
Li              17.0237280866        7.0204671436       25.9218941502
Li              14.5917669361        8.4245605685       14.9993901488
Li              17.0237276908        9.8286537649       16.0057064716
Li              19.4556885118       11.2327469996       16.9770960121
Li              21.8876504041       12.6368408528       17.9738120839
Li              17.0237274980        9.8286536536       18.9711452730
Li              19.4556884694       11.2327469751       19.9644319388
Li              17.0237272226       12.6368409311       20.9568519105
Li              17.0237276134        9.8286537202       21.9501383748
Li              19.4556885971       11.2327470488       22.9474717592
Li              21.8876504041       12.6368408528       23.9441882358
Li              17.0237278999        9.8286538856       24.9155775342
Li              19.4556889269       11.2327472393       25.9218945475



     Writing config-only to output data dir /scratch/deepanthpcu/ml/tmp/Lislab/Lislab.save/ :
     XML data file
     NEW-OLD atomic charge density approx. for the potential

     negative rho (up, down):  1.541E-06 0.000E+00

     total cpu time spent up to now is      796.8 secs

     per-process dynamical memory:   119.1 Mb

     Self-consistent Calculation

     iteration #  1     ecut=    60.00 Ry     beta= 0.30
     Davidson diagonalization with overlap
     ethr =  1.00E-06,  avg # of iterations =  3.0

     Threshold (ethr) on eigenvalues was too large:
     Diagonalizing with lowered threshold

     Davidson diagonalization with overlap
     ethr =  1.39E-08,  avg # of iterations =  5.0

     negative rho (up, down):  3.756E-07 0.000E+00

     total cpu time spent up to now is      830.9 secs

     total energy              =   -1555.05340258 Ry
     estimated scf accuracy    <       0.00007214 Ry

     iteration #  2     ecut=    60.00 Ry     beta= 0.30
     Davidson diagonalization with overlap
     ethr =  2.23E-08,  avg # of iterations =  5.0

     negative rho (up, down):  3.439E-07 0.000E+00

     total cpu time spent up to now is      846.3 secs

     total energy              =   -1555.05338614 Ry
     estimated scf accuracy    <       0.00050185 Ry

     iteration #  3     ecut=    60.00 Ry     beta= 0.30
     Davidson diagonalization with overlap
     ethr =  2.23E-08,  avg # of iterations =  4.5

     negative rho (up, down):  8.413E-08 0.000E+00

     total cpu time spent up to now is      861.3 secs

     total energy              =   -1555.05342144 Ry
     estimated scf accuracy    <       0.00001872 Ry

     iteration #  4     ecut=    60.00 Ry     beta= 0.30
     Davidson diagonalization with overlap
     ethr =  5.78E-09,  avg # of iterations =  1.2

     negative rho (up, down):  4.002E-08 0.000E+00

     total cpu time spent up to now is      873.5 secs

     total energy              =   -1555.05342238 Ry
     estimated scf accuracy    <       0.00000190 Ry

     iteration #  5     ecut=    60.00 Ry     beta= 0.30
     Davidson diagonalization with overlap
     ethr =  5.87E-10,  avg # of iterations =  5.2

     total cpu time spent up to now is      888.6 secs

     total energy              =   -1555.05342209 Ry
     estimated scf accuracy    <       0.00006935 Ry

     iteration #  6     ecut=    60.00 Ry     beta= 0.30
     Davidson diagonalization with overlap
     ethr =  5.87E-10,  avg # of iterations =  5.2

     total cpu time spent up to now is      903.2 secs

     total energy              =   -1555.05342356 Ry
     estimated scf accuracy    <       0.00000113 Ry

     iteration #  7     ecut=    60.00 Ry     beta= 0.30
     Davidson diagonalization with overlap
     ethr =  3.49E-10,  avg # of iterations =  1.8

     total cpu time spent up to now is      915.8 secs

     total energy              =   -1555.05342368 Ry
     estimated scf accuracy    <       0.00000035 Ry

     iteration #  8     ecut=    60.00 Ry     beta= 0.30
     Davidson diagonalization with overlap
     ethr =  1.07E-10,  avg # of iterations =  4.8

     total cpu time spent up to now is      931.0 secs

     total energy              =   -1555.05342392 Ry
     estimated scf accuracy    <       0.00000050 Ry

     iteration #  9     ecut=    60.00 Ry     beta= 0.30
     Davidson diagonalization with overlap
     ethr =  1.07E-10,  avg # of iterations =  1.0

     total cpu time spent up to now is      943.0 secs

     total energy              =   -1555.05342399 Ry
     estimated scf accuracy    <       0.00000043 Ry

     iteration # 10     ecut=    60.00 Ry     beta= 0.30
     Davidson diagonalization with overlap
     ethr =  1.07E-10,  avg # of iterations =  2.0

     total cpu time spent up to now is      956.1 secs

     total energy              =   -1555.05342409 Ry
     estimated scf accuracy    <          2.1E-09 Ry

     iteration # 11     ecut=    60.00 Ry     beta= 0.30
     Davidson diagonalization with overlap
     ethr =  6.44E-13,  avg # of iterations =  6.0

     total cpu time spent up to now is      974.7 secs

     total energy              =   -1555.05342413 Ry
     estimated scf accuracy    <       0.00000001 Ry

     iteration # 12     ecut=    60.00 Ry     beta= 0.30
     Davidson diagonalization with overlap
     ethr =  6.44E-13,  avg # of iterations =  4.0

     total cpu time spent up to now is      989.5 secs

     total energy              =   -1555.05342417 Ry
     estimated scf accuracy    <          1.3E-09 Ry

     iteration # 13     ecut=    60.00 Ry     beta= 0.30
     Davidson diagonalization with overlap
     ethr =  3.90E-13,  avg # of iterations =  2.5

     total cpu time spent up to now is     1003.1 secs

     End of self-consistent calculation

          k = 0.0000 0.0000 0.0000 (399281 PWs)   bands (ev):

   -49.3525 -49.3525 -49.3525 -49.3525 -49.3525 -49.3524 -49.3524 -49.3524
   -49.3524 -49.3524 -49.3524 -49.3524 -49.3523 -49.3523 -49.3523 -49.3523
   -49.3523 -49.3523 -48.6628 -48.6627 -48.6627 -48.6626 -48.6626 -48.6626
   -48.6626 -48.6626 -48.6626 -48.6626 -48.6626 -48.6626 -48.6626 -48.6626
   -48.6626 -48.6626 -48.6626 -48.6626 -48.3317 -48.3315 -48.3315 -48.3314
   -48.3314 -48.3314 -48.3314 -48.3314 -48.3314 -48.3314 -48.3314 -48.3314
   -48.3314 -48.3314 -48.3314 -48.3314 -48.3314 -48.3314 -48.2878 -48.2855
   -48.2855 -48.2855 -48.2855 -48.2855 -48.2855 -48.2845 -48.2845 -48.2823
   -48.2811 -48.2811 -48.2811 -48.2811 -48.2811 -48.2811 -48.2807 -48.2807
   -48.2682 -48.2675 -48.2675 -48.2675 -48.2675 -48.2675 -48.2675 -48.2651
   -48.2651 -48.2651 -48.2651 -48.2611 -48.2611 -48.2611 -48.2611 -48.2611
   -48.2611 -48.2579 -48.2231 -48.2231 -48.2231 -48.2231 -48.2227 -48.2227
   -48.2227 -48.2227 -48.2227 -48.2227 -48.2227 -48.2227 -48.2227 -48.2226
   -48.2226 -48.2226 -48.2223 -48.2218  -5.1793  -4.7494  -4.4756  -4.4756
    -4.4756  -4.4756  -4.4756  -4.4756  -4.0419  -4.0419  -4.0419  -4.0419
    -4.0419  -4.0419  -4.0193  -3.3070  -3.3070  -3.3070  -3.3070  -3.3070
    -3.3070  -3.0910  -3.0910  -3.0871  -3.0871  -3.0871  -3.0871  -3.0847
    -2.6444  -2.6444  -2.6444  -2.6444  -2.6369  -2.6369  -2.3896  -2.3896
    -2.3896  -2.3896  -2.3896  -2.3896  -2.3486  -2.3486  -2.3486  -2.3486
    -2.3486  -2.3486  -2.1001  -1.9184  -1.9184  -1.9184  -1.9184  -1.9184
    -1.9184  -1.9091  -1.9091  -1.9091  -1.9091  -1.8503  -1.8503  -1.4799
    -1.4799  -1.4799  -1.4799  -1.4799  -1.4799  -1.1681  -1.1681  -1.1681
    -1.1681  -1.1681  -1.1681  -1.1083  -1.1083  -1.1083  -1.1083  -1.0983
    -1.0983  -1.0983  -1.0983  -1.0983  -1.0983  -1.0721  -0.7036  -0.7036
    -0.5619  -0.5619

          k = 0.0000 0.2887 0.0000 (399667 PWs)   bands (ev):

   -49.3526 -49.3526 -49.3526 -49.3526 -49.3525 -49.3525 -49.3525 -49.3525
   -49.3525 -49.3524 -49.3524 -49.3524 -49.3524 -49.3524 -49.3524 -49.3524
   -49.3524 -49.3524 -48.6629 -48.6628 -48.6627 -48.6627 -48.6627 -48.6627
   -48.6627 -48.6627 -48.6627 -48.6627 -48.6626 -48.6626 -48.6626 -48.6626
   -48.6626 -48.6626 -48.6626 -48.6626 -48.3318 -48.3317 -48.3316 -48.3316
   -48.3315 -48.3315 -48.3315 -48.3315 -48.3315 -48.3315 -48.3315 -48.3315
   -48.3315 -48.3314 -48.3314 -48.3314 -48.3314 -48.3314 -48.2877 -48.2863
   -48.2858 -48.2858 -48.2852 -48.2852 -48.2851 -48.2847 -48.2847 -48.2823
   -48.2815 -48.2812 -48.2812 -48.2810 -48.2810 -48.2810 -48.2807 -48.2807
   -48.2683 -48.2679 -48.2676 -48.2676 -48.2672 -48.2672 -48.2671 -48.2660
   -48.2660 -48.2641 -48.2641 -48.2624 -48.2619 -48.2619 -48.2608 -48.2608
   -48.2602 -48.2583 -48.2231 -48.2231 -48.2231 -48.2231 -48.2230 -48.2229
   -48.2229 -48.2229 -48.2227 -48.2227 -48.2226 -48.2226 -48.2226 -48.2226
   -48.2226 -48.2226 -48.2224 -48.2222  -5.1354  -4.7837  -4.7053  -4.6078
    -4.6078  -4.3516  -4.2556  -4.2556  -4.1747  -4.1747  -4.0790  -3.9748
    -3.8209  -3.8209  -3.6441  -3.6180  -3.5580  -3.5580  -3.4401  -3.4401
    -3.1252  -3.1252  -3.0862  -3.0862  -3.0394  -3.0339  -3.0339  -3.0215
    -2.9142  -2.6796  -2.6763  -2.6763  -2.6130  -2.6130  -2.5723  -2.5379
    -2.5379  -2.5024  -2.5024  -2.3728  -2.3728  -2.2375  -2.2375  -2.1444
    -2.1444  -2.0876  -2.0876  -2.0552  -2.0043  -1.9867  -1.9867  -1.8469
    -1.8469  -1.8459  -1.7165  -1.6288  -1.5594  -1.5594  -1.5517  -1.5517
    -1.5307  -1.5307  -1.4855  -1.4855  -1.4182  -1.4182  -1.3283  -1.3283
    -1.2716  -1.2060  -1.2060  -1.2011  -1.2011  -1.1923  -1.1912  -1.0338
    -1.0010  -1.0010  -0.9139  -0.9139  -0.9068  -0.9068  -0.8266  -0.8095
    -0.7339  -0.7038

          k = 0.0000-0.5774 0.0000 (399688 PWs)   bands (ev):

   -49.3526 -49.3526 -49.3526 -49.3526 -49.3525 -49.3525 -49.3525 -49.3525
   -49.3525 -49.3525 -49.3524 -49.3524 -49.3524 -49.3524 -49.3524 -49.3524
   -49.3524 -49.3524 -48.6628 -48.6628 -48.6628 -48.6628 -48.6627 -48.6627
   -48.6627 -48.6627 -48.6627 -48.6627 -48.6627 -48.6627 -48.6626 -48.6626
   -48.6626 -48.6626 -48.6626 -48.6626 -48.3318 -48.3318 -48.3316 -48.3316
   -48.3316 -48.3315 -48.3315 -48.3315 -48.3315 -48.3315 -48.3315 -48.3314
   -48.3314 -48.3314 -48.3314 -48.3314 -48.3314 -48.3314 -48.2872 -48.2872
   -48.2859 -48.2859 -48.2849 -48.2849 -48.2849 -48.2849 -48.2849 -48.2819
   -48.2819 -48.2813 -48.2813 -48.2809 -48.2808 -48.2808 -48.2808 -48.2808
   -48.2681 -48.2681 -48.2676 -48.2676 -48.2669 -48.2667 -48.2667 -48.2667
   -48.2667 -48.2629 -48.2629 -48.2629 -48.2629 -48.2628 -48.2607 -48.2607
   -48.2591 -48.2591 -48.2231 -48.2230 -48.2230 -48.2230 -48.2230 -48.2229
   -48.2229 -48.2229 -48.2229 -48.2229 -48.2226 -48.2226 -48.2226 -48.2226
   -48.2225 -48.2225 -48.2224 -48.2224  -5.0037  -5.0037  -4.6519  -4.6519
    -4.5727  -4.5727  -4.2190  -4.2190  -3.9490  -3.9490  -3.9490  -3.9490
    -3.8409  -3.8409  -3.5984  -3.5920  -3.5129  -3.5129  -3.5129  -3.5129
    -3.4844  -3.4844  -3.1578  -3.1557  -2.9038  -2.9038  -2.9021  -2.9021
    -2.9021  -2.9021  -2.7819  -2.7819  -2.7819  -2.7819  -2.5457  -2.5457
    -2.4494  -2.4494  -2.4494  -2.4494  -2.4400  -2.3999  -1.9674  -1.9674
    -1.9674  -1.9674  -1.9228  -1.9228  -1.8677  -1.8677  -1.8677  -1.8677
    -1.7172  -1.7172  -1.7172  -1.7172  -1.6666  -1.6028  -1.6028  -1.5680
    -1.5680  -1.5533  -1.5533  -1.4812  -1.4812  -1.4812  -1.4812  -1.3598
    -1.3295  -1.1109  -1.1109  -1.1016  -1.1016  -1.0677  -1.0677  -1.0677
    -1.0677  -0.9421  -0.9421  -0.8258  -0.8258  -0.7753  -0.7753  -0.7753
    -0.7753  -0.7720

          k = 0.2500-0.7217 0.0000 (399610 PWs)   bands (ev):

   -49.3526 -49.3526 -49.3525 -49.3525 -49.3525 -49.3525 -49.3525 -49.3525
   -49.3525 -49.3524 -49.3524 -49.3524 -49.3524 -49.3524 -49.3524 -49.3524
   -49.3524 -49.3524 -48.6629 -48.6627 -48.6627 -48.6627 -48.6627 -48.6627
   -48.6627 -48.6627 -48.6627 -48.6627 -48.6626 -48.6626 -48.6626 -48.6626
   -48.6626 -48.6626 -48.6626 -48.6626 -48.3318 -48.3316 -48.3316 -48.3316
   -48.3315 -48.3315 -48.3315 -48.3315 -48.3315 -48.3315 -48.3315 -48.3315
   -48.3315 -48.3314 -48.3314 -48.3314 -48.3313 -48.3313 -48.2874 -48.2866
   -48.2866 -48.2852 -48.2852 -48.2849 -48.2849 -48.2849 -48.2848 -48.2821
   -48.2817 -48.2817 -48.2810 -48.2810 -48.2808 -48.2808 -48.2808 -48.2808
   -48.2681 -48.2679 -48.2679 -48.2672 -48.2672 -48.2668 -48.2668 -48.2667
   -48.2665 -48.2635 -48.2630 -48.2628 -48.2628 -48.2618 -48.2618 -48.2597
   -48.2597 -48.2589 -48.2231 -48.2230 -48.2230 -48.2230 -48.2230 -48.2229
   -48.2228 -48.2228 -48.2228 -48.2228 -48.2227 -48.2227 -48.2225 -48.2225
   -48.2225 -48.2225 -48.2224 -48.2224  -5.0476  -4.8718  -4.8718  -4.6169
    -4.4401  -4.4401  -4.3441  -4.3441  -3.9936  -3.9096  -3.9096  -3.8855
    -3.8156  -3.8156  -3.7071  -3.7071  -3.5572  -3.4713  -3.4655  -3.3846
    -3.3846  -3.2818  -3.2818  -3.1738  -3.1738  -3.0284  -3.0281  -2.9489
    -2.8586  -2.8586  -2.8220  -2.7688  -2.7688  -2.6294  -2.6294  -2.4537
    -2.4506  -2.3112  -2.2745  -2.2745  -2.2666  -2.2276  -2.2276  -2.1219
    -2.1219  -2.0154  -2.0049  -1.9924  -1.9665  -1.8784  -1.8279  -1.8279
    -1.7937  -1.7937  -1.7937  -1.7937  -1.7467  -1.7467  -1.5348  -1.5267
    -1.5267  -1.5199  -1.3479  -1.3479  -1.3467  -1.3467  -1.2847  -1.2753
    -1.2372  -1.2369  -1.2369  -1.2365  -1.2365  -1.0626  -1.0626  -1.0123
    -1.0123  -0.9691  -0.9632  -0.8929  -0.8929  -0.8526  -0.8526  -0.7974
    -0.7511  -0.7511

     the Fermi energy is    -1.7610 ev

!    total energy              =   -1555.05342426 Ry
     estimated scf accuracy    <          2.9E-10 Ry
     smearing contrib. (-TS)   =      -0.01405473 Ry
     internal energy E=F+TS    =   -1555.03936953 Ry

     The total energy is F=E-TS. E is the sum of the following terms:
     one-electron contribution =  -14004.39834149 Ry
     hartree contribution      =    6835.59343489 Ry
     xc contribution           =    -358.98112301 Ry
     ewald contribution        =    5972.74666007 Ry

     convergence has been achieved in  13 iterations

     Forces acting on atoms (cartesian axes, Ry/au):

     atom    1 type  1   force =     0.00000000    0.00000000   -0.00032308
     atom    2 type  1   force =    -0.00000002   -0.00000001    0.00594787
     atom    3 type  1   force =    -0.00000005   -0.00000003   -0.00393485
     atom    4 type  1   force =     0.00000000    0.00000000   -0.00215660
     atom    5 type  1   force =    -0.00000004   -0.00000002    0.00005453
     atom    6 type  1   force =    -0.00000002   -0.00000001   -0.00006059
     atom    7 type  1   force =     0.00000002   -0.00000002    0.00006044
     atom    8 type  1   force =    -0.00000001   -0.00000000   -0.00005461
     atom    9 type  1   force =     0.00000000    0.00000000    0.00215664
     atom   10 type  1   force =    -0.00000000   -0.00000000    0.00393496
     atom   11 type  1   force =    -0.00000001   -0.00000001   -0.00594775
     atom   12 type  1   force =     0.00000002    0.00000001    0.00032315
     atom   13 type  1   force =    -0.00000002   -0.00000000   -0.00032314
     atom   14 type  1   force =    -0.00000001    0.00000000    0.00594784
     atom   15 type  1   force =     0.00000000    0.00000006   -0.00393485
     atom   16 type  1   force =    -0.00000000    0.00000003   -0.00215662
     atom   17 type  1   force =    -0.00000001    0.00000000    0.00005454
     atom   18 type  1   force =     0.00000000    0.00000003   -0.00006059
     atom   19 type  1   force =     0.00000002   -0.00000001    0.00006044
     atom   20 type  1   force =    -0.00000000    0.00000000   -0.00005456
     atom   21 type  1   force =    -0.00000000   -0.00000000    0.00215664
     atom   22 type  1   force =    -0.00000001   -0.00000002    0.00393496
     atom   23 type  1   force =     0.00000001   -0.00000000   -0.00594778
     atom   24 type  1   force =     0.00000000   -0.00000003    0.00032315
     atom   25 type  1   force =    -0.00000001    0.00000002   -0.00032314
     atom   26 type  1   force =     0.00000000    0.00000003    0.00594787
     atom   27 type  1   force =    -0.00000003    0.00000002   -0.00393483
     atom   28 type  1   force =    -0.00000003   -0.00000001   -0.00215662
     atom   29 type  1   force =     0.00000000    0.00000004    0.00005453
     atom   30 type  1   force =    -0.00000003    0.00000002   -0.00006063
     atom   31 type  1   force =    -0.00000000   -0.00000000    0.00006038
     atom   32 type  1   force =    -0.00000000    0.00000001   -0.00005461
     atom   33 type  1   force =    -0.00000002    0.00000001    0.00215665
     atom   34 type  1   force =     0.00000001    0.00000002    0.00393496
     atom   35 type  1   force =     0.00000000    0.00000001   -0.00594775
     atom   36 type  1   force =     0.00000001   -0.00000001    0.00032317
     atom   37 type  1   force =    -0.00000001   -0.00000001   -0.00032314
     atom   38 type  1   force =     0.00000000   -0.00000001    0.00594784
     atom   39 type  1   force =     0.00000005   -0.00000003   -0.00393485
     atom   40 type  1   force =     0.00000003   -0.00000002   -0.00215662
     atom   41 type  1   force =     0.00000000   -0.00000001    0.00005454
     atom   42 type  1   force =     0.00000002   -0.00000001   -0.00006059
     atom   43 type  1   force =     0.00000000    0.00000000    0.00006046
     atom   44 type  1   force =    -0.00000000   -0.00000000   -0.00005456
     atom   45 type  1   force =    -0.00000000    0.00000000    0.00215664
     atom   46 type  1   force =    -0.00000002    0.00000000    0.00393496
     atom   47 type  1   force =     0.00000000    0.00000001   -0.00594778
     atom   48 type  1   force =    -0.00000002    0.00000001    0.00032315
     atom   49 type  1   force =    -0.00000000   -0.00000000   -0.00032312
     atom   50 type  1   force =     0.00000001    0.00000000    0.00594784
     atom   51 type  1   force =     0.00000002    0.00000001   -0.00393484
     atom   52 type  1   force =     0.00000000    0.00000000   -0.00215666
     atom   53 type  1   force =     0.00000001    0.00000000    0.00005454
     atom   54 type  1   force =    -0.00000001   -0.00000000   -0.00006059
     atom   55 type  1   force =    -0.00000002   -0.00000001    0.00006044
     atom   56 type  1   force =     0.00000000    0.00000000   -0.00005456
     atom   57 type  1   force =    -0.00000003   -0.00000002    0.00215666
     atom   58 type  1   force =     0.00000000    0.00000000    0.00393499
     atom   59 type  1   force =    -0.00000001   -0.00000000   -0.00594778
     atom   60 type  1   force =    -0.00000001   -0.00000001    0.00032315
     atom   61 type  1   force =     0.00000001    0.00000002   -0.00032314
     atom   62 type  1   force =     0.00000000   -0.00000000    0.00594779
     atom   63 type  1   force =     0.00000000   -0.00000002   -0.00393484
     atom   64 type  1   force =     0.00000003   -0.00000001   -0.00215662
     atom   65 type  1   force =    -0.00000001    0.00000001    0.00005452
     atom   66 type  1   force =     0.00000000    0.00000001   -0.00006059
     atom   67 type  1   force =    -0.00000000    0.00000003    0.00006044
     atom   68 type  1   force =    -0.00000002    0.00000001   -0.00005459
     atom   69 type  1   force =     0.00000000    0.00000003    0.00215666
     atom   70 type  1   force =    -0.00000001    0.00000002    0.00393496
     atom   71 type  1   force =    -0.00000001    0.00000001   -0.00594777
     atom   72 type  1   force =     0.00000000    0.00000001    0.00032315
     atom   73 type  1   force =     0.00000001   -0.00000001   -0.00032314
     atom   74 type  1   force =     0.00000002   -0.00000001    0.00594787
     atom   75 type  1   force =     0.00000000   -0.00000004   -0.00393483
     atom   76 type  1   force =    -0.00000003   -0.00000002   -0.00215662
     atom   77 type  1   force =     0.00000004   -0.00000002    0.00005453
     atom   78 type  1   force =     0.00000000   -0.00000004   -0.00006063
     atom   79 type  1   force =    -0.00000002   -0.00000002    0.00006044
     atom   80 type  1   force =     0.00000001   -0.00000000   -0.00005461
     atom   81 type  1   force =     0.00000000   -0.00000003    0.00215665
     atom   82 type  1   force =     0.00000002    0.00000000    0.00393496
     atom   83 type  1   force =     0.00000001   -0.00000001   -0.00594775
     atom   84 type  1   force =     0.00000000    0.00000001    0.00032317
     atom   85 type  1   force =     0.00000002   -0.00000000   -0.00032314
     atom   86 type  1   force =     0.00000000    0.00000000    0.00594779
     atom   87 type  1   force =    -0.00000002    0.00000001   -0.00393484
     atom   88 type  1   force =     0.00000000    0.00000003   -0.00215662
     atom   89 type  1   force =     0.00000000   -0.00000002    0.00005452
     atom   90 type  1   force =     0.00000001   -0.00000000   -0.00006059
     atom   91 type  1   force =     0.00000000    0.00000000    0.00006041
     atom   92 type  1   force =     0.00000000   -0.00000002   -0.00005459
     atom   93 type  1   force =     0.00000003   -0.00000002    0.00215666
     atom   94 type  1   force =     0.00000001   -0.00000002    0.00393496
     atom   95 type  1   force =     0.00000000   -0.00000001   -0.00594777
     atom   96 type  1   force =     0.00000001   -0.00000001    0.00032315
     atom   97 type  1   force =     0.00000000    0.00000000   -0.00032318
     atom   98 type  1   force =    -0.00000000   -0.00000000    0.00594779
     atom   99 type  1   force =     0.00000003    0.00000002   -0.00393483
     atom  100 type  1   force =     0.00000000    0.00000000   -0.00215665
     atom  101 type  1   force =     0.00000001    0.00000001    0.00005452
     atom  102 type  1   force =     0.00000003    0.00000002   -0.00006063
     atom  103 type  1   force =     0.00000000    0.00000003    0.00006044
     atom  104 type  1   force =     0.00000002    0.00000001   -0.00005459
     atom  105 type  1   force =     0.00000002    0.00000001    0.00215665
     atom  106 type  1   force =     0.00000000    0.00000000    0.00393495
     atom  107 type  1   force =     0.00000001    0.00000001   -0.00594777
     atom  108 type  1   force =    -0.00000001   -0.00000001    0.00032317

     Total force =     0.031642     Total SCF correction =     0.000021


     Computing stress (Cartesian axis) and pressure

          total   stress  (Ry/bohr**3)                   (kbar)     P=       -4.88
  -0.00003534  -0.00000000   0.00000000           -5.20       -0.00        0.00
  -0.00000000  -0.00003534   0.00000000           -0.00       -5.20        0.00
   0.00000000   0.00000000  -0.00002890            0.00        0.00       -4.25

     Energy error            =      1.8E-03 Ry
     Gradient error          =      5.9E-03 Ry/Bohr

     number of scf cycles    =   4
     number of bfgs steps    =   3

     energy             old  =   -1555.0515821309 Ry
     energy             new  =   -1555.0534242640 Ry

     CASE: energy            _new < energy            _old

     new trust radius        =       0.0160426167 bohr
     new conv_thr            =       0.0000000006 Ry


ATOMIC_POSITIONS (angstrom)
Li              -0.0000000000       -0.0000000000       14.9989548308
Li               2.4319619973        1.4040939138       16.0141945774
Li               4.8639233279        2.8081874427       16.9714537877
Li               7.2958834680        4.2122802843       17.9707171473
Li               2.4319624524        1.4040941766       18.9711136192
Li               4.8639234959        2.8081875397       19.9644537071
Li               2.4319621226        4.2122812149       20.9568301477
Li               2.4319624648        1.4040941838       21.9501705512
Li               4.8639233050        2.8081874295       22.9505668442
Li               7.2958834680        4.2122802843       23.9498302175
Li               2.4319619716        1.4040938990       24.9070890076
Li               4.8639226592        2.8081870566       25.9223268720
Li               2.4319616446        4.2122806705       14.9989567087
Li               4.8639224479        5.6163736339       16.0141958091
Li               7.2958834680        7.0204659674       16.9714537877
Li               9.7278451633        8.4245592871       17.9707167559
Li               4.8639225843        5.6163735551       18.9711137875
Li               7.2958834680        7.0204657733       19.9644537071
Li               4.8639219894        8.4245592661       20.9568301477
Li               4.8639226236        5.6163735324       21.9501699977
Li               7.2958834680        7.0204659938       22.9505668442
Li               9.7278447623        8.4245596200       23.9498303655
Li               4.8639227642        5.6163734512       24.9070880693
Li               7.2958834680        7.0204667395       25.9223268720
Li               4.8639222219        8.4245599523       14.9989567087
Li               7.2958834680        9.8286530251       16.0141945774
Li               9.7278456469       11.2327468342       16.9714531393
Li              12.1598071594       12.6368410265       17.9707167559
Li               7.2958834680        9.8286524996       18.9711136192
Li               9.7278456855       11.2327468119       19.9644537690
Li               7.2958834680       12.6368408528       20.9568301482
Li               7.2958834680        9.8286524853       21.9501705512
Li               9.7278455768       11.2327468746       22.9505674883
Li              12.1598066706       12.6368412073       23.9498303655
Li               7.2958834680        9.8286530548       24.9070890076
Li               9.7278450846       11.2327471588       25.9223276910
Li               4.8639228907        0.0000002300       14.9989567087
Li               7.2958834680        1.4040935850       16.0141958091
Li               9.7278436082        2.8081874427       16.9714537877
Li              12.1598049400        4.2122813920       17.9707167559
Li               7.2958834680        1.4040937425       18.9711137875
Li               9.7278434402        2.8081875397       19.9644537071
Li               7.2958834680        4.2122802843       20.9568300102
Li               7.2958834680        1.4040937879       21.9501699977
Li               9.7278436311        2.8081874295       22.9505668442
Li              12.1598050278        4.2122808782       23.9498303655
Li               7.2958834680        1.4040939503       24.9070880693
Li               9.7278442769        2.8081870566       25.9223268720
Li               7.2958834680        4.2122802843       14.9989572080
Li               9.7278444882        5.6163736339       16.0141958091
Li              12.1598055678        7.0204670178       16.9714534676
Li              14.5917669361        8.4245605685       17.9707167603
Li               9.7278443518        5.6163735551       18.9711137875
Li              12.1598053318        7.0204668816       19.9644533041
Li               9.7278449467        8.4245592661       20.9568301477
Li               9.7278443125        5.6163735324       21.9501699977
Li              12.1598054796        7.0204669669       22.9505669252
Li              14.5917669361        8.4245605685       23.9498298402
Li               9.7278441719        5.6163734512       24.9070880693
Li              12.1598056904        7.0204670886       25.9223271595
Li               9.7278447142        8.4245599523       14.9989567087
Li              12.1598062140        9.8286537461       16.0141955412
Li              14.5917669361       11.2327476699       16.9714534676
Li              17.0237267128       12.6368410265       17.9707167559
Li              12.1598064307        9.8286536210       18.9711132851
Li              14.5917669361       11.2327479423       19.9644533041
Li              12.1598070693       12.6368412247       20.9568301477
Li              12.1598063143        9.8286536882       21.9501704684
Li              14.5917669361       11.2327477716       22.9505669252
Li              17.0237272016       12.6368412073       23.9498303655
Li              12.1598059981        9.8286538707       24.9070883100
Li              14.5917669361       11.2327475283       25.9223271595
Li               9.7278440454        0.0000002300       14.9989567087
Li              12.1598049388        1.4040939138       16.0141945774
Li              14.5917669361        2.8081880373       16.9714531393
Li               2.4319619961        4.2122813920       17.9707167559
Li              12.1598044837        1.4040941766       18.9711136192
Li              14.5917669361        2.8081880818       19.9644537690
Li              12.1598048135        4.2122812149       20.9568301477
Li              12.1598044713        1.4040941838       21.9501705512
Li              14.5917669361        2.8081879563       22.9505674883
Li              17.0237288444        4.2122808782       23.9498303655
Li              12.1598049645        1.4040938990       24.9070890076
Li              14.5917669361        2.8081873879       25.9223276910
Li              12.1598052915        4.2122806705       14.9989567087
Li              14.5917669361        5.6163742133       16.0141955412
Li              17.0237283044        7.0204670178       16.9714534676
Li              19.4556887089        8.4245592871       17.9707167559
Li              14.5917669361        5.6163744635       18.9711132851
Li              17.0237285404        7.0204668816       19.9644533041
Li              14.5917669361        8.4245605685       20.9568303601
Li              14.5917669361        5.6163743291       21.9501704684
Li              17.0237283926        7.0204669669       22.9505669252
Li              19.4556891099        8.4245596200       23.9498303655
Li              14.5917669361        5.6163739640       24.9070883100
Li              17.0237281818        7.0204670886       25.9223271595
Li              14.5917669361        8.4245605685       14.9989571213
Li              17.0237276582        9.8286537461       16.0141955412
Li              19.4556882253       11.2327468342       16.9714531393
Li              21.8876504041       12.6368408528       17.9707163738
Li              17.0237274415        9.8286536210       18.9711132851
Li              19.4556881867       11.2327468119       19.9644537690
Li              17.0237268029       12.6368412247       20.9568301477
Li              17.0237275579        9.8286536882       21.9501704684
Li              19.4556882954       11.2327468746       22.9505674883
Li              21.8876504041       12.6368408528       23.9498313243
Li              17.0237278741        9.8286538707       24.9070883100
Li              19.4556887876       11.2327471588       25.9223276910



     Writing config-only to output data dir /scratch/deepanthpcu/ml/tmp/Lislab/Lislab.save/ :
     XML data file
     NEW-OLD atomic charge density approx. for the potential

     negative rho (up, down):  4.734E-06 0.000E+00

     total cpu time spent up to now is     1018.6 secs

     per-process dynamical memory:   119.1 Mb

     Self-consistent Calculation

     iteration #  1     ecut=    60.00 Ry     beta= 0.30
     Davidson diagonalization with overlap
     ethr =  1.00E-06,  avg # of iterations =  3.0

     Threshold (ethr) on eigenvalues was too large:
     Diagonalizing with lowered threshold

     Davidson diagonalization with overlap
     ethr =  3.45E-08,  avg # of iterations =  4.8

     negative rho (up, down):  1.748E-06 0.000E+00

     total cpu time spent up to now is     1053.2 secs

     total energy              =   -1555.05600251 Ry
     estimated scf accuracy    <       0.00014829 Ry

     iteration #  2     ecut=    60.00 Ry     beta= 0.30
     Davidson diagonalization with overlap
     ethr =  4.58E-08,  avg # of iterations =  5.0

     negative rho (up, down):  1.643E-06 0.000E+00

     total cpu time spent up to now is     1068.8 secs

     total energy              =   -1555.05597202 Ry
     estimated scf accuracy    <       0.00093345 Ry

     iteration #  3     ecut=    60.00 Ry     beta= 0.30
     Davidson diagonalization with overlap
     ethr =  4.58E-08,  avg # of iterations =  4.8

     negative rho (up, down):  9.109E-07 0.000E+00

     total cpu time spent up to now is     1083.4 secs

     total energy              =   -1555.05603684 Ry
     estimated scf accuracy    <       0.00006001 Ry

     iteration #  4     ecut=    60.00 Ry     beta= 0.30
     Davidson diagonalization with overlap
     ethr =  1.85E-08,  avg # of iterations =  4.0

     negative rho (up, down):  1.972E-06 0.000E+00

     total cpu time spent up to now is     1097.1 secs

     total energy              =   -1555.05602376 Ry
     estimated scf accuracy    <       0.00092158 Ry

     iteration #  5     ecut=    60.00 Ry     beta= 0.30
     Davidson diagonalization with overlap
     ethr =  1.85E-08,  avg # of iterations =  2.5

     total cpu time spent up to now is     1110.2 secs

     total energy              =   -1555.05604299 Ry
     estimated scf accuracy    <       0.00000227 Ry

     iteration #  6     ecut=    60.00 Ry     beta= 0.30
     Davidson diagonalization with overlap
     ethr =  7.00E-10,  avg # of iterations =  5.2

     total cpu time spent up to now is     1126.4 secs

     total energy              =   -1555.05604354 Ry
     estimated scf accuracy    <       0.00000294 Ry

     iteration #  7     ecut=    60.00 Ry     beta= 0.30
     Davidson diagonalization with overlap
     ethr =  7.00E-10,  avg # of iterations =  1.8

     total cpu time spent up to now is     1139.0 secs

     total energy              =   -1555.05604362 Ry
     estimated scf accuracy    <       0.00000125 Ry

     iteration #  8     ecut=    60.00 Ry     beta= 0.30
     Davidson diagonalization with overlap
     ethr =  3.86E-10,  avg # of iterations =  4.0

     total cpu time spent up to now is     1153.3 secs

     total energy              =   -1555.05604394 Ry
     estimated scf accuracy    <       0.00000089 Ry

     iteration #  9     ecut=    60.00 Ry     beta= 0.30
     Davidson diagonalization with overlap
     ethr =  2.73E-10,  avg # of iterations =  1.0

     total cpu time spent up to now is     1165.5 secs

     total energy              =   -1555.05604402 Ry
     estimated scf accuracy    <       0.00000057 Ry

     iteration # 10     ecut=    60.00 Ry     beta= 0.30
     Davidson diagonalization with overlap
     ethr =  1.76E-10,  avg # of iterations =  2.0

     total cpu time spent up to now is     1178.4 secs

     total energy              =   -1555.05604411 Ry
     estimated scf accuracy    <       0.00000002 Ry

     iteration # 11     ecut=    60.00 Ry     beta= 0.30
     Davidson diagonalization with overlap
     ethr =  7.31E-12,  avg # of iterations =  5.8

     total cpu time spent up to now is     1195.4 secs

     total energy              =   -1555.05604418 Ry
     estimated scf accuracy    <       0.00000012 Ry

     iteration # 12     ecut=    60.00 Ry     beta= 0.30
     Davidson diagonalization with overlap
     ethr =  7.31E-12,  avg # of iterations =  3.0

     total cpu time spent up to now is     1209.3 secs

     total energy              =   -1555.05604425 Ry
     estimated scf accuracy    <          7.2E-09 Ry

     iteration # 13     ecut=    60.00 Ry     beta= 0.30
     Davidson diagonalization with overlap
     ethr =  2.23E-12,  avg # of iterations =  4.0

     total cpu time spent up to now is     1223.4 secs

     End of self-consistent calculation

          k = 0.0000 0.0000 0.0000 (399281 PWs)   bands (ev):

   -49.3498 -49.3498 -49.3498 -49.3498 -49.3498 -49.3498 -49.3498 -49.3498
   -49.3498 -49.3498 -49.3498 -49.3497 -49.3497 -49.3497 -49.3497 -49.3497
   -49.3497 -49.3497 -48.6540 -48.6540 -48.6540 -48.6538 -48.6538 -48.6538
   -48.6538 -48.6538 -48.6538 -48.6538 -48.6538 -48.6538 -48.6538 -48.6538
   -48.6538 -48.6538 -48.6538 -48.6538 -48.3285 -48.3283 -48.3283 -48.3283
   -48.3283 -48.3283 -48.3283 -48.3283 -48.3283 -48.3283 -48.3283 -48.3283
   -48.3282 -48.3282 -48.3282 -48.3282 -48.3282 -48.3282 -48.2864 -48.2840
   -48.2840 -48.2840 -48.2840 -48.2840 -48.2840 -48.2830 -48.2830 -48.2808
   -48.2797 -48.2797 -48.2797 -48.2796 -48.2796 -48.2796 -48.2791 -48.2791
   -48.2679 -48.2673 -48.2672 -48.2672 -48.2672 -48.2672 -48.2672 -48.2649
   -48.2649 -48.2649 -48.2649 -48.2610 -48.2610 -48.2610 -48.2610 -48.2610
   -48.2610 -48.2576 -48.2186 -48.2186 -48.2186 -48.2186 -48.2182 -48.2182
   -48.2182 -48.2182 -48.2182 -48.2182 -48.2182 -48.2182 -48.2182 -48.2182
   -48.2181 -48.2181 -48.2179 -48.2173  -5.1767  -4.7479  -4.4730  -4.4730
    -4.4730  -4.4730  -4.4730  -4.4730  -4.0406  -4.0406  -4.0406  -4.0406
    -4.0406  -4.0406  -4.0167  -3.3046  -3.3046  -3.3046  -3.3046  -3.3046
    -3.3046  -3.0884  -3.0884  -3.0847  -3.0847  -3.0847  -3.0847  -3.0820
    -2.6439  -2.6439  -2.6439  -2.6439  -2.6358  -2.6358  -2.3868  -2.3868
    -2.3868  -2.3868  -2.3868  -2.3868  -2.3455  -2.3455  -2.3455  -2.3455
    -2.3455  -2.3455  -2.0973  -1.9178  -1.9178  -1.9178  -1.9178  -1.9178
    -1.9178  -1.9069  -1.9069  -1.9069  -1.9069  -1.8490  -1.8490  -1.4774
    -1.4774  -1.4774  -1.4774  -1.4774  -1.4774  -1.1663  -1.1663  -1.1663
    -1.1663  -1.1663  -1.1663  -1.1027  -1.1027  -1.1027  -1.1027  -1.0958
    -1.0958  -1.0958  -1.0958  -1.0958  -1.0958  -1.0654  -0.7011  -0.7011
    -0.5625  -0.5625

          k = 0.0000 0.2887 0.0000 (399667 PWs)   bands (ev):

   -49.3499 -49.3499 -49.3499 -49.3499 -49.3499 -49.3499 -49.3498 -49.3498
   -49.3498 -49.3498 -49.3498 -49.3498 -49.3498 -49.3498 -49.3497 -49.3497
   -49.3497 -49.3497 -48.6542 -48.6540 -48.6540 -48.6540 -48.6540 -48.6540
   -48.6540 -48.6539 -48.6539 -48.6539 -48.6539 -48.6539 -48.6539 -48.6539
   -48.6538 -48.6538 -48.6538 -48.6538 -48.3286 -48.3285 -48.3284 -48.3284
   -48.3284 -48.3284 -48.3283 -48.3283 -48.3283 -48.3283 -48.3283 -48.3283
   -48.3283 -48.3282 -48.3282 -48.3282 -48.3282 -48.3282 -48.2864 -48.2849
   -48.2844 -48.2844 -48.2838 -48.2838 -48.2836 -48.2832 -48.2832 -48.2808
   -48.2800 -48.2797 -48.2797 -48.2795 -48.2795 -48.2795 -48.2792 -48.2792
   -48.2679 -48.2676 -48.2673 -48.2673 -48.2670 -48.2670 -48.2670 -48.2659
   -48.2659 -48.2640 -48.2640 -48.2622 -48.2618 -48.2618 -48.2606 -48.2606
   -48.2600 -48.2581 -48.2186 -48.2186 -48.2186 -48.2186 -48.2185 -48.2184
   -48.2184 -48.2184 -48.2182 -48.2182 -48.2182 -48.2181 -48.2181 -48.2181
   -48.2181 -48.2181 -48.2179 -48.2177  -5.1329  -4.7812  -4.7038  -4.6052
    -4.6052  -4.3502  -4.2531  -4.2531  -4.1734  -4.1734  -4.0765  -3.9721
    -3.8198  -3.8198  -3.6430  -3.6155  -3.5554  -3.5554  -3.4376  -3.4376
    -3.1244  -3.1244  -3.0839  -3.0839  -3.0367  -3.0314  -3.0314  -3.0189
    -2.9120  -2.6766  -2.6738  -2.6738  -2.6124  -2.6124  -2.5714  -2.5353
    -2.5353  -2.4992  -2.4992  -2.3707  -2.3707  -2.2367  -2.2367  -2.1412
    -2.1412  -2.0871  -2.0871  -2.0525  -2.0012  -1.9841  -1.9841  -1.8451
    -1.8451  -1.8430  -1.7139  -1.6263  -1.5570  -1.5570  -1.5495  -1.5495
    -1.5301  -1.5301  -1.4814  -1.4814  -1.4156  -1.4156  -1.3258  -1.3258
    -1.2692  -1.2039  -1.2039  -1.1986  -1.1986  -1.1907  -1.1899  -1.0272
    -0.9970  -0.9970  -0.9117  -0.9117  -0.9070  -0.9070  -0.8225  -0.8070
    -0.7346  -0.7038

          k = 0.0000-0.5774 0.0000 (399688 PWs)   bands (ev):

   -49.3499 -49.3499 -49.3499 -49.3499 -49.3498 -49.3498 -49.3498 -49.3498
   -49.3498 -49.3498 -49.3498 -49.3498 -49.3498 -49.3498 -49.3498 -49.3498
   -49.3498 -49.3498 -48.6541 -48.6541 -48.6540 -48.6540 -48.6540 -48.6539
   -48.6539 -48.6539 -48.6539 -48.6539 -48.6539 -48.6539 -48.6539 -48.6539
   -48.6539 -48.6539 -48.6539 -48.6539 -48.3286 -48.3286 -48.3284 -48.3284
   -48.3284 -48.3283 -48.3283 -48.3283 -48.3283 -48.3283 -48.3283 -48.3282
   -48.3282 -48.3282 -48.3282 -48.3282 -48.3282 -48.3282 -48.2859 -48.2859
   -48.2845 -48.2845 -48.2834 -48.2834 -48.2834 -48.2834 -48.2834 -48.2805
   -48.2805 -48.2798 -48.2798 -48.2794 -48.2793 -48.2793 -48.2793 -48.2793
   -48.2678 -48.2678 -48.2674 -48.2674 -48.2667 -48.2666 -48.2666 -48.2666
   -48.2666 -48.2628 -48.2628 -48.2628 -48.2628 -48.2627 -48.2605 -48.2605
   -48.2590 -48.2590 -48.2186 -48.2185 -48.2185 -48.2185 -48.2185 -48.2184
   -48.2184 -48.2184 -48.2184 -48.2184 -48.2182 -48.2182 -48.2181 -48.2181
   -48.2180 -48.2180 -48.2179 -48.2179  -5.0011  -5.0011  -4.6494  -4.6494
    -4.5713  -4.5713  -4.2177  -4.2177  -3.9464  -3.9464  -3.9464  -3.9464
    -3.8383  -3.8383  -3.5958  -3.5895  -3.5119  -3.5119  -3.5119  -3.5119
    -3.4820  -3.4820  -3.1566  -3.1551  -2.9009  -2.9009  -2.8996  -2.8996
    -2.8995  -2.8995  -2.7798  -2.7798  -2.7798  -2.7798  -2.5426  -2.5426
    -2.4487  -2.4487  -2.4487  -2.4487  -2.4373  -2.3984  -1.9648  -1.9648
    -1.9648  -1.9648  -1.9202  -1.9202  -1.8647  -1.8647  -1.8647  -1.8647
    -1.7144  -1.7144  -1.7144  -1.7144  -1.6615  -1.6002  -1.6002  -1.5653
    -1.5653  -1.5509  -1.5509  -1.4808  -1.4808  -1.4808  -1.4808  -1.3575
    -1.3270  -1.1108  -1.1108  -1.1012  -1.1012  -1.0650  -1.0650  -1.0650
    -1.0650  -0.9363  -0.9363  -0.8227  -0.8227  -0.7737  -0.7737  -0.7737
    -0.7737  -0.7684

          k = 0.2500-0.7217 0.0000 (399610 PWs)   bands (ev):

   -49.3499 -49.3499 -49.3498 -49.3498 -49.3498 -49.3498 -49.3498 -49.3498
   -49.3498 -49.3498 -49.3498 -49.3498 -49.3498 -49.3498 -49.3497 -49.3497
   -49.3497 -49.3497 -48.6541 -48.6540 -48.6540 -48.6540 -48.6540 -48.6539
   -48.6539 -48.6539 -48.6539 -48.6539 -48.6539 -48.6539 -48.6538 -48.6538
   -48.6538 -48.6538 -48.6538 -48.6538 -48.3286 -48.3284 -48.3284 -48.3284
   -48.3283 -48.3283 -48.3283 -48.3283 -48.3283 -48.3283 -48.3283 -48.3283
   -48.3283 -48.3282 -48.3282 -48.3282 -48.3281 -48.3281 -48.2860 -48.2852
   -48.2852 -48.2838 -48.2838 -48.2834 -48.2834 -48.2834 -48.2833 -48.2806
   -48.2802 -48.2802 -48.2795 -48.2795 -48.2793 -48.2793 -48.2793 -48.2793
   -48.2678 -48.2676 -48.2676 -48.2670 -48.2670 -48.2667 -48.2667 -48.2665
   -48.2663 -48.2634 -48.2629 -48.2627 -48.2627 -48.2616 -48.2616 -48.2596
   -48.2596 -48.2587 -48.2186 -48.2185 -48.2185 -48.2185 -48.2185 -48.2184
   -48.2183 -48.2183 -48.2183 -48.2183 -48.2182 -48.2182 -48.2180 -48.2180
   -48.2180 -48.2180 -48.2180 -48.2179  -5.0450  -4.8692  -4.8692  -4.6155
    -4.4387  -4.4387  -4.3416  -4.3416  -3.9910  -3.9084  -3.9084  -3.8829
    -3.8131  -3.8131  -3.7046  -3.7046  -3.5561  -3.4687  -3.4630  -3.3836
    -3.3836  -3.2793  -3.2793  -3.1715  -3.1715  -3.0278  -3.0270  -2.9461
    -2.8579  -2.8579  -2.8198  -2.7659  -2.7659  -2.6271  -2.6271  -2.4512
    -2.4480  -2.3087  -2.2720  -2.2720  -2.2650  -2.2243  -2.2243  -2.1200
    -2.1200  -2.0128  -2.0043  -1.9920  -1.9638  -1.8748  -1.8265  -1.8265
    -1.7921  -1.7921  -1.7911  -1.7911  -1.7422  -1.7422  -1.5346  -1.5242
    -1.5242  -1.5148  -1.3471  -1.3471  -1.3450  -1.3450  -1.2827  -1.2732
    -1.2344  -1.2344  -1.2344  -1.2338  -1.2338  -1.0608  -1.0608  -1.0125
    -1.0125  -0.9669  -0.9568  -0.8897  -0.8897  -0.8486  -0.8486  -0.7960
    -0.7501  -0.7501

     the Fermi energy is    -1.7586 ev

!    total energy              =   -1555.05604437 Ry
     estimated scf accuracy    <          4.4E-10 Ry
     smearing contrib. (-TS)   =      -0.01398425 Ry
     internal energy E=F+TS    =   -1555.04206012 Ry

     The total energy is F=E-TS. E is the sum of the following terms:
     one-electron contribution =  -14005.61891122 Ry
     hartree contribution      =    6836.24386518 Ry
     xc contribution           =    -358.98729018 Ry
     ewald contribution        =    5973.32027611 Ry

     convergence has been achieved in  13 iterations

     Forces acting on atoms (cartesian axes, Ry/au):

     atom    1 type  1   force =    -0.00000000   -0.00000000   -0.00033777
     atom    2 type  1   force =    -0.00000002   -0.00000001    0.00559340
     atom    3 type  1   force =    -0.00000002   -0.00000001   -0.00367559
     atom    4 type  1   force =     0.00000000    0.00000000   -0.00200296
     atom    5 type  1   force =     0.00000004    0.00000003    0.00018841
     atom    6 type  1   force =     0.00000005    0.00000003   -0.00018724
     atom    7 type  1   force =     0.00000005    0.00000011    0.00018729
     atom    8 type  1   force =     0.00000010    0.00000006   -0.00018851
     atom    9 type  1   force =     0.00000011    0.00000006    0.00200295
     atom   10 type  1   force =    -0.00000000   -0.00000000    0.00367557
     atom   11 type  1   force =     0.00000011    0.00000007   -0.00559329
     atom   12 type  1   force =     0.00000007    0.00000004    0.00033782
     atom   13 type  1   force =     0.00000001    0.00000002   -0.00033783
     atom   14 type  1   force =    -0.00000001    0.00000001    0.00559340
     atom   15 type  1   force =     0.00000000    0.00000002   -0.00367559
     atom   16 type  1   force =    -0.00000001   -0.00000003   -0.00200296
     atom   17 type  1   force =     0.00000001   -0.00000001    0.00018851
     atom   18 type  1   force =     0.00000000   -0.00000005   -0.00018724
     atom   19 type  1   force =    -0.00000007   -0.00000010    0.00018729
     atom   20 type  1   force =     0.00000003   -0.00000002   -0.00018844
     atom   21 type  1   force =     0.00000000   -0.00000013    0.00200295
     atom   22 type  1   force =     0.00000007   -0.00000011    0.00367555
     atom   23 type  1   force =     0.00000001   -0.00000000   -0.00559339
     atom   24 type  1   force =     0.00000000   -0.00000008    0.00033782
     atom   25 type  1   force =    -0.00000001   -0.00000002   -0.00033783
     atom   26 type  1   force =     0.00000000    0.00000003    0.00559340
     atom   27 type  1   force =    -0.00000003    0.00000002   -0.00367560
     atom   28 type  1   force =     0.00000002    0.00000002   -0.00200296
     atom   29 type  1   force =     0.00000000   -0.00000005    0.00018841
     atom   30 type  1   force =     0.00000006   -0.00000003   -0.00018731
     atom   31 type  1   force =     0.00000000    0.00000000    0.00018720
     atom   32 type  1   force =     0.00000000   -0.00000012   -0.00018851
     atom   33 type  1   force =     0.00000011   -0.00000007    0.00200290
     atom   34 type  1   force =     0.00000013   -0.00000001    0.00367555
     atom   35 type  1   force =     0.00000000   -0.00000013   -0.00559329
     atom   36 type  1   force =     0.00000007   -0.00000004    0.00033783
     atom   37 type  1   force =     0.00000003    0.00000000   -0.00033783
     atom   38 type  1   force =     0.00000000   -0.00000001    0.00559340
     atom   39 type  1   force =     0.00000002   -0.00000001   -0.00367559
     atom   40 type  1   force =    -0.00000003    0.00000001   -0.00200296
     atom   41 type  1   force =     0.00000000    0.00000001    0.00018851
     atom   42 type  1   force =    -0.00000005    0.00000003   -0.00018724
     atom   43 type  1   force =     0.00000000    0.00000000    0.00018732
     atom   44 type  1   force =     0.00000000    0.00000003   -0.00018844
     atom   45 type  1   force =    -0.00000011    0.00000006    0.00200295
     atom   46 type  1   force =    -0.00000006    0.00000012    0.00367555
     atom   47 type  1   force =     0.00000000    0.00000001   -0.00559339
     atom   48 type  1   force =    -0.00000007    0.00000004    0.00033782
     atom   49 type  1   force =    -0.00000000   -0.00000000   -0.00033785
     atom   50 type  1   force =     0.00000001    0.00000001    0.00559340
     atom   51 type  1   force =     0.00000000    0.00000000   -0.00367559
     atom   52 type  1   force =    -0.00000000   -0.00000000   -0.00200296
     atom   53 type  1   force =    -0.00000001   -0.00000001    0.00018851
     atom   54 type  1   force =     0.00000003    0.00000002   -0.00018721
     atom   55 type  1   force =     0.00000007   -0.00000010    0.00018729
     atom   56 type  1   force =    -0.00000003   -0.00000002   -0.00018844
     atom   57 type  1   force =     0.00000001    0.00000000    0.00200296
     atom   58 type  1   force =     0.00000000    0.00000000    0.00367559
     atom   59 type  1   force =    -0.00000001   -0.00000000   -0.00559339
     atom   60 type  1   force =    -0.00000001   -0.00000000    0.00033779
     atom   61 type  1   force =     0.00000001   -0.00000002   -0.00033783
     atom   62 type  1   force =     0.00000000   -0.00000000    0.00559336
     atom   63 type  1   force =     0.00000000   -0.00000000   -0.00367559
     atom   64 type  1   force =    -0.00000002    0.00000002   -0.00200296
     atom   65 type  1   force =     0.00000006   -0.00000003    0.00018853
     atom   66 type  1   force =     0.00000000   -0.00000003   -0.00018721
     atom   67 type  1   force =     0.00000012   -0.00000001    0.00018729
     atom   68 type  1   force =     0.00000010   -0.00000006   -0.00018848
     atom   69 type  1   force =    -0.00000000   -0.00000001    0.00200296
     atom   70 type  1   force =    -0.00000013   -0.00000001    0.00367555
     atom   71 type  1   force =     0.00000011   -0.00000006   -0.00559336
     atom   72 type  1   force =     0.00000000    0.00000001    0.00033779
     atom   73 type  1   force =    -0.00000003    0.00000000   -0.00033783
     atom   74 type  1   force =     0.00000002   -0.00000001    0.00559340
     atom   75 type  1   force =     0.00000000   -0.00000004   -0.00367560
     atom   76 type  1   force =     0.00000003    0.00000001   -0.00200296
     atom   77 type  1   force =    -0.00000004    0.00000003    0.00018841
     atom   78 type  1   force =     0.00000000    0.00000006   -0.00018731
     atom   79 type  1   force =    -0.00000005    0.00000011    0.00018729
     atom   80 type  1   force =    -0.00000010    0.00000006   -0.00018851
     atom   81 type  1   force =     0.00000000    0.00000013    0.00200290
     atom   82 type  1   force =     0.00000006    0.00000012    0.00367555
     atom   83 type  1   force =    -0.00000011    0.00000007   -0.00559329
     atom   84 type  1   force =     0.00000000    0.00000008    0.00033783
     atom   85 type  1   force =    -0.00000001    0.00000002   -0.00033783
     atom   86 type  1   force =     0.00000000    0.00000000    0.00559336
     atom   87 type  1   force =    -0.00000000    0.00000000   -0.00367559
     atom   88 type  1   force =     0.00000001   -0.00000003   -0.00200296
     atom   89 type  1   force =     0.00000000    0.00000006    0.00018853
     atom   90 type  1   force =    -0.00000003    0.00000002   -0.00018721
     atom   91 type  1   force =     0.00000000    0.00000000    0.00018725
     atom   92 type  1   force =     0.00000000    0.00000011   -0.00018848
     atom   93 type  1   force =    -0.00000001    0.00000000    0.00200296
     atom   94 type  1   force =    -0.00000007   -0.00000011    0.00367555
     atom   95 type  1   force =     0.00000000    0.00000012   -0.00559336
     atom   96 type  1   force =     0.00000001   -0.00000000    0.00033779
     atom   97 type  1   force =    -0.00000000   -0.00000000   -0.00033785
     atom   98 type  1   force =    -0.00000000   -0.00000000    0.00559336
     atom   99 type  1   force =     0.00000003    0.00000002   -0.00367560
     atom  100 type  1   force =    -0.00000000   -0.00000000   -0.00200301
     atom  101 type  1   force =    -0.00000006   -0.00000003    0.00018853
     atom  102 type  1   force =    -0.00000006   -0.00000003   -0.00018731
     atom  103 type  1   force =    -0.00000012   -0.00000001    0.00018729
     atom  104 type  1   force =    -0.00000010   -0.00000006   -0.00018848
     atom  105 type  1   force =    -0.00000011   -0.00000007    0.00200290
     atom  106 type  1   force =    -0.00000000   -0.00000000    0.00367558
     atom  107 type  1   force =    -0.00000011   -0.00000006   -0.00559336
     atom  108 type  1   force =    -0.00000007   -0.00000004    0.00033783

     Total force =     0.029696     Total SCF correction =     0.000018


     Computing stress (Cartesian axis) and pressure

          total   stress  (Ry/bohr**3)                   (kbar)     P=       -4.87
  -0.00003534  -0.00000000   0.00000000           -5.20       -0.00        0.00
  -0.00000000  -0.00003534  -0.00000000           -0.00       -5.20       -0.00
   0.00000000   0.00000000  -0.00002869            0.00        0.00       -4.22

     Energy error            =      2.6E-03 Ry
     Gradient error          =      5.6E-03 Ry/Bohr

     number of scf cycles    =   5
     number of bfgs steps    =   4

     energy             old  =   -1555.0534242640 Ry
     energy             new  =   -1555.0560443665 Ry

     CASE: energy            _new < energy            _old

     new trust radius        =       0.0240639251 bohr
     new conv_thr            =       0.0000000006 Ry


ATOMIC_POSITIONS (angstrom)
Li              -0.0000000000       -0.0000000000       14.9982760853
Li               2.4319624622        1.4040941823       16.0269279127
Li               4.8639239481        2.8081878008       16.9630105450
Li               7.2958834680        4.2122802843       17.9660950433
Li               2.4319632263        1.4040946234       18.9711804584
Li               4.8639242405        2.8081879696       19.9643775487
Li               2.4319628462        4.2122816445       20.9569065398
Li               2.4319633148        1.4040946745       21.9501039276
Li               4.8639239932        2.8081878268       22.9551889632
Li               7.2958834680        4.2122802843       23.9582733781
Li               2.4319625318        1.4040942224       24.8943555183
Li               4.8639229367        2.8081872169       25.9230044602
Li               2.4319620103        4.2122807875       14.9982788710
Li               4.8639227056        5.6163734850       16.0269298103
Li               7.2958834680        7.0204652512       16.9630105450
Li               9.7278451884        8.4245585198       17.9660944563
Li               4.8639229305        5.6163733552       18.9711807891
Li               7.2958834680        7.0204649135       19.9643775487
Li               4.8639219791        8.4245584247       20.9569065398
Li               4.8639229659        5.6163733348       21.9501031088
Li               7.2958834680        7.0204651991       22.9551889632
Li               9.7278447903        8.4245589554       23.9582736398
Li               4.8639230664        5.6163732767       24.8943539886
Li               7.2958834680        7.0204664190       25.9230044602
Li               4.8639223033        8.4245595771       14.9982788710
Li               7.2958834680        9.8286524883       16.0269279127
Li               9.7278460775       11.2327465856       16.9630094937
Li              12.1598078365       12.6368413884       17.9660944563
Li               7.2958834680        9.8286516060       18.9711804584
Li               9.7278461842       11.2327465240       19.9643776092
Li               7.2958834680       12.6368408528       20.9569064482
Li               7.2958834680        9.8286515038       21.9501039276
Li               9.7278461449       11.2327465467       22.9551899531
Li              12.1598072602       12.6368415154       23.9582736398
Li               7.2958834680        9.8286524080       24.8943555183
Li               9.7278453395       11.2327470117       25.9230057684
Li               4.8639231750        0.0000004882       14.9982788710
Li               7.2958834680        1.4040938826       16.0269298103
Li               9.7278429880        2.8081878008       16.9630105450
Li              12.1598042880        4.2122817974       17.9660944563
Li               7.2958834680        1.4040941423       18.9711807891
Li               9.7278426956        2.8081879696       19.9643775487
Li               7.2958834680        4.2122802843       20.9569062920
Li               7.2958834680        1.4040941832       21.9501031088
Li               9.7278429429        2.8081878268       22.9551889632
Li              12.1598044662        4.2122812348       23.9582736398
Li               7.2958834680        1.4040942992       24.8943539886
Li               9.7278439994        2.8081872169       25.9230044602
Li               7.2958834680        4.2122802843       14.9982797524
Li               9.7278442305        5.6163734850       16.0269298103
Li              12.1598052450        7.0204668314       16.9630099323
Li              14.5917669361        8.4245605685       17.9660944005
Li               9.7278440056        5.6163733552       18.9711807891
Li              12.1598048564        7.0204666071       19.9643770528
Li               9.7278449570        8.4245584247       20.9569065398
Li               9.7278439702        5.6163733348       21.9501031088
Li              12.1598051574        7.0204667809       22.9551892143
Li              14.5917669361        8.4245605685       23.9582729959
Li               9.7278438697        5.6163732767       24.8943539886
Li              12.1598055494        7.0204670072       25.9230050011
Li               9.7278446328        8.4245595771       14.9982788710
Li              12.1598062656        9.8286537163       16.0269291179
Li              14.5917669361       11.2327480426       16.9630099323
Li              17.0237260357       12.6368413884       17.9660944563
Li              12.1598065760        9.8286535371       18.9711800629
Li              14.5917669361       11.2327484914       19.9643770528
Li              12.1598078032       12.6368416365       20.9569065398
Li              12.1598064970        9.8286535827       21.9501039514
Li              14.5917669361       11.2327481437       22.9551892143
Li              17.0237266120       12.6368415154       23.9582736398
Li              12.1598061365        9.8286537908       24.8943544954
Li              14.5917669361       11.2327476911       25.9230050011
Li               9.7278437611        0.0000004882       14.9982788710
Li              12.1598044739        1.4040941823       16.0269279127
Li              14.5917669361        2.8081885344       16.9630094937
Li               2.4319626481        4.2122817974       17.9660944563
Li              12.1598037098        1.4040946234       18.9711804584
Li              14.5917669361        2.8081886576       19.9643776092
Li              12.1598040899        4.2122816445       20.9569065398
Li              12.1598036213        1.4040946745       21.9501039276
Li              14.5917669361        2.8081886123       22.9551899531
Li              17.0237294060        4.2122812348       23.9582736398
Li              12.1598044043        1.4040942224       24.8943555183
Li              14.5917669361        2.8081876822       25.9230057684
Li              12.1598049258        4.2122807875       14.9982788710
Li              14.5917669361        5.6163742729       16.0269291179
Li              17.0237286272        7.0204668314       16.9630099323
Li              19.4556886838        8.4245585198       17.9660944563
Li              14.5917669361        5.6163746313       18.9711800629
Li              17.0237290158        7.0204666071       19.9643770528
Li              14.5917669361        8.4245605685       20.9569070264
Li              14.5917669361        5.6163745401       21.9501039514
Li              17.0237287148        7.0204667809       22.9551892143
Li              19.4556890819        8.4245589554       23.9582736398
Li              14.5917669361        5.6163741238       24.8943544954
Li              17.0237283228        7.0204670072       25.9230050011
Li              14.5917669361        8.4245605685       14.9982792178
Li              17.0237276066        9.8286537163       16.0269291179
Li              19.4556877947       11.2327465856       16.9630094937
Li              21.8876504041       12.6368408528       17.9660938454
Li              17.0237272962        9.8286535371       18.9711800629
Li              19.4556876880       11.2327465240       19.9643776092
Li              17.0237260690       12.6368416365       20.9569065398
Li              17.0237273752        9.8286535827       21.9501039514
Li              19.4556877273       11.2327465467       22.9551899531
Li              21.8876504041       12.6368408528       23.9582751683
Li              17.0237277357        9.8286537908       24.8943544954
Li              19.4556885327       11.2327470117       25.9230057684



     Writing config-only to output data dir /scratch/deepanthpcu/ml/tmp/Lislab/Lislab.save/ :
     XML data file
     NEW-OLD atomic charge density approx. for the potential

     negative rho (up, down):  1.083E-05 0.000E+00

     total cpu time spent up to now is     1238.9 secs

     per-process dynamical memory:   119.1 Mb

     Self-consistent Calculation

     iteration #  1     ecut=    60.00 Ry     beta= 0.30
     Davidson diagonalization with overlap
     ethr =  1.00E-06,  avg # of iterations =  3.0

     Threshold (ethr) on eigenvalues was too large:
     Diagonalizing with lowered threshold

     Davidson diagonalization with overlap
     ethr =  7.47E-08,  avg # of iterations =  4.2

     negative rho (up, down):  5.032E-06 0.000E+00

     total cpu time spent up to now is     1274.0 secs

     total energy              =   -1555.05957028 Ry
     estimated scf accuracy    <       0.00031929 Ry

     iteration #  2     ecut=    60.00 Ry     beta= 0.30
     Davidson diagonalization with overlap
     ethr =  9.85E-08,  avg # of iterations =  5.0

     negative rho (up, down):  4.890E-06 0.000E+00

     total cpu time spent up to now is     1289.4 secs

     total energy              =   -1555.05950503 Ry
     estimated scf accuracy    <       0.00196376 Ry

     iteration #  3     ecut=    60.00 Ry     beta= 0.30
     Davidson diagonalization with overlap
     ethr =  9.85E-08,  avg # of iterations =  4.8

     negative rho (up, down):  2.897E-06 0.000E+00

     total cpu time spent up to now is     1304.1 secs

     total energy              =   -1555.05964707 Ry
     estimated scf accuracy    <       0.00011922 Ry

     iteration #  4     ecut=    60.00 Ry     beta= 0.30
     Davidson diagonalization with overlap
     ethr =  3.68E-08,  avg # of iterations =  3.5

     negative rho (up, down):  5.725E-06 0.000E+00

     total cpu time spent up to now is     1317.5 secs

     total energy              =   -1555.05963304 Ry
     estimated scf accuracy    <       0.00110753 Ry

     iteration #  5     ecut=    60.00 Ry     beta= 0.30
     Davidson diagonalization with overlap
     ethr =  3.68E-08,  avg # of iterations =  1.8

     total cpu time spent up to now is     1330.0 secs

     total energy              =   -1555.05965551 Ry
     estimated scf accuracy    <       0.00000571 Ry

     iteration #  6     ecut=    60.00 Ry     beta= 0.30
     Davidson diagonalization with overlap
     ethr =  1.76E-09,  avg # of iterations =  5.0

     total cpu time spent up to now is     1345.7 secs

     total energy              =   -1555.05965655 Ry
     estimated scf accuracy    <       0.00000475 Ry

     iteration #  7     ecut=    60.00 Ry     beta= 0.30
     Davidson diagonalization with overlap
     ethr =  1.47E-09,  avg # of iterations =  2.0

     total cpu time spent up to now is     1358.5 secs

     total energy              =   -1555.05965697 Ry
     estimated scf accuracy    <       0.00000137 Ry

     iteration #  8     ecut=    60.00 Ry     beta= 0.30
     Davidson diagonalization with overlap
     ethr =  4.23E-10,  avg # of iterations =  4.5

     total cpu time spent up to now is     1373.4 secs

     total energy              =   -1555.05965736 Ry
     estimated scf accuracy    <       0.00000159 Ry

     iteration #  9     ecut=    60.00 Ry     beta= 0.30
     Davidson diagonalization with overlap
     ethr =  4.23E-10,  avg # of iterations =  1.0

     total cpu time spent up to now is     1385.4 secs

     total energy              =   -1555.05965732 Ry
     estimated scf accuracy    <       0.00000123 Ry

     iteration # 10     ecut=    60.00 Ry     beta= 0.30
     Davidson diagonalization with overlap
     ethr =  3.79E-10,  avg # of iterations =  2.0

     total cpu time spent up to now is     1398.5 secs

     total energy              =   -1555.05965747 Ry
     estimated scf accuracy    <       0.00000002 Ry

     iteration # 11     ecut=    60.00 Ry     beta= 0.30
     Davidson diagonalization with overlap
     ethr =  5.23E-12,  avg # of iterations =  6.0

     total cpu time spent up to now is     1416.3 secs

     total energy              =   -1555.05965750 Ry
     estimated scf accuracy    <       0.00000026 Ry

     iteration # 12     ecut=    60.00 Ry     beta= 0.30
     Davidson diagonalization with overlap
     ethr =  5.23E-12,  avg # of iterations =  4.5

     total cpu time spent up to now is     1431.5 secs

     total energy              =   -1555.05965755 Ry
     estimated scf accuracy    <          4.2E-09 Ry

     iteration # 13     ecut=    60.00 Ry     beta= 0.30
     Davidson diagonalization with overlap
     ethr =  1.29E-12,  avg # of iterations =  5.0

     total cpu time spent up to now is     1446.6 secs

     total energy              =   -1555.05965759 Ry
     estimated scf accuracy    <          1.8E-09 Ry

     iteration # 14     ecut=    60.00 Ry     beta= 0.30
     Davidson diagonalization with overlap
     ethr =  5.56E-13,  avg # of iterations =  4.5

     total cpu time spent up to now is     1461.6 secs

     total energy              =   -1555.05965761 Ry
     estimated scf accuracy    <          7.2E-09 Ry

     iteration # 15     ecut=    60.00 Ry     beta= 0.30
     Davidson diagonalization with overlap
     ethr =  5.56E-13,  avg # of iterations =  1.8

     total cpu time spent up to now is     1474.4 secs

     total energy              =   -1555.05965763 Ry
     estimated scf accuracy    <          4.2E-09 Ry

     iteration # 16     ecut=    60.00 Ry     beta= 0.30
     Davidson diagonalization with overlap
     ethr =  5.56E-13,  avg # of iterations =  3.0

     total cpu time spent up to now is     1487.9 secs

     End of self-consistent calculation

          k = 0.0000 0.0000 0.0000 (399281 PWs)   bands (ev):

   -49.3459 -49.3459 -49.3459 -49.3459 -49.3459 -49.3458 -49.3458 -49.3458
   -49.3458 -49.3458 -49.3458 -49.3458 -49.3457 -49.3457 -49.3457 -49.3457
   -49.3457 -49.3457 -48.6410 -48.6410 -48.6410 -48.6408 -48.6408 -48.6408
   -48.6408 -48.6408 -48.6408 -48.6408 -48.6408 -48.6408 -48.6408 -48.6408
   -48.6408 -48.6408 -48.6408 -48.6408 -48.3238 -48.3236 -48.3236 -48.3236
   -48.3236 -48.3236 -48.3236 -48.3236 -48.3236 -48.3236 -48.3236 -48.3236
   -48.3235 -48.3235 -48.3235 -48.3235 -48.3235 -48.3235 -48.2845 -48.2819
   -48.2819 -48.2819 -48.2819 -48.2819 -48.2819 -48.2808 -48.2808 -48.2786
   -48.2774 -48.2774 -48.2774 -48.2774 -48.2774 -48.2774 -48.2769 -48.2769
   -48.2673 -48.2669 -48.2669 -48.2669 -48.2669 -48.2669 -48.2669 -48.2647
   -48.2647 -48.2647 -48.2647 -48.2607 -48.2607 -48.2607 -48.2607 -48.2607
   -48.2607 -48.2573 -48.2118 -48.2118 -48.2118 -48.2118 -48.2114 -48.2114
   -48.2114 -48.2114 -48.2114 -48.2114 -48.2114 -48.2114 -48.2114 -48.2114
   -48.2114 -48.2114 -48.2112 -48.2106  -5.1729  -4.7456  -4.4692  -4.4692
    -4.4692  -4.4692  -4.4692  -4.4692  -4.0387  -4.0387  -4.0387  -4.0387
    -4.0387  -4.0387  -4.0127  -3.3010  -3.3010  -3.3010  -3.3010  -3.3010
    -3.3010  -3.0846  -3.0846  -3.0810  -3.0810  -3.0810  -3.0810  -3.0780
    -2.6432  -2.6432  -2.6432  -2.6432  -2.6341  -2.6341  -2.3828  -2.3828
    -2.3828  -2.3828  -2.3828  -2.3828  -2.3409  -2.3409  -2.3409  -2.3409
    -2.3409  -2.3409  -2.0932  -1.9169  -1.9168  -1.9168  -1.9168  -1.9168
    -1.9168  -1.9036  -1.9036  -1.9036  -1.9036  -1.8469  -1.8469  -1.4736
    -1.4736  -1.4736  -1.4736  -1.4736  -1.4736  -1.1636  -1.1636  -1.1636
    -1.1636  -1.1636  -1.1636  -1.0942  -1.0942  -1.0942  -1.0942  -1.0921
    -1.0921  -1.0921  -1.0921  -1.0921  -1.0921  -1.0554  -0.6974  -0.6974
    -0.5635  -0.5635

          k = 0.0000 0.2887 0.0000 (399667 PWs)   bands (ev):

   -49.3460 -49.3460 -49.3460 -49.3460 -49.3459 -49.3459 -49.3459 -49.3459
   -49.3459 -49.3459 -49.3459 -49.3459 -49.3458 -49.3458 -49.3458 -49.3458
   -49.3458 -49.3458 -48.6412 -48.6410 -48.6409 -48.6409 -48.6409 -48.6409
   -48.6409 -48.6409 -48.6409 -48.6409 -48.6409 -48.6409 -48.6408 -48.6408
   -48.6408 -48.6408 -48.6408 -48.6408 -48.3238 -48.3238 -48.3237 -48.3237
   -48.3237 -48.3237 -48.3236 -48.3236 -48.3236 -48.3236 -48.3236 -48.3236
   -48.3236 -48.3235 -48.3235 -48.3235 -48.3235 -48.3235 -48.2844 -48.2828
   -48.2823 -48.2823 -48.2816 -48.2816 -48.2814 -48.2809 -48.2809 -48.2786
   -48.2778 -48.2775 -48.2775 -48.2773 -48.2772 -48.2772 -48.2770 -48.2770
   -48.2674 -48.2672 -48.2669 -48.2669 -48.2667 -48.2667 -48.2666 -48.2656
   -48.2656 -48.2637 -48.2637 -48.2619 -48.2615 -48.2615 -48.2603 -48.2603
   -48.2597 -48.2577 -48.2118 -48.2118 -48.2118 -48.2118 -48.2117 -48.2116
   -48.2116 -48.2116 -48.2115 -48.2115 -48.2114 -48.2114 -48.2114 -48.2113
   -48.2113 -48.2113 -48.2112 -48.2110  -5.1290  -4.7774  -4.7015  -4.6014
    -4.6014  -4.3482  -4.2492  -4.2492  -4.1714  -4.1714  -4.0726  -3.9682
    -3.8180  -3.8180  -3.6413  -3.6117  -3.5516  -3.5516  -3.4339  -3.4339
    -3.1231  -3.1231  -3.0804  -3.0804  -3.0326  -3.0276  -3.0276  -3.0152
    -2.9086  -2.6721  -2.6699  -2.6699  -2.6116  -2.6116  -2.5701  -2.5315
    -2.5315  -2.4945  -2.4945  -2.3676  -2.3676  -2.2354  -2.2354  -2.1362
    -2.1362  -2.0863  -2.0863  -2.0485  -1.9966  -1.9803  -1.9803  -1.8422
    -1.8422  -1.8386  -1.7099  -1.6226  -1.5535  -1.5535  -1.5461  -1.5461
    -1.5291  -1.5291  -1.4753  -1.4753  -1.4119  -1.4119  -1.3219  -1.3219
    -1.2655  -1.2008  -1.2008  -1.1948  -1.1948  -1.1899  -1.1864  -1.0174
    -0.9910  -0.9910  -0.9082  -0.9082  -0.9074  -0.9074  -0.8162  -0.8033
    -0.7355  -0.7036

          k = 0.0000-0.5774 0.0000 (399688 PWs)   bands (ev):

   -49.3460 -49.3460 -49.3460 -49.3460 -49.3459 -49.3459 -49.3459 -49.3459
   -49.3459 -49.3459 -49.3458 -49.3458 -49.3458 -49.3458 -49.3458 -49.3458
   -49.3458 -49.3458 -48.6411 -48.6411 -48.6410 -48.6410 -48.6409 -48.6409
   -48.6409 -48.6409 -48.6409 -48.6409 -48.6409 -48.6409 -48.6408 -48.6408
   -48.6408 -48.6408 -48.6408 -48.6408 -48.3239 -48.3239 -48.3237 -48.3237
   -48.3237 -48.3236 -48.3236 -48.3236 -48.3236 -48.3236 -48.3236 -48.3235
   -48.3235 -48.3235 -48.3235 -48.3235 -48.3235 -48.3235 -48.2839 -48.2839
   -48.2824 -48.2824 -48.2812 -48.2812 -48.2811 -48.2811 -48.2811 -48.2783
   -48.2783 -48.2776 -48.2776 -48.2772 -48.2771 -48.2771 -48.2771 -48.2771
   -48.2673 -48.2673 -48.2670 -48.2670 -48.2664 -48.2663 -48.2663 -48.2663
   -48.2663 -48.2625 -48.2625 -48.2625 -48.2625 -48.2624 -48.2602 -48.2602
   -48.2586 -48.2586 -48.2118 -48.2117 -48.2117 -48.2117 -48.2117 -48.2116
   -48.2116 -48.2116 -48.2116 -48.2116 -48.2114 -48.2114 -48.2114 -48.2114
   -48.2113 -48.2113 -48.2112 -48.2112  -4.9973  -4.9973  -4.6455  -4.6455
    -4.5691  -4.5691  -4.2157  -4.2157  -3.9426  -3.9426  -3.9426  -3.9426
    -3.8344  -3.8344  -3.5919  -3.5858  -3.5103  -3.5103  -3.5103  -3.5103
    -3.4782  -3.4782  -3.1548  -3.1541  -2.8967  -2.8967  -2.8958  -2.8958
    -2.8958  -2.8958  -2.7766  -2.7766  -2.7766  -2.7766  -2.5379  -2.5379
    -2.4474  -2.4474  -2.4474  -2.4474  -2.4332  -2.3960  -1.9610  -1.9610
    -1.9610  -1.9610  -1.9162  -1.9162  -1.8602  -1.8602  -1.8602  -1.8602
    -1.7101  -1.7101  -1.7101  -1.7101  -1.6538  -1.5964  -1.5964  -1.5613
    -1.5613  -1.5474  -1.5474  -1.4803  -1.4803  -1.4803  -1.4803  -1.3542
    -1.3233  -1.1107  -1.1107  -1.1005  -1.1005  -1.0609  -1.0609  -1.0609
    -1.0609  -0.9276  -0.9276  -0.8182  -0.8182  -0.7712  -0.7712  -0.7712
    -0.7712  -0.7629

          k = 0.2500-0.7217 0.0000 (399610 PWs)   bands (ev):

   -49.3460 -49.3460 -49.3459 -49.3459 -49.3459 -49.3459 -49.3459 -49.3459
   -49.3459 -49.3458 -49.3458 -49.3458 -49.3458 -49.3458 -49.3458 -49.3458
   -49.3458 -49.3458 -48.6411 -48.6410 -48.6410 -48.6409 -48.6409 -48.6409
   -48.6409 -48.6409 -48.6409 -48.6409 -48.6409 -48.6409 -48.6408 -48.6408
   -48.6408 -48.6408 -48.6408 -48.6408 -48.3239 -48.3237 -48.3237 -48.3237
   -48.3236 -48.3236 -48.3236 -48.3236 -48.3236 -48.3236 -48.3236 -48.3236
   -48.3236 -48.3235 -48.3235 -48.3235 -48.3234 -48.3234 -48.2840 -48.2831
   -48.2831 -48.2816 -48.2816 -48.2812 -48.2812 -48.2812 -48.2810 -48.2784
   -48.2780 -48.2780 -48.2773 -48.2773 -48.2771 -48.2771 -48.2771 -48.2771
   -48.2673 -48.2671 -48.2671 -48.2666 -48.2666 -48.2664 -48.2664 -48.2662
   -48.2660 -48.2631 -48.2626 -48.2624 -48.2624 -48.2613 -48.2613 -48.2592
   -48.2592 -48.2583 -48.2118 -48.2118 -48.2118 -48.2117 -48.2117 -48.2117
   -48.2116 -48.2116 -48.2115 -48.2115 -48.2115 -48.2115 -48.2113 -48.2113
   -48.2113 -48.2112 -48.2112 -48.2112  -5.0412  -4.8654  -4.8654  -4.6133
    -4.4366  -4.4366  -4.3378  -4.3378  -3.9872  -3.9066  -3.9066  -3.8790
    -3.8093  -3.8093  -3.7007  -3.7007  -3.5546  -3.4648  -3.4594  -3.3821
    -3.3821  -3.2754  -3.2754  -3.1679  -3.1679  -3.0269  -3.0253  -2.9419
    -2.8568  -2.8568  -2.8166  -2.7615  -2.7615  -2.6235  -2.6235  -2.4475
    -2.4442  -2.3049  -2.2681  -2.2681  -2.2627  -2.2194  -2.2194  -2.1172
    -2.1172  -2.0089  -2.0033  -1.9913  -1.9598  -1.8693  -1.8244  -1.8244
    -1.7896  -1.7896  -1.7872  -1.7872  -1.7353  -1.7353  -1.5343  -1.5204
    -1.5204  -1.5070  -1.3468  -1.3468  -1.3412  -1.3412  -1.2796  -1.2700
    -1.2306  -1.2306  -1.2302  -1.2298  -1.2298  -1.0580  -1.0580  -1.0129
    -1.0129  -0.9636  -0.9472  -0.8850  -0.8850  -0.8427  -0.8427  -0.7938
    -0.7483  -0.7483

     the Fermi energy is    -1.7549 ev

!    total energy              =   -1555.05965770 Ry
     estimated scf accuracy    <          9.7E-11 Ry
     smearing contrib. (-TS)   =      -0.01387487 Ry
     internal energy E=F+TS    =   -1555.04578283 Ry

     The total energy is F=E-TS. E is the sum of the following terms:
     one-electron contribution =  -14007.44273224 Ry
     hartree contribution      =    6837.21444464 Ry
     xc contribution           =    -358.99651504 Ry
     ewald contribution        =    5974.17901980 Ry

     convergence has been achieved in  16 iterations

     Forces acting on atoms (cartesian axes, Ry/au):

     atom    1 type  1   force =     0.00000000    0.00000000   -0.00035818
     atom    2 type  1   force =    -0.00000005   -0.00000003    0.00505671
     atom    3 type  1   force =    -0.00000006   -0.00000004   -0.00329645
     atom    4 type  1   force =    -0.00000000   -0.00000000   -0.00176845
     atom    5 type  1   force =    -0.00000007   -0.00000004    0.00038852
     atom    6 type  1   force =    -0.00000005   -0.00000003   -0.00036890
     atom    7 type  1   force =    -0.00000005   -0.00000004    0.00036899
     atom    8 type  1   force =    -0.00000008   -0.00000005   -0.00038851
     atom    9 type  1   force =    -0.00000004   -0.00000002    0.00176846
     atom   10 type  1   force =     0.00000000    0.00000000    0.00329637
     atom   11 type  1   force =    -0.00000005   -0.00000003   -0.00505671
     atom   12 type  1   force =     0.00000002    0.00000001    0.00035834
     atom   13 type  1   force =    -0.00000002    0.00000003   -0.00035831
     atom   14 type  1   force =    -0.00000002    0.00000001    0.00505665
     atom   15 type  1   force =     0.00000000    0.00000007   -0.00329645
     atom   16 type  1   force =    -0.00000002    0.00000006   -0.00176848
     atom   17 type  1   force =    -0.00000000    0.00000000    0.00038852
     atom   18 type  1   force =     0.00000000    0.00000005   -0.00036890
     atom   19 type  1   force =     0.00000001    0.00000007    0.00036899
     atom   20 type  1   force =    -0.00000001    0.00000001   -0.00038848
     atom   21 type  1   force =     0.00000000    0.00000004    0.00176846
     atom   22 type  1   force =    -0.00000002    0.00000005    0.00329640
     atom   23 type  1   force =    -0.00000002    0.00000001   -0.00505666
     atom   24 type  1   force =     0.00000000   -0.00000002    0.00035834
     atom   25 type  1   force =    -0.00000003    0.00000000   -0.00035831
     atom   26 type  1   force =     0.00000000    0.00000006    0.00505671
     atom   27 type  1   force =    -0.00000006    0.00000004   -0.00329644
     atom   28 type  1   force =    -0.00000006   -0.00000002   -0.00176848
     atom   29 type  1   force =     0.00000000    0.00000008    0.00038852
     atom   30 type  1   force =    -0.00000006    0.00000003   -0.00036890
     atom   31 type  1   force =     0.00000000    0.00000000    0.00036902
     atom   32 type  1   force =     0.00000000    0.00000010   -0.00038851
     atom   33 type  1   force =    -0.00000008    0.00000005    0.00176844
     atom   34 type  1   force =    -0.00000005   -0.00000001    0.00329640
     atom   35 type  1   force =     0.00000000    0.00000006   -0.00505671
     atom   36 type  1   force =    -0.00000001    0.00000001    0.00035828
     atom   37 type  1   force =     0.00000001   -0.00000003   -0.00035831
     atom   38 type  1   force =     0.00000000   -0.00000003    0.00505665
     atom   39 type  1   force =     0.00000006   -0.00000004   -0.00329645
     atom   40 type  1   force =     0.00000004   -0.00000004   -0.00176848
     atom   41 type  1   force =     0.00000000   -0.00000000    0.00038852
     atom   42 type  1   force =     0.00000005   -0.00000003   -0.00036890
     atom   43 type  1   force =     0.00000000    0.00000000    0.00036904
     atom   44 type  1   force =    -0.00000000   -0.00000001   -0.00038848
     atom   45 type  1   force =     0.00000004   -0.00000002    0.00176846
     atom   46 type  1   force =     0.00000003   -0.00000004    0.00329640
     atom   47 type  1   force =    -0.00000000   -0.00000002   -0.00505666
     atom   48 type  1   force =    -0.00000002    0.00000001    0.00035834
     atom   49 type  1   force =    -0.00000000   -0.00000000   -0.00035835
     atom   50 type  1   force =     0.00000002    0.00000001    0.00505665
     atom   51 type  1   force =     0.00000003    0.00000002   -0.00329647
     atom   52 type  1   force =     0.00000000    0.00000000   -0.00176847
     atom   53 type  1   force =     0.00000000    0.00000000    0.00038852
     atom   54 type  1   force =     0.00000005    0.00000003   -0.00036891
     atom   55 type  1   force =    -0.00000001    0.00000007    0.00036899
     atom   56 type  1   force =     0.00000001    0.00000001   -0.00038848
     atom   57 type  1   force =     0.00000001    0.00000000    0.00176844
     atom   58 type  1   force =    -0.00000000   -0.00000000    0.00329644
     atom   59 type  1   force =     0.00000002    0.00000001   -0.00505666
     atom   60 type  1   force =    -0.00000001   -0.00000001    0.00035830
     atom   61 type  1   force =     0.00000003    0.00000000   -0.00035831
     atom   62 type  1   force =     0.00000000   -0.00000000    0.00505662
     atom   63 type  1   force =     0.00000000   -0.00000003   -0.00329647
     atom   64 type  1   force =     0.00000006   -0.00000002   -0.00176848
     atom   65 type  1   force =    -0.00000001    0.00000001    0.00038855
     atom   66 type  1   force =     0.00000000   -0.00000006   -0.00036891
     atom   67 type  1   force =    -0.00000006   -0.00000003    0.00036899
     atom   68 type  1   force =    -0.00000002    0.00000001   -0.00038856
     atom   69 type  1   force =     0.00000000   -0.00000001    0.00176844
     atom   70 type  1   force =     0.00000005   -0.00000001    0.00329640
     atom   71 type  1   force =    -0.00000001    0.00000001   -0.00505668
     atom   72 type  1   force =     0.00000000    0.00000002    0.00035830
     atom   73 type  1   force =    -0.00000001   -0.00000003   -0.00035831
     atom   74 type  1   force =     0.00000005   -0.00000003    0.00505671
     atom   75 type  1   force =     0.00000000   -0.00000007   -0.00329644
     atom   76 type  1   force =    -0.00000004   -0.00000004   -0.00176848
     atom   77 type  1   force =     0.00000007   -0.00000004    0.00038852
     atom   78 type  1   force =     0.00000000   -0.00000007   -0.00036890
     atom   79 type  1   force =     0.00000005   -0.00000004    0.00036899
     atom   80 type  1   force =     0.00000008   -0.00000005   -0.00038851
     atom   81 type  1   force =     0.00000000   -0.00000010    0.00176844
     atom   82 type  1   force =    -0.00000003   -0.00000004    0.00329640
     atom   83 type  1   force =     0.00000005   -0.00000003   -0.00505671
     atom   84 type  1   force =     0.00000000   -0.00000002    0.00035828
     atom   85 type  1   force =     0.00000002    0.00000003   -0.00035831
     atom   86 type  1   force =     0.00000000    0.00000001    0.00505662
     atom   87 type  1   force =    -0.00000003    0.00000002   -0.00329647
     atom   88 type  1   force =     0.00000002    0.00000006   -0.00176848
     atom   89 type  1   force =     0.00000000   -0.00000001    0.00038855
     atom   90 type  1   force =    -0.00000005    0.00000003   -0.00036891
     atom   91 type  1   force =     0.00000000    0.00000000    0.00036891
     atom   92 type  1   force =     0.00000000   -0.00000002   -0.00038856
     atom   93 type  1   force =    -0.00000001    0.00000000    0.00176844
     atom   94 type  1   force =     0.00000002    0.00000005    0.00329640
     atom   95 type  1   force =     0.00000000   -0.00000002   -0.00505668
     atom   96 type  1   force =     0.00000001   -0.00000001    0.00035830
     atom   97 type  1   force =    -0.00000000   -0.00000000   -0.00035832
     atom   98 type  1   force =    -0.00000000   -0.00000000    0.00505662
     atom   99 type  1   force =     0.00000006    0.00000004   -0.00329644
     atom  100 type  1   force =     0.00000000    0.00000000   -0.00176850
     atom  101 type  1   force =     0.00000001    0.00000001    0.00038855
     atom  102 type  1   force =     0.00000006    0.00000003   -0.00036890
     atom  103 type  1   force =     0.00000006   -0.00000003    0.00036899
     atom  104 type  1   force =     0.00000002    0.00000001   -0.00038856
     atom  105 type  1   force =     0.00000008    0.00000005    0.00176844
     atom  106 type  1   force =     0.00000000    0.00000000    0.00329635
     atom  107 type  1   force =     0.00000001    0.00000001   -0.00505668
     atom  108 type  1   force =     0.00000001    0.00000001    0.00035828

     Total force =     0.026826     Total SCF correction =     0.000015


     Computing stress (Cartesian axis) and pressure

          total   stress  (Ry/bohr**3)                   (kbar)     P=       -4.86
  -0.00003534  -0.00000000   0.00000000           -5.20       -0.00        0.00
  -0.00000000  -0.00003534   0.00000000           -0.00       -5.20        0.00
  -0.00000000  -0.00000000  -0.00002837           -0.00       -0.00       -4.17

     Energy error            =      3.6E-03 Ry
     Gradient error          =      5.1E-03 Ry/Bohr

     number of scf cycles    =   6
     number of bfgs steps    =   5

     energy             old  =   -1555.0560443665 Ry
     energy             new  =   -1555.0596577048 Ry

     CASE: energy            _new < energy            _old

     new trust radius        =       0.0360958877 bohr
     new conv_thr            =       0.0000000005 Ry


ATOMIC_POSITIONS (angstrom)
Li              -0.0000000000       -0.0000000000       14.9972121358
Li               2.4319631322        1.4040945691       16.0460279514
Li               4.8639248349        2.8081883128       16.9503684336
Li               7.2958834680        4.2122802843       17.9591986603
Li               2.4319642897        1.4040952373       18.9714700709
Li               4.8639252797        2.8081885696       19.9640901818
Li               2.4319638394        4.2122821712       20.9571942872
Li               2.4319644373        1.4040953226       21.9498147329
Li               4.8639249044        2.8081883529       22.9620853937
Li               7.2958834680        4.2122802843       23.9709153230
Li               2.4319632331        1.4040946273       24.8752551629
Li               4.8639233117        2.8081874334       25.9240667742
Li               2.4319625287        4.2122809722       14.9972162254
Li               4.8639230768        5.6163732707       16.0460307980
Li               7.2958834680        7.0204642272       16.9503684336
Li               9.7278452230        8.4245574441       17.9591977461
Li               4.8639234355        5.6163730637       18.9714705580
Li               7.2958834680        7.0204637136       19.9640901818
Li               4.8639220196        8.4245573011       20.9571942872
Li               4.8639234433        5.6163730591       21.9498134814
Li               7.2958834680        7.0204641469       22.9620853937
Li               9.7278447636        8.4245580900       23.9709157948
Li               4.8639234941        5.6163730298       24.8752528674
Li               7.2958834680        7.0204659860       25.9240667742
Li               4.8639224026        8.4245590358       14.9972162254
Li               7.2958834680        9.8286517147       16.0460279514
Li               9.7278466973       11.2327462277       16.9503667977
Li              12.1598087853       12.6368418964       17.9591977461
Li               7.2958834680        9.8286503781       18.9714700709
Li               9.7278468404       11.2327461451       19.9640903031
Li               7.2958834680       12.6368408528       20.9571941522
Li               7.2958834680        9.8286502077       21.9498147329
Li               9.7278468350       11.2327461482       22.9620869128
Li              12.1598079963       12.6368419713       23.9709157948
Li               7.2958834680        9.8286515981       24.8752551629
Li               9.7278456589       11.2327468272       25.9240687456
Li               4.8639235941        0.0000008448       14.9972162254
Li               7.2958834680        1.4040943112       16.0460307980
Li               9.7278421012        2.8081883128       16.9503684336
Li              12.1598033738        4.2122823651       17.9591977461
Li               7.2958834680        1.4040947254       18.9714705580
Li               9.7278416564        2.8081885696       19.9640901818
Li               7.2958834680        4.2122802843       20.9571938957
Li               7.2958834680        1.4040947344       21.9498134814
Li               9.7278420317        2.8081883529       22.9620853937
Li              12.1598037034        4.2122816443       23.9709157948
Li               7.2958834680        1.4040947931       24.8752528674
Li               9.7278436244        2.8081874334       25.9240667742
Li               7.2958834680        4.2122802843       14.9972176542
Li               9.7278438593        5.6163732707       16.0460307980
Li              12.1598047875        7.0204665673       16.9503673657
Li              14.5917669361        8.4245605685       17.9591976120
Li               9.7278435006        5.6163730637       18.9714705580
Li              12.1598041707        7.0204662112       19.9640895205
Li               9.7278449165        8.4245573011       20.9571942872
Li               9.7278434928        5.6163730591       21.9498134814
Li              12.1598046781        7.0204665042       22.9620858673
Li              14.5917669361        8.4245605685       23.9709149657
Li               9.7278434420        5.6163730298       24.8752528674
Li              12.1598053330        7.0204668822       25.9240676852
Li               9.7278445335        8.4245590358       14.9972162254
Li              12.1598063480        9.8286536687       16.0460294743
Li              14.5917669361       11.2327485709       16.9503673657
Li              17.0237250869       12.6368418964       17.9591977461
Li              12.1598067477        9.8286534380       18.9714695037
Li              14.5917669361       11.2327492831       19.9640895205
Li              12.1598087559       12.6368422333       20.9571942872
Li              12.1598066818        9.8286534760       21.9498148461
Li              14.5917669361       11.2327486971       22.9620858673
Li              17.0237258759       12.6368419713       23.9709157948
Li              12.1598062489        9.8286537259       24.8752537240
Li              14.5917669361       11.2327479410       25.9240676852
Li               9.7278433420        0.0000008448       14.9972162254
Li              12.1598038039        1.4040945691       16.0460279514
Li              14.5917669361        2.8081892501       16.9503667977
Li               2.4319635623        4.2122823651       17.9591977461
Li              12.1598026464        1.4040952373       18.9714700709
Li              14.5917669361        2.8081894154       19.9640903031
Li              12.1598030967        4.2122821712       20.9571942872
Li              12.1598024988        1.4040953226       21.9498147329
Li              14.5917669361        2.8081894091       22.9620869128
Li              17.0237301688        4.2122816443       23.9709157948
Li              12.1598037030        1.4040946273       24.8752551629
Li              14.5917669361        2.8081880511       25.9240687456
Li              12.1598044074        4.2122809722       14.9972162254
Li              14.5917669361        5.6163743681       16.0460294743
Li              17.0237290847        7.0204665673       16.9503673657
Li              19.4556886492        8.4245574441       17.9591977461
Li              14.5917669361        5.6163748296       18.9714695037
Li              17.0237297015        7.0204662112       19.9640895205
Li              14.5917669361        8.4245605685       20.9571951509
Li              14.5917669361        5.6163747535       21.9498148461
Li              17.0237291941        7.0204665042       22.9620858673
Li              19.4556891086        8.4245580900       23.9709157948
Li              14.5917669361        5.6163742536       24.8752537240
Li              17.0237285392        7.0204668822       25.9240676852
Li              14.5917669361        8.4245605685       14.9972164831
Li              17.0237275242        9.8286536687       16.0460294743
Li              19.4556871749       11.2327462277       16.9503667977
Li              21.8876504041       12.6368408528       17.9591968223
Li              17.0237271245        9.8286534380       18.9714695037
Li              19.4556870318       11.2327461451       19.9640903031
Li              17.0237251163       12.6368422333       20.9571942872
Li              17.0237271904        9.8286534760       21.9498148461
Li              19.4556870372       11.2327461482       22.9620869128
Li              21.8876504041       12.6368408528       23.9709181122
Li              17.0237276233        9.8286537259       24.8752537240
Li              19.4556882133       11.2327468272       25.9240687456



     Writing config-only to output data dir /scratch/deepanthpcu/ml/tmp/Lislab/Lislab.save/ :
     XML data file
     NEW-OLD atomic charge density approx. for the potential

     negative rho (up, down):  2.079E-05 0.000E+00

     total cpu time spent up to now is     1503.0 secs

     per-process dynamical memory:   119.1 Mb

     Self-consistent Calculation

     iteration #  1     ecut=    60.00 Ry     beta= 0.30
     Davidson diagonalization with overlap
     ethr =  1.00E-06,  avg # of iterations =  5.0

     negative rho (up, down):  1.104E-05 0.000E+00

     total cpu time spent up to now is     1526.1 secs

     total energy              =   -1555.06421645 Ry
     estimated scf accuracy    <       0.00058822 Ry

     iteration #  2     ecut=    60.00 Ry     beta= 0.30
     Davidson diagonalization with overlap
     ethr =  1.82E-07,  avg # of iterations =  5.8

     negative rho (up, down):  1.108E-05 0.000E+00

     total cpu time spent up to now is     1541.7 secs

     total energy              =   -1555.06411407 Ry
     estimated scf accuracy    <       0.00309914 Ry

     iteration #  3     ecut=    60.00 Ry     beta= 0.30
     Davidson diagonalization with overlap
     ethr =  1.82E-07,  avg # of iterations =  4.0

     negative rho (up, down):  6.164E-06 0.000E+00

     total cpu time spent up to now is     1556.1 secs

     total energy              =   -1555.06435757 Ry
     estimated scf accuracy    <       0.00025689 Ry

     iteration #  4     ecut=    60.00 Ry     beta= 0.30
     Davidson diagonalization with overlap
     ethr =  7.93E-08,  avg # of iterations =  1.5

     negative rho (up, down):  1.188E-05 0.000E+00

     total cpu time spent up to now is     1568.5 secs

     total energy              =   -1555.06435866 Ry
     estimated scf accuracy    <       0.00043526 Ry

     iteration #  5     ecut=    60.00 Ry     beta= 0.30
     Davidson diagonalization with overlap
     ethr =  7.93E-08,  avg # of iterations =  1.0

     negative rho (up, down):  1.108E-07 0.000E+00

     total cpu time spent up to now is     1580.6 secs

     total energy              =   -1555.06436978 Ry
     estimated scf accuracy    <       0.00003152 Ry

     iteration #  6     ecut=    60.00 Ry     beta= 0.30
     Davidson diagonalization with overlap
     ethr =  9.73E-09,  avg # of iterations =  4.0

     negative rho (up, down):  2.760E-07 0.000E+00

     total cpu time spent up to now is     1594.7 secs

     total energy              =   -1555.06437077 Ry
     estimated scf accuracy    <       0.00000991 Ry

     iteration #  7     ecut=    60.00 Ry     beta= 0.30
     Davidson diagonalization with overlap
     ethr =  3.06E-09,  avg # of iterations =  2.8

     negative rho (up, down):  3.132E-08 0.000E+00

     total cpu time spent up to now is     1608.1 secs

     total energy              =   -1555.06437291 Ry
     estimated scf accuracy    <       0.00000317 Ry

     iteration #  8     ecut=    60.00 Ry     beta= 0.30
     Davidson diagonalization with overlap
     ethr =  9.77E-10,  avg # of iterations =  3.0

     negative rho (up, down):  2.429E-08 0.000E+00

     total cpu time spent up to now is     1621.3 secs

     total energy              =   -1555.06437295 Ry
     estimated scf accuracy    <       0.00000357 Ry

     iteration #  9     ecut=    60.00 Ry     beta= 0.30
     Davidson diagonalization with overlap
     ethr =  9.77E-10,  avg # of iterations =  1.2

     total cpu time spent up to now is     1633.5 secs

     total energy              =   -1555.06437301 Ry
     estimated scf accuracy    <       0.00000063 Ry

     iteration # 10     ecut=    60.00 Ry     beta= 0.30
     Davidson diagonalization with overlap
     ethr =  1.94E-10,  avg # of iterations =  3.8

     total cpu time spent up to now is     1647.4 secs

     total energy              =   -1555.06437310 Ry
     estimated scf accuracy    <       0.00000001 Ry

     iteration # 11     ecut=    60.00 Ry     beta= 0.30
     Davidson diagonalization with overlap
     ethr =  4.42E-12,  avg # of iterations =  5.0

     total cpu time spent up to now is     1664.0 secs

     total energy              =   -1555.06437313 Ry
     estimated scf accuracy    <       0.00000002 Ry

     iteration # 12     ecut=    60.00 Ry     beta= 0.30
     Davidson diagonalization with overlap
     ethr =  4.42E-12,  avg # of iterations =  2.0

     total cpu time spent up to now is     1677.3 secs

     total energy              =   -1555.06437316 Ry
     estimated scf accuracy    <          6.8E-09 Ry

     iteration # 13     ecut=    60.00 Ry     beta= 0.30
     Davidson diagonalization with overlap
     ethr =  2.10E-12,  avg # of iterations =  4.8

     total cpu time spent up to now is     1692.3 secs

     total energy              =   -1555.06437318 Ry
     estimated scf accuracy    <          9.9E-09 Ry

     iteration # 14     ecut=    60.00 Ry     beta= 0.30
     Davidson diagonalization with overlap
     ethr =  2.10E-12,  avg # of iterations =  2.0

     total cpu time spent up to now is     1705.3 secs

     total energy              =   -1555.06437319 Ry
     estimated scf accuracy    <          9.5E-09 Ry

     iteration # 15     ecut=    60.00 Ry     beta= 0.30
     Davidson diagonalization with overlap
     ethr =  2.10E-12,  avg # of iterations =  1.5

     total cpu time spent up to now is     1718.0 secs

     total energy              =   -1555.06437321 Ry
     estimated scf accuracy    <       0.00000001 Ry

     iteration # 16     ecut=    60.00 Ry     beta= 0.30
     Davidson diagonalization with overlap
     ethr =  2.10E-12,  avg # of iterations =  2.0

     total cpu time spent up to now is     1730.8 secs

     End of self-consistent calculation

          k = 0.0000 0.0000 0.0000 (399281 PWs)   bands (ev):

   -49.3401 -49.3401 -49.3401 -49.3401 -49.3401 -49.3401 -49.3401 -49.3401
   -49.3401 -49.3401 -49.3401 -49.3400 -49.3400 -49.3400 -49.3400 -49.3400
   -49.3400 -49.3400 -48.6219 -48.6218 -48.6218 -48.6217 -48.6217 -48.6217
   -48.6217 -48.6217 -48.6217 -48.6217 -48.6217 -48.6217 -48.6217 -48.6217
   -48.6217 -48.6217 -48.6217 -48.6217 -48.3169 -48.3169 -48.3168 -48.3168
   -48.3168 -48.3168 -48.3168 -48.3168 -48.3168 -48.3168 -48.3168 -48.3168
   -48.3167 -48.3167 -48.3167 -48.3167 -48.3167 -48.3167 -48.2818 -48.2789
   -48.2789 -48.2789 -48.2789 -48.2789 -48.2789 -48.2775 -48.2775 -48.2755
   -48.2742 -48.2742 -48.2742 -48.2742 -48.2742 -48.2742 -48.2736 -48.2736
   -48.2662 -48.2662 -48.2662 -48.2662 -48.2662 -48.2662 -48.2662 -48.2643
   -48.2643 -48.2643 -48.2643 -48.2601 -48.2601 -48.2601 -48.2601 -48.2601
   -48.2601 -48.2566 -48.2016 -48.2016 -48.2016 -48.2016 -48.2013 -48.2013
   -48.2013 -48.2013 -48.2013 -48.2013 -48.2012 -48.2012 -48.2012 -48.2012
   -48.2012 -48.2012 -48.2011 -48.2005  -5.1672  -4.7421  -4.4635  -4.4635
    -4.4635  -4.4635  -4.4635  -4.4635  -4.0358  -4.0358  -4.0358  -4.0358
    -4.0358  -4.0358  -4.0067  -3.2955  -3.2955  -3.2955  -3.2955  -3.2955
    -3.2955  -3.0789  -3.0789  -3.0757  -3.0757  -3.0757  -3.0757  -3.0722
    -2.6421  -2.6421  -2.6421  -2.6421  -2.6315  -2.6315  -2.3768  -2.3768
    -2.3768  -2.3768  -2.3768  -2.3768  -2.3340  -2.3340  -2.3340  -2.3340
    -2.3340  -2.3340  -2.0873  -1.9154  -1.9154  -1.9154  -1.9154  -1.9154
    -1.9154  -1.8986  -1.8986  -1.8986  -1.8986  -1.8437  -1.8437  -1.4681
    -1.4681  -1.4681  -1.4681  -1.4681  -1.4681  -1.1595  -1.1595  -1.1595
    -1.1595  -1.1595  -1.1595  -1.0867  -1.0867  -1.0867  -1.0867  -1.0867
    -1.0867  -1.0814  -1.0814  -1.0814  -1.0814  -1.0406  -0.6921  -0.6921
    -0.5648  -0.5648

          k = 0.0000 0.2887 0.0000 (399667 PWs)   bands (ev):

   -49.3402 -49.3402 -49.3402 -49.3402 -49.3402 -49.3402 -49.3401 -49.3401
   -49.3401 -49.3401 -49.3401 -49.3401 -49.3401 -49.3401 -49.3400 -49.3400
   -49.3400 -49.3400 -48.6221 -48.6218 -48.6218 -48.6218 -48.6218 -48.6218
   -48.6218 -48.6218 -48.6218 -48.6217 -48.6217 -48.6217 -48.6217 -48.6217
   -48.6217 -48.6217 -48.6217 -48.6217 -48.3170 -48.3170 -48.3169 -48.3169
   -48.3169 -48.3169 -48.3168 -48.3168 -48.3168 -48.3168 -48.3168 -48.3168
   -48.3168 -48.3167 -48.3167 -48.3167 -48.3167 -48.3167 -48.2817 -48.2799
   -48.2793 -48.2793 -48.2784 -48.2784 -48.2782 -48.2777 -48.2777 -48.2755
   -48.2747 -48.2743 -48.2743 -48.2741 -48.2740 -48.2740 -48.2737 -48.2737
   -48.2663 -48.2663 -48.2662 -48.2662 -48.2661 -48.2661 -48.2661 -48.2652
   -48.2652 -48.2633 -48.2633 -48.2614 -48.2610 -48.2610 -48.2598 -48.2598
   -48.2591 -48.2571 -48.2017 -48.2017 -48.2016 -48.2016 -48.2016 -48.2015
   -48.2015 -48.2015 -48.2013 -48.2013 -48.2013 -48.2013 -48.2013 -48.2012
   -48.2012 -48.2012 -48.2011 -48.2009  -5.1233  -4.7717  -4.6981  -4.5957
    -4.5957  -4.3450  -4.2436  -4.2436  -4.1684  -4.1684  -4.0670  -3.9622
    -3.8153  -3.8153  -3.6388  -3.6060  -3.5460  -3.5460  -3.4283  -3.4283
    -3.1211  -3.1211  -3.0752  -3.0752  -3.0267  -3.0220  -3.0220  -3.0096
    -2.9036  -2.6655  -2.6643  -2.6643  -2.6102  -2.6102  -2.5679  -2.5258
    -2.5258  -2.4876  -2.4876  -2.3629  -2.3629  -2.2335  -2.2335  -2.1289
    -2.1289  -2.0850  -2.0850  -2.0425  -1.9899  -1.9746  -1.9746  -1.8379
    -1.8379  -1.8320  -1.7041  -1.6171  -1.5485  -1.5485  -1.5410  -1.5410
    -1.5275  -1.5275  -1.4664  -1.4664  -1.4064  -1.4064  -1.3159  -1.3159
    -1.2601  -1.1961  -1.1961  -1.1893  -1.1893  -1.1887  -1.1812  -1.0027
    -0.9820  -0.9820  -0.9079  -0.9079  -0.9031  -0.9031  -0.8069  -0.7980
    -0.7370  -0.7035

          k = 0.0000-0.5774 0.0000 (399688 PWs)   bands (ev):

   -49.3402 -49.3402 -49.3402 -49.3402 -49.3401 -49.3401 -49.3401 -49.3401
   -49.3401 -49.3401 -49.3401 -49.3401 -49.3401 -49.3401 -49.3401 -49.3401
   -49.3401 -49.3401 -48.6219 -48.6219 -48.6219 -48.6219 -48.6218 -48.6218
   -48.6217 -48.6217 -48.6217 -48.6217 -48.6217 -48.6217 -48.6217 -48.6217
   -48.6217 -48.6217 -48.6217 -48.6217 -48.3171 -48.3171 -48.3169 -48.3169
   -48.3169 -48.3168 -48.3168 -48.3168 -48.3168 -48.3168 -48.3168 -48.3167
   -48.3167 -48.3167 -48.3167 -48.3167 -48.3167 -48.3167 -48.2811 -48.2811
   -48.2794 -48.2794 -48.2779 -48.2779 -48.2779 -48.2779 -48.2779 -48.2751
   -48.2751 -48.2744 -48.2744 -48.2740 -48.2738 -48.2738 -48.2738 -48.2738
   -48.2663 -48.2663 -48.2662 -48.2662 -48.2659 -48.2658 -48.2658 -48.2658
   -48.2658 -48.2620 -48.2620 -48.2620 -48.2620 -48.2619 -48.2596 -48.2596
   -48.2580 -48.2580 -48.2016 -48.2015 -48.2015 -48.2015 -48.2015 -48.2015
   -48.2015 -48.2015 -48.2015 -48.2015 -48.2013 -48.2013 -48.2012 -48.2012
   -48.2012 -48.2012 -48.2011 -48.2011  -4.9916  -4.9916  -4.6398  -4.6398
    -4.5657  -4.5657  -4.2126  -4.2126  -3.9369  -3.9369  -3.9369  -3.9369
    -3.8285  -3.8285  -3.5860  -3.5804  -3.5079  -3.5079  -3.5079  -3.5079
    -3.4726  -3.4726  -3.1526  -3.1520  -2.8905  -2.8905  -2.8902  -2.8902
    -2.8902  -2.8902  -2.7717  -2.7717  -2.7717  -2.7717  -2.5311  -2.5311
    -2.4455  -2.4455  -2.4455  -2.4455  -2.4269  -2.3924  -1.9555  -1.9555
    -1.9555  -1.9555  -1.9103  -1.9103  -1.8537  -1.8537  -1.8537  -1.8537
    -1.7035  -1.7035  -1.7035  -1.7035  -1.6422  -1.5906  -1.5906  -1.5555
    -1.5555  -1.5422  -1.5422  -1.4795  -1.4795  -1.4795  -1.4795  -1.3494
    -1.3179  -1.1105  -1.1105  -1.0994  -1.0994  -1.0549  -1.0549  -1.0549
    -1.0549  -0.9148  -0.9148  -0.8113  -0.8113  -0.7674  -0.7674  -0.7674
    -0.7674  -0.7547

          k = 0.2500-0.7217 0.0000 (399610 PWs)   bands (ev):

   -49.3402 -49.3402 -49.3402 -49.3402 -49.3401 -49.3401 -49.3401 -49.3401
   -49.3401 -49.3401 -49.3401 -49.3401 -49.3401 -49.3401 -49.3400 -49.3400
   -49.3400 -49.3400 -48.6220 -48.6218 -48.6218 -48.6218 -48.6218 -48.6218
   -48.6218 -48.6218 -48.6218 -48.6217 -48.6217 -48.6217 -48.6217 -48.6217
   -48.6217 -48.6217 -48.6216 -48.6216 -48.3170 -48.3169 -48.3169 -48.3169
   -48.3168 -48.3168 -48.3168 -48.3168 -48.3168 -48.3168 -48.3168 -48.3168
   -48.3168 -48.3167 -48.3167 -48.3167 -48.3166 -48.3166 -48.2812 -48.2803
   -48.2803 -48.2785 -48.2785 -48.2780 -48.2780 -48.2780 -48.2778 -48.2753
   -48.2748 -48.2748 -48.2740 -48.2740 -48.2738 -48.2738 -48.2738 -48.2738
   -48.2663 -48.2662 -48.2662 -48.2660 -48.2660 -48.2658 -48.2658 -48.2657
   -48.2656 -48.2626 -48.2621 -48.2619 -48.2619 -48.2608 -48.2608 -48.2586
   -48.2586 -48.2577 -48.2016 -48.2016 -48.2016 -48.2016 -48.2015 -48.2015
   -48.2014 -48.2014 -48.2014 -48.2013 -48.2013 -48.2013 -48.2012 -48.2012
   -48.2011 -48.2011 -48.2011 -48.2011  -5.0355  -4.8597  -4.8597  -4.6099
    -4.4333  -4.4333  -4.3321  -4.3321  -3.9815  -3.9038  -3.9038  -3.8731
    -3.8036  -3.8036  -3.6949  -3.6949  -3.5521  -3.4590  -3.4539  -3.3798
    -3.3798  -3.2698  -3.2698  -3.1625  -3.1625  -3.0256  -3.0227  -2.9358
    -2.8550  -2.8550  -2.8117  -2.7550  -2.7550  -2.6182  -2.6182  -2.4420
    -2.4385  -2.2992  -2.2625  -2.2625  -2.2591  -2.2120  -2.2120  -2.1129
    -2.1129  -2.0033  -2.0017  -1.9904  -1.9540  -1.8613  -1.8216  -1.8216
    -1.7856  -1.7856  -1.7814  -1.7814  -1.7251  -1.7251  -1.5338  -1.5150
    -1.5150  -1.4954  -1.3464  -1.3464  -1.3356  -1.3356  -1.2749  -1.2651
    -1.2250  -1.2250  -1.2241  -1.2239  -1.2239  -1.0539  -1.0539  -1.0133
    -1.0133  -0.9587  -0.9329  -0.8784  -0.8784  -0.8339  -0.8339  -0.7905
    -0.7453  -0.7453

     the Fermi energy is    -1.7496 ev

!    total energy              =   -1555.06437326 Ry
     estimated scf accuracy    <          8.9E-11 Ry
     smearing contrib. (-TS)   =      -0.01370358 Ry
     internal energy E=F+TS    =   -1555.05066968 Ry

     The total energy is F=E-TS. E is the sum of the following terms:
     one-electron contribution =  -14010.15648912 Ry
     hartree contribution      =    6838.65966557 Ry
     xc contribution           =    -359.01036417 Ry
     ewald contribution        =    5975.45651804 Ry

     convergence has been achieved in  16 iterations

     Forces acting on atoms (cartesian axes, Ry/au):

     atom    1 type  1   force =    -0.00000000   -0.00000000   -0.00038418
     atom    2 type  1   force =    -0.00000005   -0.00000003    0.00423971
     atom    3 type  1   force =    -0.00000009   -0.00000005   -0.00274604
     atom    4 type  1   force =    -0.00000000   -0.00000000   -0.00140836
     atom    5 type  1   force =    -0.00000010   -0.00000006    0.00069185
     atom    6 type  1   force =    -0.00000010   -0.00000006   -0.00062790
     atom    7 type  1   force =    -0.00000010   -0.00000009    0.00062784
     atom    8 type  1   force =    -0.00000016   -0.00000009   -0.00069188
     atom    9 type  1   force =    -0.00000011   -0.00000006    0.00140836
     atom   10 type  1   force =     0.00000000    0.00000000    0.00274605
     atom   11 type  1   force =    -0.00000014   -0.00000008   -0.00423963
     atom   12 type  1   force =    -0.00000000   -0.00000000    0.00038442
     atom   13 type  1   force =     0.00000001    0.00000003   -0.00038431
     atom   14 type  1   force =    -0.00000000    0.00000000    0.00423960
     atom   15 type  1   force =     0.00000000    0.00000010   -0.00274604
     atom   16 type  1   force =    -0.00000003    0.00000009   -0.00140835
     atom   17 type  1   force =    -0.00000001    0.00000000    0.00069179
     atom   18 type  1   force =     0.00000000    0.00000012   -0.00062790
     atom   19 type  1   force =     0.00000003    0.00000014    0.00062784
     atom   20 type  1   force =    -0.00000003    0.00000002   -0.00069187
     atom   21 type  1   force =     0.00000000    0.00000013    0.00140836
     atom   22 type  1   force =    -0.00000003    0.00000012    0.00274605
     atom   23 type  1   force =    -0.00000005    0.00000003   -0.00423952
     atom   24 type  1   force =     0.00000000    0.00000000    0.00038442
     atom   25 type  1   force =    -0.00000002   -0.00000003   -0.00038431
     atom   26 type  1   force =     0.00000000    0.00000006    0.00423971
     atom   27 type  1   force =    -0.00000009    0.00000005   -0.00274597
     atom   28 type  1   force =    -0.00000010   -0.00000002   -0.00140835
     atom   29 type  1   force =     0.00000000    0.00000012    0.00069185
     atom   30 type  1   force =    -0.00000011    0.00000007   -0.00062784
     atom   31 type  1   force =     0.00000000    0.00000000    0.00062792
     atom   32 type  1   force =     0.00000000    0.00000018   -0.00069188
     atom   33 type  1   force =    -0.00000016    0.00000009    0.00140833
     atom   34 type  1   force =    -0.00000012   -0.00000003    0.00274605
     atom   35 type  1   force =     0.00000000    0.00000016   -0.00423963
     atom   36 type  1   force =    -0.00000006    0.00000003    0.00038427
     atom   37 type  1   force =     0.00000004   -0.00000000   -0.00038431
     atom   38 type  1   force =     0.00000000   -0.00000000    0.00423960
     atom   39 type  1   force =     0.00000009   -0.00000005   -0.00274604
     atom   40 type  1   force =     0.00000006   -0.00000007   -0.00140835
     atom   41 type  1   force =     0.00000000   -0.00000001    0.00069179
     atom   42 type  1   force =     0.00000010   -0.00000006   -0.00062790
     atom   43 type  1   force =     0.00000000    0.00000000    0.00062786
     atom   44 type  1   force =     0.00000000   -0.00000004   -0.00069187
     atom   45 type  1   force =     0.00000011   -0.00000006    0.00140836
     atom   46 type  1   force =     0.00000008   -0.00000009    0.00274605
     atom   47 type  1   force =    -0.00000000   -0.00000006   -0.00423952
     atom   48 type  1   force =     0.00000000   -0.00000000    0.00038442
     atom   49 type  1   force =     0.00000000    0.00000000   -0.00038436
     atom   50 type  1   force =     0.00000000    0.00000000    0.00423960
     atom   51 type  1   force =     0.00000004    0.00000002   -0.00274605
     atom   52 type  1   force =     0.00000000    0.00000000   -0.00140839
     atom   53 type  1   force =     0.00000001    0.00000000    0.00069179
     atom   54 type  1   force =     0.00000006    0.00000003   -0.00062789
     atom   55 type  1   force =    -0.00000003    0.00000014    0.00062784
     atom   56 type  1   force =     0.00000003    0.00000002   -0.00069187
     atom   57 type  1   force =     0.00000002    0.00000001    0.00140833
     atom   58 type  1   force =     0.00000000    0.00000000    0.00274609
     atom   59 type  1   force =     0.00000005    0.00000003   -0.00423952
     atom   60 type  1   force =    -0.00000003   -0.00000002    0.00038438
     atom   61 type  1   force =     0.00000002   -0.00000003   -0.00038431
     atom   62 type  1   force =     0.00000001   -0.00000001    0.00423959
     atom   63 type  1   force =     0.00000000   -0.00000005   -0.00274605
     atom   64 type  1   force =     0.00000010   -0.00000002   -0.00140835
     atom   65 type  1   force =    -0.00000003    0.00000002    0.00069184
     atom   66 type  1   force =     0.00000000   -0.00000007   -0.00062789
     atom   67 type  1   force =    -0.00000013   -0.00000004    0.00062784
     atom   68 type  1   force =    -0.00000005    0.00000003   -0.00069198
     atom   69 type  1   force =     0.00000000   -0.00000003    0.00140833
     atom   70 type  1   force =     0.00000012   -0.00000003    0.00274605
     atom   71 type  1   force =    -0.00000006    0.00000003   -0.00423957
     atom   72 type  1   force =     0.00000000    0.00000003    0.00038438
     atom   73 type  1   force =    -0.00000004   -0.00000000   -0.00038431
     atom   74 type  1   force =     0.00000005   -0.00000003    0.00423971
     atom   75 type  1   force =     0.00000000   -0.00000011   -0.00274597
     atom   76 type  1   force =    -0.00000006   -0.00000007   -0.00140835
     atom   77 type  1   force =     0.00000010   -0.00000006    0.00069185
     atom   78 type  1   force =     0.00000000   -0.00000013   -0.00062784
     atom   79 type  1   force =     0.00000010   -0.00000009    0.00062784
     atom   80 type  1   force =     0.00000016   -0.00000009   -0.00069188
     atom   81 type  1   force =     0.00000000   -0.00000018    0.00140833
     atom   82 type  1   force =    -0.00000008   -0.00000009    0.00274605
     atom   83 type  1   force =     0.00000014   -0.00000008   -0.00423963
     atom   84 type  1   force =     0.00000000   -0.00000006    0.00038427
     atom   85 type  1   force =    -0.00000001    0.00000003   -0.00038431
     atom   86 type  1   force =     0.00000000    0.00000002    0.00423959
     atom   87 type  1   force =    -0.00000004    0.00000002   -0.00274605
     atom   88 type  1   force =     0.00000003    0.00000009   -0.00140835
     atom   89 type  1   force =     0.00000000   -0.00000004    0.00069184
     atom   90 type  1   force =    -0.00000006    0.00000003   -0.00062789
     atom   91 type  1   force =     0.00000000    0.00000000    0.00062774
     atom   92 type  1   force =     0.00000000   -0.00000006   -0.00069198
     atom   93 type  1   force =    -0.00000002    0.00000001    0.00140833
     atom   94 type  1   force =     0.00000003    0.00000012    0.00274605
     atom   95 type  1   force =     0.00000000   -0.00000007   -0.00423957
     atom   96 type  1   force =     0.00000003   -0.00000002    0.00038438
     atom   97 type  1   force =     0.00000000    0.00000000   -0.00038435
     atom   98 type  1   force =    -0.00000001   -0.00000001    0.00423959
     atom   99 type  1   force =     0.00000009    0.00000005   -0.00274597
     atom  100 type  1   force =     0.00000000    0.00000000   -0.00140834
     atom  101 type  1   force =     0.00000003    0.00000002    0.00069184
     atom  102 type  1   force =     0.00000011    0.00000007   -0.00062784
     atom  103 type  1   force =     0.00000013   -0.00000004    0.00062784
     atom  104 type  1   force =     0.00000005    0.00000003   -0.00069198
     atom  105 type  1   force =     0.00000016    0.00000009    0.00140833
     atom  106 type  1   force =     0.00000000    0.00000000    0.00274599
     atom  107 type  1   force =     0.00000006    0.00000003   -0.00423957
     atom  108 type  1   force =     0.00000006    0.00000003    0.00038427

     Total force =     0.022657     Total SCF correction =     0.000015


     Computing stress (Cartesian axis) and pressure

          total   stress  (Ry/bohr**3)                   (kbar)     P=       -4.83
  -0.00003534  -0.00000000   0.00000000           -5.20       -0.00        0.00
  -0.00000000  -0.00003534   0.00000000           -0.00       -5.20        0.00
  -0.00000000  -0.00000000  -0.00002787           -0.00       -0.00       -4.10

     Energy error            =      4.7E-03 Ry
     Gradient error          =      4.2E-03 Ry/Bohr

     number of scf cycles    =   7
     number of bfgs steps    =   6

     energy             old  =   -1555.0596577048 Ry
     energy             new  =   -1555.0643732573 Ry

     CASE: energy            _new < energy            _old

     new trust radius        =       0.0541438315 bohr
     new conv_thr            =       0.0000000004 Ry


ATOMIC_POSITIONS (angstrom)
Li              -0.0000000000       -0.0000000000       14.9955380799
Li               2.4319641334        1.4040951471       16.0746781580
Li               4.8639261323        2.8081890618       16.9314211008
Li               7.2958834680        4.2122802843       17.9489235209
Li               2.4319658443        1.4040961349       18.9722458684
Li               4.8639267781        2.8081894347       19.9633624561
Li               2.4319652708        4.2122829142       20.9579224554
Li               2.4319660361        1.4040962456       21.9490395200
Li               4.8639261953        2.8081890982       22.9723605982
Li               7.2958834680        4.2122802843       23.9898624812
Li               2.4319641986        1.4040951848       24.8466045632
Li               4.8639238543        2.8081877466       25.9257384745
Li               2.4319633333        4.2122812634       14.9955441024
Li               4.8639236424        5.6163729442       16.0746823672
Li               7.2958834680        7.0204627291       16.9314211008
Li               9.7278452655        8.4245558672       17.9489221458
Li               4.8639241843        5.6163726314       18.9722465351
Li               7.2958834680        7.0204619834       19.9633624561
Li               4.8639220919        8.4245556900       20.9579224554
Li               4.8639241352        5.6163726597       21.9490376007
Li               7.2958834680        7.0204626564       22.9723605982
Li               9.7278447091        8.4245568631       23.9898632430
Li               4.8639241044        5.6163726775       24.8466011857
Li               7.2958834680        7.0204653596       25.9257384745
Li               4.8639225527        8.4245581934       14.9955441024
Li               7.2958834680        9.8286505585       16.0746781580
Li               9.7278475936       11.2327457102       16.9314186458
Li              12.1598101722       12.6368426480       17.9489221458
Li               7.2958834680        9.8286485830       18.9722458684
Li               9.7278477703       11.2327456082       19.9633627199
Li               7.2958834680       12.6368408528       20.9579223058
Li               7.2958834680        9.8286483615       21.9490395200
Li               9.7278477899       11.2327455969       22.9723629047
Li              12.1598090316       12.6368426319       23.9898632430
Li               7.2958834680        9.8286504833       24.8466045632
Li               9.7278460989       11.2327465732       25.9257413503
Li               4.8639242485        0.0000013961       14.9955441024
Li               7.2958834680        1.4040949644       16.0746823672
Li               9.7278408038        2.8081890618       16.9314211008
Li              12.1598020293        4.2122831904       17.9489221458
Li               7.2958834680        1.4040955900       18.9722465351
Li               9.7278401580        2.8081894347       19.9633624561
Li               7.2958834680        4.2122802843       20.9579218204
Li               7.2958834680        1.4040955334       21.9490376007
Li               9.7278407408        2.8081890982       22.9723605982
Li              12.1598026136        4.2122822106       23.9898632430
Li               7.2958834680        1.4040954978       24.8466011857
Li               9.7278430818        2.8081877466       25.9257384745
Li               7.2958834680        4.2122802843       14.9955463385
Li               9.7278432937        5.6163729442       16.0746823672
Li              12.1598041256        7.0204661852       16.9314193548
Li              14.5917669361        8.4245605685       17.9489218554
Li               9.7278427518        5.6163726314       18.9722465351
Li              12.1598031636        7.0204656298       19.9633615523
Li               9.7278448442        8.4245556900       20.9579224554
Li               9.7278428009        5.6163726597       21.9490376007
Li              12.1598039809        7.0204661016       22.9723613925
Li              14.5917669361        8.4245605685       23.9898621462
Li               9.7278428317        5.6163726775       24.8466011857
Li              12.1598049979        7.0204666888       25.9257399300
Li               9.7278443834        8.4245581934       14.9955441024
Li              12.1598064879        9.8286535880       16.0746801225
Li              14.5917669361       11.2327493351       16.9314193548
Li              17.0237237000       12.6368426480       17.9489221458
Li              12.1598069907        9.8286532977       18.9722450131
Li              14.5917669361       11.2327504460       19.9633615523
Li              12.1598101150       12.6368431014       20.9579224554
Li              12.1598069293        9.8286533331       21.9490397063
Li              14.5917669361       11.2327495023       22.9723613925
Li              17.0237248406       12.6368426319       23.9898632430
Li              12.1598063752        9.8286536530       24.8466025311
Li              14.5917669361       11.2327483280       25.9257399300
Li               9.7278426876        0.0000013961       14.9955441024
Li              12.1598028027        1.4040951471       16.0746781580
Li              14.5917669361        2.8081902851       16.9314186458
Li               2.4319649068        4.2122831904       17.9489221458
Li              12.1598010918        1.4040961349       18.9722458684
Li              14.5917669361        2.8081904891       19.9633627199
Li              12.1598016653        4.2122829142       20.9579224554
Li              12.1598009000        1.4040962456       21.9490395200
Li              14.5917669361        2.8081905117       22.9723629047
Li              17.0237312586        4.2122822106       23.9898632430
Li              12.1598027375        1.4040951848       24.8466045632
Li              14.5917669361        2.8081885591       25.9257413503
Li              12.1598036028        4.2122812634       14.9955441024
Li              14.5917669361        5.6163745296       16.0746801225
Li              17.0237297466        7.0204661852       16.9314193548
Li              19.4556886067        8.4245558672       17.9489221458
Li              14.5917669361        5.6163751102       18.9722450131
Li              17.0237307086        7.0204656298       19.9633615523
Li              14.5917669361        8.4245605685       20.9579238464
Li              14.5917669361        5.6163750393       21.9490397063
Li              17.0237298913        7.0204661016       22.9723613925
Li              19.4556891631        8.4245568631       23.9898632430
Li              14.5917669361        5.6163743995       24.8466025311
Li              17.0237288743        7.0204666888       25.9257399300
Li              14.5917669361        8.4245605685       14.9955442109
Li              17.0237273843        9.8286535880       16.0746801225
Li              19.4556862786       11.2327457102       16.9314186458
Li              21.8876504041       12.6368408528       17.9489207757
Li              17.0237268815        9.8286532977       18.9722450131
Li              19.4556861019       11.2327456082       19.9633627199
Li              17.0237237572       12.6368431014       20.9579224554
Li              17.0237269429        9.8286533331       21.9490397063
Li              19.4556860823       11.2327455969       22.9723629047
Li              21.8876504041       12.6368408528       23.9898667295
Li              17.0237274970        9.8286536530       24.8466025311
Li              19.4556877733       11.2327465732       25.9257413503



     Writing config-only to output data dir /scratch/deepanthpcu/ml/tmp/Lislab/Lislab.save/ :
     XML data file
     NEW-OLD atomic charge density approx. for the potential

     negative rho (up, down):  3.798E-05 0.000E+00

     total cpu time spent up to now is     1745.9 secs

     per-process dynamical memory:   119.1 Mb

     Self-consistent Calculation

     iteration #  1     ecut=    60.00 Ry     beta= 0.30
     Davidson diagonalization with overlap
     ethr =  1.00E-06,  avg # of iterations =  6.0

     negative rho (up, down):  2.199E-05 0.000E+00

     total cpu time spent up to now is     1771.1 secs

     total energy              =   -1555.06956271 Ry
     estimated scf accuracy    <       0.00123303 Ry

     iteration #  2     ecut=    60.00 Ry     beta= 0.30
     Davidson diagonalization with overlap
     ethr =  3.81E-07,  avg # of iterations =  5.0

     negative rho (up, down):  2.218E-05 0.000E+00

     total cpu time spent up to now is     1786.7 secs

     total energy              =   -1555.06936040 Ry
     estimated scf accuracy    <       0.00582000 Ry

     iteration #  3     ecut=    60.00 Ry     beta= 0.30
     Davidson diagonalization with overlap
     ethr =  3.81E-07,  avg # of iterations =  4.5

     negative rho (up, down):  1.434E-05 0.000E+00

     total cpu time spent up to now is     1801.4 secs

     total energy              =   -1555.06983820 Ry
     estimated scf accuracy    <       0.00062730 Ry

     iteration #  4     ecut=    60.00 Ry     beta= 0.30
     Davidson diagonalization with overlap
     ethr =  1.94E-07,  avg # of iterations =  1.8

     negative rho (up, down):  2.464E-05 0.000E+00

     total cpu time spent up to now is     1814.0 secs

     total energy              =   -1555.06985087 Ry
     estimated scf accuracy    <       0.00051794 Ry

     iteration #  5     ecut=    60.00 Ry     beta= 0.30
     Davidson diagonalization with overlap
     ethr =  1.60E-07,  avg # of iterations =  1.0

     negative rho (up, down):  8.380E-07 0.000E+00

     total cpu time spent up to now is     1826.3 secs

     total energy              =   -1555.06986719 Ry
     estimated scf accuracy    <       0.00010987 Ry

     iteration #  6     ecut=    60.00 Ry     beta= 0.30
     Davidson diagonalization with overlap
     ethr =  3.39E-08,  avg # of iterations =  3.0

     negative rho (up, down):  5.507E-07 0.000E+00

     total cpu time spent up to now is     1839.8 secs

     total energy              =   -1555.06987106 Ry
     estimated scf accuracy    <       0.00001977 Ry

     iteration #  7     ecut=    60.00 Ry     beta= 0.30
     Davidson diagonalization with overlap
     ethr =  6.10E-09,  avg # of iterations =  3.0

     negative rho (up, down):  2.886E-07 0.000E+00

     total cpu time spent up to now is     1852.9 secs

     total energy              =   -1555.06987301 Ry
     estimated scf accuracy    <       0.00000373 Ry

     iteration #  8     ecut=    60.00 Ry     beta= 0.30
     Davidson diagonalization with overlap
     ethr =  1.15E-09,  avg # of iterations =  5.0

     negative rho (up, down):  9.641E-08 0.000E+00

     total cpu time spent up to now is     1867.7 secs

     total energy              =   -1555.06987376 Ry
     estimated scf accuracy    <       0.00000723 Ry

     iteration #  9     ecut=    60.00 Ry     beta= 0.30
     Davidson diagonalization with overlap
     ethr =  1.15E-09,  avg # of iterations =  1.2

     negative rho (up, down):  7.913E-08 0.000E+00

     total cpu time spent up to now is     1879.9 secs

     total energy              =   -1555.06987371 Ry
     estimated scf accuracy    <       0.00000248 Ry

     iteration # 10     ecut=    60.00 Ry     beta= 0.30
     Davidson diagonalization with overlap
     ethr =  7.65E-10,  avg # of iterations =  3.8

     total cpu time spent up to now is     1893.8 secs

     total energy              =   -1555.06987397 Ry
     estimated scf accuracy    <       0.00000009 Ry

     iteration # 11     ecut=    60.00 Ry     beta= 0.30
     Davidson diagonalization with overlap
     ethr =  2.70E-11,  avg # of iterations =  5.2

     total cpu time spent up to now is     1910.3 secs

     total energy              =   -1555.06987395 Ry
     estimated scf accuracy    <       0.00000046 Ry

     iteration # 12     ecut=    60.00 Ry     beta= 0.30
     Davidson diagonalization with overlap
     ethr =  2.70E-11,  avg # of iterations =  3.5

     total cpu time spent up to now is     1924.5 secs

     total energy              =   -1555.06987391 Ry
     estimated scf accuracy    <          8.8E-09 Ry

     iteration # 13     ecut=    60.00 Ry     beta= 0.30
     Davidson diagonalization with overlap
     ethr =  2.73E-12,  avg # of iterations =  5.2

     total cpu time spent up to now is     1941.0 secs

     total energy              =   -1555.06987386 Ry
     estimated scf accuracy    <       0.00000004 Ry

     iteration # 14     ecut=    60.00 Ry     beta= 0.30
     Davidson diagonalization with overlap
     ethr =  2.73E-12,  avg # of iterations =  4.0

     total cpu time spent up to now is     1955.4 secs

     total energy              =   -1555.06987386 Ry
     estimated scf accuracy    <       0.00000001 Ry

     iteration # 15     ecut=    60.00 Ry     beta= 0.30
     Davidson diagonalization with overlap
     ethr =  2.73E-12,  avg # of iterations =  3.5

     total cpu time spent up to now is     1969.3 secs

     total energy              =   -1555.06987386 Ry
     estimated scf accuracy    <       0.00000001 Ry

     iteration # 16     ecut=    60.00 Ry     beta= 0.30
     Davidson diagonalization with overlap
     ethr =  2.73E-12,  avg # of iterations =  1.0

     total cpu time spent up to now is     1981.3 secs

     total energy              =   -1555.06987386 Ry
     estimated scf accuracy    <          1.6E-09 Ry

     iteration # 17     ecut=    60.00 Ry     beta= 0.30
     Davidson diagonalization with overlap
     ethr =  4.96E-13,  avg # of iterations =  2.0

     total cpu time spent up to now is     1994.0 secs

     End of self-consistent calculation

          k = 0.0000 0.0000 0.0000 (399281 PWs)   bands (ev):

   -49.3318 -49.3318 -49.3318 -49.3318 -49.3318 -49.3317 -49.3317 -49.3317
   -49.3317 -49.3317 -49.3317 -49.3317 -49.3316 -49.3316 -49.3316 -49.3316
   -49.3316 -49.3316 -48.5940 -48.5939 -48.5939 -48.5939 -48.5938 -48.5938
   -48.5938 -48.5938 -48.5938 -48.5938 -48.5938 -48.5938 -48.5938 -48.5938
   -48.5938 -48.5938 -48.5938 -48.5938 -48.3072 -48.3071 -48.3071 -48.3071
   -48.3071 -48.3071 -48.3071 -48.3071 -48.3071 -48.3071 -48.3071 -48.3071
   -48.3070 -48.3070 -48.3070 -48.3070 -48.3070 -48.3069 -48.2782 -48.2747
   -48.2747 -48.2747 -48.2747 -48.2747 -48.2747 -48.2727 -48.2727 -48.2711
   -48.2697 -48.2697 -48.2697 -48.2697 -48.2697 -48.2697 -48.2688 -48.2688
   -48.2648 -48.2648 -48.2648 -48.2648 -48.2648 -48.2648 -48.2642 -48.2635
   -48.2635 -48.2635 -48.2635 -48.2591 -48.2591 -48.2591 -48.2591 -48.2591
   -48.2591 -48.2554 -48.1864 -48.1864 -48.1864 -48.1864 -48.1861 -48.1861
   -48.1861 -48.1861 -48.1861 -48.1861 -48.1860 -48.1860 -48.1860 -48.1860
   -48.1860 -48.1860 -48.1859 -48.1854  -5.1587  -4.7367  -4.4550  -4.4550
    -4.4550  -4.4550  -4.4550  -4.4550  -4.0313  -4.0313  -4.0313  -4.0313
    -4.0313  -4.0313  -3.9977  -3.2872  -3.2872  -3.2872  -3.2872  -3.2872
    -3.2872  -3.0703  -3.0703  -3.0678  -3.0678  -3.0678  -3.0678  -3.0636
    -2.6403  -2.6403  -2.6403  -2.6403  -2.6272  -2.6272  -2.3680  -2.3680
    -2.3680  -2.3680  -2.3680  -2.3680  -2.3237  -2.3237  -2.3237  -2.3237
    -2.3237  -2.3237  -2.0785  -1.9131  -1.9131  -1.9131  -1.9131  -1.9131
    -1.9131  -1.8909  -1.8909  -1.8909  -1.8909  -1.8389  -1.8389  -1.4597
    -1.4597  -1.4597  -1.4597  -1.4597  -1.4597  -1.1534  -1.1534  -1.1534
    -1.1534  -1.1534  -1.1534  -1.0790  -1.0790  -1.0790  -1.0790  -1.0790
    -1.0790  -1.0621  -1.0621  -1.0621  -1.0621  -1.0186  -0.6844  -0.6844
    -0.5669  -0.5669

          k = 0.0000 0.2887 0.0000 (399667 PWs)   bands (ev):

   -49.3319 -49.3318 -49.3318 -49.3318 -49.3318 -49.3318 -49.3318 -49.3318
   -49.3317 -49.3317 -49.3317 -49.3317 -49.3317 -49.3317 -49.3317 -49.3317
   -49.3317 -49.3316 -48.5942 -48.5939 -48.5939 -48.5939 -48.5939 -48.5939
   -48.5939 -48.5939 -48.5939 -48.5938 -48.5938 -48.5938 -48.5938 -48.5938
   -48.5938 -48.5938 -48.5938 -48.5938 -48.3073 -48.3072 -48.3072 -48.3072
   -48.3072 -48.3072 -48.3071 -48.3071 -48.3071 -48.3071 -48.3071 -48.3071
   -48.3071 -48.3071 -48.3070 -48.3070 -48.3070 -48.3070 -48.2781 -48.2760
   -48.2752 -48.2752 -48.2741 -48.2741 -48.2737 -48.2730 -48.2730 -48.2711
   -48.2702 -48.2698 -48.2698 -48.2696 -48.2695 -48.2695 -48.2690 -48.2690
   -48.2649 -48.2648 -48.2648 -48.2647 -48.2647 -48.2647 -48.2644 -48.2643
   -48.2643 -48.2624 -48.2624 -48.2605 -48.2600 -48.2600 -48.2587 -48.2587
   -48.2581 -48.2559 -48.1864 -48.1864 -48.1864 -48.1864 -48.1863 -48.1862
   -48.1862 -48.1862 -48.1861 -48.1861 -48.1861 -48.1861 -48.1861 -48.1860
   -48.1860 -48.1860 -48.1859 -48.1857  -5.1148  -4.7631  -4.6927  -4.5872
    -4.5872  -4.3401  -4.2351  -4.2351  -4.1638  -4.1638  -4.0585  -3.9532
    -3.8111  -3.8111  -3.6349  -3.5973  -3.5376  -3.5376  -3.4198  -3.4198
    -3.1180  -3.1180  -3.0672  -3.0672  -3.0179  -3.0137  -3.0137  -3.0013
    -2.8960  -2.6559  -2.6559  -2.6558  -2.6080  -2.6080  -2.5646  -2.5174
    -2.5174  -2.4774  -2.4774  -2.3558  -2.3558  -2.2305  -2.2305  -2.1180
    -2.1180  -2.0829  -2.0829  -2.0339  -1.9802  -1.9663  -1.9663  -1.8314
    -1.8314  -1.8216  -1.6955  -1.6091  -1.5415  -1.5415  -1.5331  -1.5331
    -1.5245  -1.5245  -1.4534  -1.4534  -1.3985  -1.3985  -1.3062  -1.3062
    -1.2524  -1.1893  -1.1893  -1.1869  -1.1814  -1.1814  -1.1735  -0.9809
    -0.9686  -0.9686  -0.9086  -0.9086  -0.8953  -0.8953  -0.7929  -0.7903
    -0.7391  -0.7032

          k = 0.0000-0.5774 0.0000 (399688 PWs)   bands (ev):

   -49.3319 -49.3319 -49.3318 -49.3318 -49.3318 -49.3318 -49.3318 -49.3318
   -49.3318 -49.3317 -49.3317 -49.3317 -49.3317 -49.3317 -49.3317 -49.3317
   -49.3317 -49.3317 -48.5940 -48.5940 -48.5940 -48.5940 -48.5939 -48.5939
   -48.5939 -48.5939 -48.5938 -48.5938 -48.5938 -48.5938 -48.5938 -48.5938
   -48.5938 -48.5938 -48.5938 -48.5938 -48.3073 -48.3073 -48.3072 -48.3072
   -48.3072 -48.3071 -48.3071 -48.3071 -48.3071 -48.3071 -48.3071 -48.3070
   -48.3070 -48.3070 -48.3070 -48.3070 -48.3070 -48.3070 -48.2773 -48.2773
   -48.2754 -48.2754 -48.2734 -48.2734 -48.2734 -48.2734 -48.2733 -48.2707
   -48.2707 -48.2699 -48.2699 -48.2696 -48.2692 -48.2692 -48.2692 -48.2692
   -48.2648 -48.2647 -48.2647 -48.2647 -48.2647 -48.2647 -48.2647 -48.2645
   -48.2645 -48.2611 -48.2611 -48.2611 -48.2611 -48.2611 -48.2586 -48.2586
   -48.2569 -48.2569 -48.1864 -48.1863 -48.1863 -48.1863 -48.1863 -48.1863
   -48.1863 -48.1863 -48.1863 -48.1863 -48.1861 -48.1861 -48.1860 -48.1860
   -48.1860 -48.1860 -48.1859 -48.1859  -4.9831  -4.9831  -4.6313  -4.6313
    -4.5605  -4.5605  -4.2079  -4.2079  -3.9285  -3.9285  -3.9285  -3.9285
    -3.8197  -3.8197  -3.5773  -3.5725  -3.5042  -3.5042  -3.5042  -3.5042
    -3.4641  -3.4641  -3.1502  -3.1476  -2.8820  -2.8820  -2.8820  -2.8820
    -2.8814  -2.8814  -2.7643  -2.7643  -2.7643  -2.7643  -2.5210  -2.5210
    -2.4425  -2.4425  -2.4425  -2.4425  -2.4174  -2.3870  -1.9475  -1.9475
    -1.9475  -1.9475  -1.9018  -1.9018  -1.8441  -1.8441  -1.8441  -1.8441
    -1.6933  -1.6933  -1.6933  -1.6933  -1.6249  -1.5821  -1.5821  -1.5471
    -1.5471  -1.5348  -1.5348  -1.4781  -1.4781  -1.4781  -1.4781  -1.3424
    -1.3102  -1.1101  -1.1101  -1.0978  -1.0978  -1.0460  -1.0460  -1.0460
    -1.0460  -0.8963  -0.8962  -0.8008  -0.8008  -0.7617  -0.7617  -0.7617
    -0.7617  -0.7423

          k = 0.2500-0.7217 0.0000 (399610 PWs)   bands (ev):

   -49.3319 -49.3318 -49.3318 -49.3318 -49.3318 -49.3318 -49.3318 -49.3317
   -49.3317 -49.3317 -49.3317 -49.3317 -49.3317 -49.3317 -49.3317 -49.3317
   -49.3316 -49.3316 -48.5940 -48.5940 -48.5939 -48.5939 -48.5939 -48.5939
   -48.5939 -48.5939 -48.5938 -48.5938 -48.5938 -48.5938 -48.5938 -48.5938
   -48.5938 -48.5938 -48.5937 -48.5937 -48.3073 -48.3072 -48.3072 -48.3072
   -48.3071 -48.3071 -48.3071 -48.3071 -48.3071 -48.3071 -48.3071 -48.3071
   -48.3071 -48.3070 -48.3070 -48.3070 -48.3069 -48.3069 -48.2776 -48.2764
   -48.2764 -48.2742 -48.2742 -48.2734 -48.2733 -48.2733 -48.2731 -48.2708
   -48.2704 -48.2703 -48.2695 -48.2695 -48.2693 -48.2693 -48.2692 -48.2691
   -48.2648 -48.2648 -48.2648 -48.2648 -48.2647 -48.2646 -48.2645 -48.2645
   -48.2644 -48.2618 -48.2613 -48.2611 -48.2610 -48.2599 -48.2599 -48.2576
   -48.2576 -48.2566 -48.1864 -48.1864 -48.1864 -48.1864 -48.1863 -48.1863
   -48.1862 -48.1862 -48.1861 -48.1861 -48.1861 -48.1861 -48.1860 -48.1860
   -48.1859 -48.1859 -48.1859 -48.1859  -5.0270  -4.8512  -4.8512  -4.6046
    -4.4283  -4.4283  -4.3236  -4.3236  -3.9731  -3.8995  -3.8995  -3.8642
    -3.7952  -3.7952  -3.6862  -3.6862  -3.5483  -3.4504  -3.4459  -3.3762
    -3.3762  -3.2614  -3.2614  -3.1544  -3.1544  -3.0234  -3.0185  -2.9268
    -2.8522  -2.8522  -2.8042  -2.7455  -2.7455  -2.6102  -2.6102  -2.4338
    -2.4303  -2.2904  -2.2542  -2.2542  -2.2537  -2.2011  -2.2011  -2.1064
    -2.1064  -1.9992  -1.9950  -1.9889  -1.9454  -1.8494  -1.8178  -1.8178
    -1.7792  -1.7792  -1.7730  -1.7730  -1.7098  -1.7098  -1.5329  -1.5071
    -1.5071  -1.4779  -1.3458  -1.3458  -1.3270  -1.3270  -1.2675  -1.2576
    -1.2169  -1.2169  -1.2153  -1.2151  -1.2151  -1.0476  -1.0476  -1.0140
    -1.0140  -0.9515  -0.9117  -0.8693  -0.8693  -0.8216  -0.8216  -0.7853
    -0.7396  -0.7396

     the Fermi energy is    -1.7416 ev

!    total energy              =   -1555.06987387 Ry
     estimated scf accuracy    <          3.1E-10 Ry
     smearing contrib. (-TS)   =      -0.01343137 Ry
     internal energy E=F+TS    =   -1555.05644249 Ry

     The total energy is F=E-TS. E is the sum of the following terms:
     one-electron contribution =  -14014.15351302 Ry
     hartree contribution      =    6840.78897663 Ry
     xc contribution           =    -359.03111465 Ry
     ewald contribution        =    5977.33920855 Ry

     convergence has been achieved in  17 iterations

     Forces acting on atoms (cartesian axes, Ry/au):

     atom    1 type  1   force =    -0.00000000   -0.00000000   -0.00041469
     atom    2 type  1   force =    -0.00000010   -0.00000006    0.00298609
     atom    3 type  1   force =    -0.00000016   -0.00000009   -0.00195924
     atom    4 type  1   force =     0.00000000    0.00000000   -0.00085129
     atom    5 type  1   force =    -0.00000016   -0.00000009    0.00116108
     atom    6 type  1   force =    -0.00000014   -0.00000008   -0.00099302
     atom    7 type  1   force =    -0.00000017   -0.00000008    0.00099295
     atom    8 type  1   force =    -0.00000020   -0.00000011   -0.00116112
     atom    9 type  1   force =    -0.00000012   -0.00000007    0.00085130
     atom   10 type  1   force =    -0.00000000   -0.00000000    0.00195929
     atom   11 type  1   force =    -0.00000013   -0.00000008   -0.00298598
     atom   12 type  1   force =     0.00000002    0.00000001    0.00041502
     atom   13 type  1   force =    -0.00000001    0.00000003   -0.00041494
     atom   14 type  1   force =    -0.00000002    0.00000001    0.00298590
     atom   15 type  1   force =     0.00000000    0.00000018   -0.00195924
     atom   16 type  1   force =    -0.00000001    0.00000017   -0.00085125
     atom   17 type  1   force =    -0.00000003    0.00000002    0.00116106
     atom   18 type  1   force =     0.00000000    0.00000016   -0.00099302
     atom   19 type  1   force =    -0.00000001    0.00000018    0.00099295
     atom   20 type  1   force =    -0.00000005    0.00000003   -0.00116110
     atom   21 type  1   force =     0.00000000    0.00000014    0.00085130
     atom   22 type  1   force =     0.00000001    0.00000017    0.00195926
     atom   23 type  1   force =    -0.00000006    0.00000004   -0.00298587
     atom   24 type  1   force =     0.00000000   -0.00000003    0.00041502
     atom   25 type  1   force =    -0.00000003   -0.00000001   -0.00041494
     atom   26 type  1   force =     0.00000000    0.00000012    0.00298609
     atom   27 type  1   force =    -0.00000012    0.00000007   -0.00195911
     atom   28 type  1   force =    -0.00000015   -0.00000007   -0.00085125
     atom   29 type  1   force =     0.00000000    0.00000018    0.00116108
     atom   30 type  1   force =    -0.00000012    0.00000007   -0.00099299
     atom   31 type  1   force =     0.00000000    0.00000000    0.00099300
     atom   32 type  1   force =     0.00000000    0.00000023   -0.00116112
     atom   33 type  1   force =    -0.00000016    0.00000009    0.00085125
     atom   34 type  1   force =    -0.00000014   -0.00000010    0.00195926
     atom   35 type  1   force =     0.00000000    0.00000015   -0.00298598
     atom   36 type  1   force =    -0.00000002    0.00000001    0.00041487
     atom   37 type  1   force =     0.00000003   -0.00000002   -0.00041494
     atom   38 type  1   force =     0.00000000   -0.00000002    0.00298590
     atom   39 type  1   force =     0.00000016   -0.00000009   -0.00195924
     atom   40 type  1   force =     0.00000014   -0.00000010   -0.00085125
     atom   41 type  1   force =     0.00000000   -0.00000004    0.00116106
     atom   42 type  1   force =     0.00000014   -0.00000008   -0.00099302
     atom   43 type  1   force =    -0.00000000   -0.00000000    0.00099301
     atom   44 type  1   force =     0.00000000   -0.00000006   -0.00116110
     atom   45 type  1   force =     0.00000012   -0.00000007    0.00085130
     atom   46 type  1   force =     0.00000015   -0.00000007    0.00195926
     atom   47 type  1   force =     0.00000000   -0.00000007   -0.00298587
     atom   48 type  1   force =    -0.00000002    0.00000001    0.00041502
     atom   49 type  1   force =    -0.00000000   -0.00000000   -0.00041501
     atom   50 type  1   force =     0.00000002    0.00000001    0.00298590
     atom   51 type  1   force =     0.00000011    0.00000006   -0.00195923
     atom   52 type  1   force =     0.00000000    0.00000000   -0.00085124
     atom   53 type  1   force =     0.00000003    0.00000002    0.00116106
     atom   54 type  1   force =     0.00000015    0.00000009   -0.00099299
     atom   55 type  1   force =     0.00000001    0.00000018    0.00099295
     atom   56 type  1   force =     0.00000005    0.00000003   -0.00116110
     atom   57 type  1   force =     0.00000010    0.00000006    0.00085126
     atom   58 type  1   force =     0.00000000    0.00000000    0.00195928
     atom   59 type  1   force =     0.00000006    0.00000004   -0.00298587
     atom   60 type  1   force =     0.00000001    0.00000000    0.00041489
     atom   61 type  1   force =     0.00000003   -0.00000001   -0.00041494
     atom   62 type  1   force =     0.00000001   -0.00000001    0.00298593
     atom   63 type  1   force =     0.00000000   -0.00000013   -0.00195923
     atom   64 type  1   force =     0.00000015   -0.00000007   -0.00085125
     atom   65 type  1   force =    -0.00000001    0.00000001    0.00116114
     atom   66 type  1   force =     0.00000000   -0.00000018   -0.00099299
     atom   67 type  1   force =    -0.00000015   -0.00000010    0.00099295
     atom   68 type  1   force =    -0.00000002    0.00000001   -0.00116123
     atom   69 type  1   force =     0.00000000   -0.00000011    0.00085126
     atom   70 type  1   force =     0.00000014   -0.00000010    0.00195926
     atom   71 type  1   force =    -0.00000000    0.00000000   -0.00298597
     atom   72 type  1   force =     0.00000000   -0.00000001    0.00041489
     atom   73 type  1   force =    -0.00000003   -0.00000002   -0.00041494
     atom   74 type  1   force =     0.00000010   -0.00000006    0.00298609
     atom   75 type  1   force =     0.00000000   -0.00000014   -0.00195911
     atom   76 type  1   force =    -0.00000014   -0.00000010   -0.00085125
     atom   77 type  1   force =     0.00000016   -0.00000009    0.00116108
     atom   78 type  1   force =     0.00000000   -0.00000013   -0.00099299
     atom   79 type  1   force =     0.00000017   -0.00000008    0.00099295
     atom   80 type  1   force =     0.00000020   -0.00000011   -0.00116112
     atom   81 type  1   force =     0.00000000   -0.00000018    0.00085125
     atom   82 type  1   force =    -0.00000015   -0.00000007    0.00195926
     atom   83 type  1   force =     0.00000013   -0.00000008   -0.00298598
     atom   84 type  1   force =     0.00000000   -0.00000002    0.00041487
     atom   85 type  1   force =     0.00000001    0.00000003   -0.00041494
     atom   86 type  1   force =     0.00000000    0.00000002    0.00298593
     atom   87 type  1   force =    -0.00000011    0.00000006   -0.00195923
     atom   88 type  1   force =     0.00000001    0.00000017   -0.00085125
     atom   89 type  1   force =     0.00000000   -0.00000001    0.00116114
     atom   90 type  1   force =    -0.00000015    0.00000009   -0.00099299
     atom   91 type  1   force =     0.00000000    0.00000000    0.00099283
     atom   92 type  1   force =     0.00000000   -0.00000002   -0.00116123
     atom   93 type  1   force =    -0.00000010    0.00000006    0.00085126
     atom   94 type  1   force =    -0.00000001    0.00000017    0.00195926
     atom   95 type  1   force =     0.00000000   -0.00000000   -0.00298597
     atom   96 type  1   force =    -0.00000001    0.00000000    0.00041489
     atom   97 type  1   force =     0.00000000    0.00000000   -0.00041500
     atom   98 type  1   force =    -0.00000001   -0.00000001    0.00298593
     atom   99 type  1   force =     0.00000012    0.00000007   -0.00195911
     atom  100 type  1   force =     0.00000000    0.00000000   -0.00085127
     atom  101 type  1   force =     0.00000001    0.00000001    0.00116114
     atom  102 type  1   force =     0.00000012    0.00000007   -0.00099299
     atom  103 type  1   force =     0.00000015   -0.00000010    0.00099295
     atom  104 type  1   force =     0.00000002    0.00000001   -0.00116123
     atom  105 type  1   force =     0.00000016    0.00000009    0.00085125
     atom  106 type  1   force =     0.00000000    0.00000000    0.00195915
     atom  107 type  1   force =     0.00000000    0.00000000   -0.00298597
     atom  108 type  1   force =     0.00000002    0.00000001    0.00041487

     Total force =     0.016963     Total SCF correction =     0.000029


     Computing stress (Cartesian axis) and pressure

          total   stress  (Ry/bohr**3)                   (kbar)     P=       -4.79
  -0.00003530  -0.00000000   0.00000000           -5.19       -0.00        0.00
  -0.00000000  -0.00003530   0.00000000           -0.00       -5.19        0.00
   0.00000000   0.00000000  -0.00002709            0.00        0.00       -3.98

     Energy error            =      5.5E-03 Ry
     Gradient error          =      3.0E-03 Ry/Bohr

     number of scf cycles    =   8
     number of bfgs steps    =   7

     energy             old  =   -1555.0643732573 Ry
     energy             new  =   -1555.0698738673 Ry

     CASE: energy            _new < energy            _old

     new trust radius        =       0.0812157472 bohr
     new conv_thr            =       0.0000000003 Ry


ATOMIC_POSITIONS (angstrom)
Li              -0.0000000000       -0.0000000000       14.9928694937
Li               2.4319655647        1.4040959735       16.1176535611
Li               4.8639279701        2.8081901229       16.9029696477
Li               7.2958834680        4.2122802843       17.9336652740
Li               2.4319680860        1.4040974291       18.9741478407
Li               4.8639289547        2.8081906913       19.9616691018
Li               2.4319673084        4.2122840288       20.9596164309
Li               2.4319683429        1.4040975774       21.9471383894
Li               4.8639280805        2.8081901866       22.9876189527
Li               7.2958834680        4.2122802843       24.0183137355
Li               2.4319656132        1.4040960014       24.8036286279
Li               4.8639246936        2.8081882312       25.9284036933
Li               2.4319645187        4.2122817198       14.9928782656
Li               4.8639244621        5.6163724710       16.1176596955
Li               7.2958834680        7.0204606070       16.9029696477
Li               9.7278453610        8.4245536137       17.9336632454
Li               4.8639252655        5.6163720071       18.9741488088
Li               7.2958834680        7.0204594701       19.9616691018
Li               4.8639221454        8.4245533682       20.9596164309
Li               4.8639251313        5.6163720846       21.9471354902
Li               7.2958834680        7.0204604795       22.9876189527
Li               9.7278446767        8.4245551219       24.0183148926
Li               4.8639249860        5.6163721684       24.8036236631
Li               7.2958834680        7.0204643903       25.9284036933
Li               4.8639227501        8.4245569386       14.9928782656
Li               7.2958834680        9.8286489058       16.1176535611
Li               9.7278488928       11.2327449602       16.9029660471
Li              12.1598121716       12.6368436920       17.9336632454
Li               7.2958834680        9.8286459946       18.9741478407
Li               9.7278491386       11.2327448183       19.9616695608
Li               7.2958834680       12.6368408528       20.9596162606
Li               7.2958834680        9.8286456979       21.9471383894
Li               9.7278491813       11.2327447936       22.9876224123
Li              12.1598105233       12.6368435305       24.0183148926
Li               7.2958834680        9.8286488499       24.8036286279
Li               9.7278467913       11.2327461735       25.9284078825
Li               4.8639252365        0.0000021944       14.9928782656
Li               7.2958834680        1.4040959108       16.1176596955
Li               9.7278389660        2.8081901229       16.9029696477
Li              12.1598001255        4.2122843999       17.9336632454
Li               7.2958834680        1.4040968385       18.9741488088
Li               9.7278379814        2.8081906913       19.9616691018
Li               7.2958834680        4.2122802843       20.9596154889
Li               7.2958834680        1.4040966835       21.9471354902
Li               9.7278388556        2.8081901866       22.9876189527
Li              12.1598010895        4.2122830532       24.0183148926
Li               7.2958834680        1.4040965158       24.8036236631
Li               9.7278422425        2.8081882312       25.9284036933
Li               7.2958834680        4.2122802843       14.9928816614
Li               9.7278424740        5.6163724710       16.1176596955
Li              12.1598032369        7.0204656721       16.9029669155
Li              14.5917669361        8.4245605685       17.9336627756
Li               9.7278416706        5.6163720071       18.9741488088
Li              12.1598017933        7.0204648386       19.9616678470
Li               9.7278447907        8.4245533682       20.9596164309
Li               9.7278418048        5.6163720846       21.9471354902
Li              12.1598030372        7.0204655568       22.9876202009
Li              14.5917669361        8.4245605685       24.0183133637
Li               9.7278419501        5.6163721684       24.8036236631
Li              12.1598045292        7.0204664182       25.9284058508
Li               9.7278441860        8.4245569386       14.9928782656
Li              12.1598067143        9.8286534573       16.1176561242
Li              14.5917669361       11.2327503613       16.9029669155
Li              17.0237217006       12.6368436920       17.9336632454
Li              12.1598073896        9.8286530673       18.9741466353
Li              14.5917669361       11.2327520283       19.9616678470
Li              12.1598120991       12.6368443087       20.9596164309
Li              12.1598073414        9.8286530952       21.9471386343
Li              14.5917669361       11.2327505920       22.9876202009
Li              17.0237233489       12.6368435305       24.0183148926
Li              12.1598066146        9.8286535148       24.8036256704
Li              14.5917669361       11.2327488691       25.9284058508
Li               9.7278416996        0.0000021944       14.9928782656
Li              12.1598013714        1.4040959735       16.1176535611
Li              14.5917669361        2.8081917853       16.9029660471
Li               2.4319668106        4.2122843999       17.9336632454
Li              12.1597988501        1.4040974291       18.9741478407
Li              14.5917669361        2.8081920690       19.9616695608
Li              12.1597996277        4.2122840288       20.9596164309
Li              12.1597985932        1.4040975774       21.9471383894
Li              14.5917669361        2.8081921184       22.9876224123
Li              17.0237327827        4.2122830532       24.0183148926
Li              12.1598013229        1.4040960014       24.8036286279
Li              14.5917669361        2.8081893586       25.9284078825
Li              12.1598024174        4.2122817198       14.9928782656
Li              14.5917669361        5.6163747910       16.1176561242
Li              17.0237306353        7.0204656721       16.9029669155
Li              19.4556885112        8.4245536137       17.9336632454
Li              14.5917669361        5.6163755708       18.9741466353
Li              17.0237320789        7.0204648386       19.9616678470
Li              14.5917669361        8.4245605685       20.9596185548
Li              14.5917669361        5.6163755151       21.9471386343
Li              17.0237308350        7.0204655568       22.9876202009
Li              19.4556891955        8.4245551219       24.0183148926
Li              14.5917669361        5.6163746758       24.8036256704
Li              17.0237293430        7.0204664182       25.9284058508
Li              14.5917669361        8.4245605685       14.9928781363
Li              17.0237271579        9.8286534573       16.1176561242
Li              19.4556849794       11.2327449602       16.9029660471
Li              21.8876504041       12.6368408528       17.9336611764
Li              17.0237264826        9.8286530673       18.9741466353
Li              19.4556847336       11.2327448183       19.9616695608
Li              17.0237217731       12.6368443087       20.9596164309
Li              17.0237265308        9.8286530952       21.9471386343
Li              19.4556846909       11.2327447936       22.9876224123
Li              21.8876504041       12.6368408528       24.0183200576
Li              17.0237272576        9.8286535148       24.8036256704
Li              19.4556870809       11.2327461735       25.9284078825



     Writing config-only to output data dir /scratch/deepanthpcu/ml/tmp/Lislab/Lislab.save/ :
     XML data file
     NEW-OLD atomic charge density approx. for the potential

     negative rho (up, down):  6.409E-05 0.000E+00

     total cpu time spent up to now is     2009.1 secs

     per-process dynamical memory:   119.1 Mb

     Self-consistent Calculation

     iteration #  1     ecut=    60.00 Ry     beta= 0.30
     Davidson diagonalization with overlap
     ethr =  1.00E-06,  avg # of iterations =  6.8

     negative rho (up, down):  3.910E-05 0.000E+00

     total cpu time spent up to now is     2037.0 secs

     total energy              =   -1555.07389456 Ry
     estimated scf accuracy    <       0.00277562 Ry

     iteration #  2     ecut=    60.00 Ry     beta= 0.30
     Davidson diagonalization with overlap
     ethr =  8.57E-07,  avg # of iterations =  5.0

     negative rho (up, down):  3.894E-05 0.000E+00

     total cpu time spent up to now is     2052.4 secs

     total energy              =   -1555.07344226 Ry
     estimated scf accuracy    <       0.01353604 Ry

     iteration #  3     ecut=    60.00 Ry     beta= 0.30
     Davidson diagonalization with overlap
     ethr =  8.57E-07,  avg # of iterations =  4.5

     negative rho (up, down):  2.794E-05 0.000E+00

     total cpu time spent up to now is     2067.0 secs

     total energy              =   -1555.07454019 Ry
     estimated scf accuracy    <       0.00130706 Ry

     iteration #  4     ecut=    60.00 Ry     beta= 0.30
     Davidson diagonalization with overlap
     ethr =  4.03E-07,  avg # of iterations =  1.0

     negative rho (up, down):  1.634E-05 0.000E+00

     total cpu time spent up to now is     2079.1 secs

     total energy              =   -1555.07459110 Ry
     estimated scf accuracy    <       0.00008147 Ry

     iteration #  5     ecut=    60.00 Ry     beta= 0.30
     Davidson diagonalization with overlap
     ethr =  2.51E-08,  avg # of iterations =  5.5

     negative rho (up, down):  3.143E-06 0.000E+00

     total cpu time spent up to now is     2094.9 secs

     total energy              =   -1555.07454084 Ry
     estimated scf accuracy    <       0.00375985 Ry

     iteration #  6     ecut=    60.00 Ry     beta= 0.30
     Davidson diagonalization with overlap
     ethr =  2.51E-08,  avg # of iterations =  5.0

     negative rho (up, down):  1.715E-06 0.000E+00

     total cpu time spent up to now is     2109.4 secs

     total energy              =   -1555.07460140 Ry
     estimated scf accuracy    <       0.00009690 Ry

     iteration #  7     ecut=    60.00 Ry     beta= 0.30
     Davidson diagonalization with overlap
     ethr =  2.51E-08,  avg # of iterations =  3.2

     negative rho (up, down):  3.127E-07 0.000E+00

     total cpu time spent up to now is     2123.3 secs

     total energy              =   -1555.07461594 Ry
     estimated scf accuracy    <       0.00002680 Ry

     iteration #  8     ecut=    60.00 Ry     beta= 0.30
     Davidson diagonalization with overlap
     ethr =  8.27E-09,  avg # of iterations =  2.0

     negative rho (up, down):  1.327E-06 0.000E+00

     total cpu time spent up to now is     2136.3 secs

     total energy              =   -1555.07461310 Ry
     estimated scf accuracy    <       0.00003370 Ry

     iteration #  9     ecut=    60.00 Ry     beta= 0.30
     Davidson diagonalization with overlap
     ethr =  8.27E-09,  avg # of iterations =  2.0

     negative rho (up, down):  6.200E-07 0.000E+00

     total cpu time spent up to now is     2149.0 secs

     total energy              =   -1555.07461441 Ry
     estimated scf accuracy    <       0.00000178 Ry

     iteration # 10     ecut=    60.00 Ry     beta= 0.30
     Davidson diagonalization with overlap
     ethr =  5.49E-10,  avg # of iterations =  4.8

     negative rho (up, down):  1.539E-07 0.000E+00

     total cpu time spent up to now is     2164.4 secs

     total energy              =   -1555.07461490 Ry
     estimated scf accuracy    <       0.00000039 Ry

     iteration # 11     ecut=    60.00 Ry     beta= 0.30
     Davidson diagonalization with overlap
     ethr =  1.19E-10,  avg # of iterations =  2.0

     negative rho (up, down):  2.515E-08 0.000E+00

     total cpu time spent up to now is     2177.3 secs

     total energy              =   -1555.07461482 Ry
     estimated scf accuracy    <       0.00000015 Ry

     iteration # 12     ecut=    60.00 Ry     beta= 0.30
     Davidson diagonalization with overlap
     ethr =  4.58E-11,  avg # of iterations =  3.8

     total cpu time spent up to now is     2191.2 secs

     total energy              =   -1555.07461476 Ry
     estimated scf accuracy    <       0.00000003 Ry

     iteration # 13     ecut=    60.00 Ry     beta= 0.30
     Davidson diagonalization with overlap
     ethr =  8.10E-12,  avg # of iterations =  4.2

     total cpu time spent up to now is     2205.9 secs

     total energy              =   -1555.07461473 Ry
     estimated scf accuracy    <       0.00000002 Ry

     iteration # 14     ecut=    60.00 Ry     beta= 0.30
     Davidson diagonalization with overlap
     ethr =  5.68E-12,  avg # of iterations =  2.0

     total cpu time spent up to now is     2218.9 secs

     total energy              =   -1555.07461476 Ry
     estimated scf accuracy    <          1.4E-09 Ry

     iteration # 15     ecut=    60.00 Ry     beta= 0.30
     Davidson diagonalization with overlap
     ethr =  4.47E-13,  avg # of iterations =  5.0

     total cpu time spent up to now is     2234.2 secs

     total energy              =   -1555.07461479 Ry
     estimated scf accuracy    <          5.8E-09 Ry

     iteration # 16     ecut=    60.00 Ry     beta= 0.30
     Davidson diagonalization with overlap
     ethr =  4.47E-13,  avg # of iterations =  3.8

     total cpu time spent up to now is     2247.6 secs

     total energy              =   -1555.07461481 Ry
     estimated scf accuracy    <          3.0E-09 Ry

     iteration # 17     ecut=    60.00 Ry     beta= 0.30
     Davidson diagonalization with overlap
     ethr =  4.47E-13,  avg # of iterations =  2.0

     total cpu time spent up to now is     2260.6 secs

     End of self-consistent calculation

          k = 0.0000 0.0000 0.0000 (399281 PWs)   bands (ev):

   -49.3198 -49.3198 -49.3198 -49.3198 -49.3198 -49.3198 -49.3198 -49.3198
   -49.3198 -49.3198 -49.3198 -49.3197 -49.3197 -49.3197 -49.3197 -49.3197
   -49.3197 -49.3197 -48.5541 -48.5539 -48.5539 -48.5538 -48.5538 -48.5538
   -48.5538 -48.5538 -48.5538 -48.5538 -48.5538 -48.5538 -48.5538 -48.5538
   -48.5538 -48.5538 -48.5538 -48.5538 -48.2938 -48.2937 -48.2937 -48.2937
   -48.2937 -48.2936 -48.2936 -48.2936 -48.2936 -48.2936 -48.2936 -48.2935
   -48.2935 -48.2935 -48.2935 -48.2935 -48.2935 -48.2935 -48.2739 -48.2696
   -48.2696 -48.2696 -48.2696 -48.2696 -48.2696 -48.2662 -48.2662 -48.2654
   -48.2640 -48.2640 -48.2640 -48.2640 -48.2640 -48.2640 -48.2622 -48.2622
   -48.2620 -48.2620 -48.2620 -48.2620 -48.2615 -48.2615 -48.2615 -48.2615
   -48.2615 -48.2615 -48.2604 -48.2570 -48.2570 -48.2570 -48.2570 -48.2570
   -48.2570 -48.2530 -48.1636 -48.1636 -48.1636 -48.1636 -48.1634 -48.1634
   -48.1634 -48.1634 -48.1634 -48.1634 -48.1633 -48.1633 -48.1633 -48.1633
   -48.1632 -48.1632 -48.1632 -48.1627  -5.1459  -4.7283  -4.4424  -4.4424
    -4.4424  -4.4424  -4.4424  -4.4424  -4.0243  -4.0242  -4.0242  -4.0242
    -4.0242  -4.0242  -3.9842  -3.2747  -3.2747  -3.2747  -3.2747  -3.2747
    -3.2747  -3.0574  -3.0574  -3.0564  -3.0564  -3.0564  -3.0564  -3.0511
    -2.6374  -2.6374  -2.6374  -2.6374  -2.6203  -2.6203  -2.3555  -2.3555
    -2.3555  -2.3555  -2.3555  -2.3555  -2.3086  -2.3086  -2.3086  -2.3086
    -2.3086  -2.3086  -2.0660  -1.9093  -1.9093  -1.9093  -1.9093  -1.9093
    -1.9093  -1.8794  -1.8794  -1.8794  -1.8794  -1.8314  -1.8314  -1.4470
    -1.4470  -1.4470  -1.4470  -1.4470  -1.4470  -1.1443  -1.1443  -1.1443
    -1.1443  -1.1443  -1.1443  -1.0682  -1.0682  -1.0682  -1.0682  -1.0682
    -1.0682  -1.0330  -1.0330  -1.0330  -1.0330  -0.9863  -0.6736  -0.6736
    -0.5698  -0.5698

          k = 0.0000 0.2887 0.0000 (399667 PWs)   bands (ev):

   -49.3199 -49.3199 -49.3199 -49.3199 -49.3199 -49.3199 -49.3198 -49.3198
   -49.3198 -49.3198 -49.3198 -49.3198 -49.3198 -49.3198 -49.3197 -49.3197
   -49.3197 -49.3197 -48.5541 -48.5541 -48.5540 -48.5539 -48.5539 -48.5539
   -48.5539 -48.5539 -48.5539 -48.5539 -48.5539 -48.5538 -48.5538 -48.5538
   -48.5538 -48.5538 -48.5538 -48.5538 -48.2939 -48.2938 -48.2937 -48.2937
   -48.2937 -48.2937 -48.2937 -48.2937 -48.2937 -48.2937 -48.2937 -48.2937
   -48.2936 -48.2936 -48.2936 -48.2936 -48.2936 -48.2936 -48.2737 -48.2712
   -48.2703 -48.2703 -48.2687 -48.2687 -48.2680 -48.2666 -48.2666 -48.2653
   -48.2644 -48.2643 -48.2639 -48.2639 -48.2639 -48.2639 -48.2632 -48.2632
   -48.2621 -48.2621 -48.2617 -48.2617 -48.2616 -48.2615 -48.2615 -48.2613
   -48.2607 -48.2607 -48.2605 -48.2585 -48.2580 -48.2580 -48.2565 -48.2565
   -48.2558 -48.2535 -48.1637 -48.1637 -48.1636 -48.1636 -48.1636 -48.1635
   -48.1635 -48.1635 -48.1634 -48.1634 -48.1634 -48.1634 -48.1634 -48.1633
   -48.1632 -48.1632 -48.1632 -48.1631  -5.1021  -4.7505  -4.6844  -4.5746
    -4.5746  -4.3324  -4.2225  -4.2225  -4.1564  -4.1564  -4.0460  -3.9398
    -3.8045  -3.8045  -3.6286  -3.5843  -3.5253  -3.5253  -3.4071  -3.4071
    -3.1130  -3.1130  -3.0552  -3.0552  -3.0053  -3.0015  -3.0015  -2.9893
    -2.8843  -2.6437  -2.6437  -2.6416  -2.6043  -2.6043  -2.5593  -2.5052
    -2.5052  -2.4625  -2.4625  -2.3449  -2.3449  -2.2257  -2.2257  -2.1022
    -2.1022  -2.0795  -2.0795  -2.0214  -1.9663  -1.9541  -1.9541  -1.8213
    -1.8213  -1.8055  -1.6829  -1.5977  -1.5334  -1.5334  -1.5207  -1.5207
    -1.5177  -1.5177  -1.4351  -1.4351  -1.3872  -1.3872  -1.2906  -1.2906
    -1.2416  -1.1840  -1.1794  -1.1794  -1.1702  -1.1702  -1.1622  -0.9488
    -0.9487  -0.9487  -0.9095  -0.9095  -0.8837  -0.8837  -0.7795  -0.7723
    -0.7420  -0.7026

          k = 0.0000-0.5774 0.0000 (399688 PWs)   bands (ev):

   -49.3199 -49.3199 -49.3199 -49.3199 -49.3199 -49.3198 -49.3198 -49.3198
   -49.3198 -49.3198 -49.3198 -49.3198 -49.3198 -49.3198 -49.3198 -49.3198
   -49.3198 -49.3198 -48.5541 -48.5541 -48.5540 -48.5540 -48.5539 -48.5539
   -48.5539 -48.5539 -48.5538 -48.5538 -48.5538 -48.5538 -48.5538 -48.5538
   -48.5538 -48.5538 -48.5538 -48.5538 -48.2938 -48.2938 -48.2938 -48.2938
   -48.2937 -48.2937 -48.2937 -48.2937 -48.2937 -48.2937 -48.2937 -48.2937
   -48.2936 -48.2936 -48.2936 -48.2936 -48.2936 -48.2936 -48.2729 -48.2729
   -48.2705 -48.2705 -48.2675 -48.2675 -48.2675 -48.2675 -48.2670 -48.2650
   -48.2648 -48.2648 -48.2640 -48.2640 -48.2637 -48.2637 -48.2637 -48.2637
   -48.2619 -48.2619 -48.2619 -48.2619 -48.2614 -48.2614 -48.2612 -48.2608
   -48.2608 -48.2593 -48.2592 -48.2592 -48.2592 -48.2592 -48.2564 -48.2564
   -48.2546 -48.2546 -48.1636 -48.1636 -48.1636 -48.1636 -48.1635 -48.1635
   -48.1635 -48.1635 -48.1635 -48.1635 -48.1634 -48.1634 -48.1634 -48.1634
   -48.1633 -48.1633 -48.1632 -48.1632  -4.9704  -4.9704  -4.6187  -4.6187
    -4.5525  -4.5524  -4.2005  -4.2005  -3.9160  -3.9160  -3.9160  -3.9160
    -3.8064  -3.8064  -3.5643  -3.5608  -3.4982  -3.4982  -3.4982  -3.4982
    -3.4513  -3.4513  -3.1464  -3.1405  -2.8701  -2.8701  -2.8701  -2.8701
    -2.8682  -2.8682  -2.7531  -2.7531  -2.7531  -2.7531  -2.5062  -2.5062
    -2.4376  -2.4376  -2.4376  -2.4376  -2.4029  -2.3789  -1.9359  -1.9359
    -1.9359  -1.9359  -1.8895  -1.8894  -1.8306  -1.8306  -1.8306  -1.8306
    -1.6772  -1.6772  -1.6772  -1.6772  -1.5987  -1.5694  -1.5694  -1.5349
    -1.5349  -1.5242  -1.5242  -1.4756  -1.4756  -1.4756  -1.4756  -1.3326
    -1.2994  -1.1095  -1.1095  -1.0951  -1.0951  -1.0328  -1.0328  -1.0328
    -1.0328  -0.8701  -0.8701  -0.7846  -0.7846  -0.7530  -0.7529  -0.7529
    -0.7529  -0.7237

          k = 0.2500-0.7217 0.0000 (399610 PWs)   bands (ev):

   -49.3199 -49.3199 -49.3199 -49.3199 -49.3199 -49.3198 -49.3198 -49.3198
   -49.3198 -49.3198 -49.3198 -49.3198 -49.3198 -49.3198 -49.3198 -49.3198
   -49.3197 -49.3197 -48.5542 -48.5540 -48.5539 -48.5539 -48.5539 -48.5539
   -48.5539 -48.5539 -48.5539 -48.5539 -48.5538 -48.5538 -48.5538 -48.5538
   -48.5538 -48.5538 -48.5537 -48.5537 -48.2938 -48.2938 -48.2937 -48.2937
   -48.2937 -48.2937 -48.2937 -48.2937 -48.2937 -48.2936 -48.2936 -48.2936
   -48.2936 -48.2936 -48.2936 -48.2936 -48.2935 -48.2935 -48.2731 -48.2718
   -48.2718 -48.2689 -48.2689 -48.2676 -48.2672 -48.2672 -48.2667 -48.2650
   -48.2645 -48.2645 -48.2645 -48.2645 -48.2642 -48.2635 -48.2635 -48.2630
   -48.2624 -48.2619 -48.2619 -48.2615 -48.2613 -48.2613 -48.2609 -48.2609
   -48.2606 -48.2601 -48.2593 -48.2592 -48.2592 -48.2578 -48.2578 -48.2553
   -48.2553 -48.2543 -48.1636 -48.1636 -48.1636 -48.1636 -48.1636 -48.1635
   -48.1635 -48.1635 -48.1634 -48.1634 -48.1633 -48.1633 -48.1633 -48.1633
   -48.1633 -48.1632 -48.1632 -48.1632  -5.0143  -4.8385  -4.8385  -4.5964
    -4.4204  -4.4204  -4.3110  -4.3110  -3.9606  -3.8927  -3.8927  -3.8509
    -3.7828  -3.7828  -3.6731  -3.6731  -3.5423  -3.4376  -3.4343  -3.3704
    -3.3704  -3.2491  -3.2491  -3.1422  -3.1422  -3.0200  -3.0118  -2.9138
    -2.8476  -2.8476  -2.7930  -2.7317  -2.7317  -2.5981  -2.5981  -2.4217
    -2.4184  -2.2770  -2.2456  -2.2422  -2.2422  -2.1851  -2.1851  -2.0963
    -2.0963  -1.9949  -1.9865  -1.9830  -1.9330  -1.8321  -1.8128  -1.8128
    -1.7692  -1.7692  -1.7607  -1.7607  -1.6872  -1.6872  -1.5311  -1.4958
    -1.4958  -1.4517  -1.3448  -1.3448  -1.3140  -1.3140  -1.2560  -1.2459
    -1.2054  -1.2054  -1.2026  -1.2022  -1.2022  -1.0380  -1.0380  -1.0148
    -1.0148  -0.9411  -0.8804  -0.8572  -0.8572  -0.8055  -0.8055  -0.7770
    -0.7279  -0.7279

     the Fermi energy is    -1.7298 ev

!    total energy              =   -1555.07461480 Ry
     estimated scf accuracy    <          2.8E-10 Ry
     smearing contrib. (-TS)   =      -0.01299150 Ry
     internal energy E=F+TS    =   -1555.06162330 Ry

     The total energy is F=E-TS. E is the sum of the following terms:
     one-electron contribution =  -14019.94247845 Ry
     hartree contribution      =    6843.87217796 Ry
     xc contribution           =    -359.06199240 Ry
     ewald contribution        =    5980.07066959 Ry

     convergence has been achieved in  17 iterations

     Forces acting on atoms (cartesian axes, Ry/au):

     atom    1 type  1   force =    -0.00000000   -0.00000000   -0.00044413
     atom    2 type  1   force =    -0.00000013   -0.00000008    0.00104244
     atom    3 type  1   force =    -0.00000019   -0.00000011   -0.00086476
     atom    4 type  1   force =    -0.00000000   -0.00000000    0.00002016
     atom    5 type  1   force =    -0.00000014   -0.00000008    0.00190072
     atom    6 type  1   force =    -0.00000010   -0.00000006   -0.00149704
     atom    7 type  1   force =    -0.00000015   -0.00000005    0.00149702
     atom    8 type  1   force =    -0.00000015   -0.00000009   -0.00190081
     atom    9 type  1   force =    -0.00000001   -0.00000001   -0.00001995
     atom   10 type  1   force =    -0.00000000   -0.00000000    0.00086481
     atom   11 type  1   force =    -0.00000005   -0.00000003   -0.00104227
     atom   12 type  1   force =     0.00000011    0.00000007    0.00044441
     atom   13 type  1   force =     0.00000000    0.00000007   -0.00044447
     atom   14 type  1   force =    -0.00000003    0.00000002    0.00104222
     atom   15 type  1   force =     0.00000000    0.00000022   -0.00086476
     atom   16 type  1   force =    -0.00000001    0.00000019    0.00002006
     atom   17 type  1   force =    -0.00000001    0.00000001    0.00190080
     atom   18 type  1   force =     0.00000000    0.00000012   -0.00149704
     atom   19 type  1   force =    -0.00000003    0.00000015    0.00149702
     atom   20 type  1   force =     0.00000001   -0.00000000   -0.00190071
     atom   21 type  1   force =     0.00000000    0.00000001   -0.00001995
     atom   22 type  1   force =     0.00000001    0.00000010    0.00086481
     atom   23 type  1   force =     0.00000002   -0.00000001   -0.00104224
     atom   24 type  1   force =     0.00000000   -0.00000013    0.00044441
     atom   25 type  1   force =    -0.00000006   -0.00000004   -0.00044447
     atom   26 type  1   force =     0.00000000    0.00000015    0.00104244
     atom   27 type  1   force =    -0.00000017    0.00000010   -0.00086470
     atom   28 type  1   force =    -0.00000017   -0.00000009    0.00002006
     atom   29 type  1   force =     0.00000000    0.00000016    0.00190072
     atom   30 type  1   force =    -0.00000009    0.00000005   -0.00149707
     atom   31 type  1   force =     0.00000000    0.00000000    0.00149705
     atom   32 type  1   force =     0.00000000    0.00000017   -0.00190081
     atom   33 type  1   force =    -0.00000012    0.00000007   -0.00002008
     atom   34 type  1   force =    -0.00000008   -0.00000006    0.00086481
     atom   35 type  1   force =     0.00000000    0.00000006   -0.00104227
     atom   36 type  1   force =     0.00000004   -0.00000002    0.00044439
     atom   37 type  1   force =     0.00000007   -0.00000003   -0.00044447
     atom   38 type  1   force =     0.00000000   -0.00000004    0.00104222
     atom   39 type  1   force =     0.00000019   -0.00000011   -0.00086476
     atom   40 type  1   force =     0.00000016   -0.00000010    0.00002006
     atom   41 type  1   force =     0.00000000   -0.00000001    0.00190080
     atom   42 type  1   force =     0.00000010   -0.00000006   -0.00149704
     atom   43 type  1   force =     0.00000000    0.00000000    0.00149723
     atom   44 type  1   force =     0.00000000    0.00000001   -0.00190071
     atom   45 type  1   force =     0.00000001   -0.00000001   -0.00001995
     atom   46 type  1   force =     0.00000009   -0.00000004    0.00086481
     atom   47 type  1   force =     0.00000000    0.00000002   -0.00104224
     atom   48 type  1   force =    -0.00000011    0.00000007    0.00044441
     atom   49 type  1   force =    -0.00000000   -0.00000000   -0.00044460
     atom   50 type  1   force =     0.00000003    0.00000002    0.00104222
     atom   51 type  1   force =     0.00000013    0.00000008   -0.00086477
     atom   52 type  1   force =     0.00000000    0.00000000    0.00002004
     atom   53 type  1   force =     0.00000001    0.00000001    0.00190080
     atom   54 type  1   force =     0.00000019    0.00000011   -0.00149705
     atom   55 type  1   force =     0.00000003    0.00000015    0.00149702
     atom   56 type  1   force =    -0.00000001   -0.00000000   -0.00190071
     atom   57 type  1   force =     0.00000005    0.00000003   -0.00002006
     atom   58 type  1   force =    -0.00000000   -0.00000000    0.00086482
     atom   59 type  1   force =    -0.00000002   -0.00000001   -0.00104224
     atom   60 type  1   force =    -0.00000004   -0.00000002    0.00044436
     atom   61 type  1   force =     0.00000006   -0.00000004   -0.00044447
     atom   62 type  1   force =     0.00000005   -0.00000003    0.00104224
     atom   63 type  1   force =     0.00000000   -0.00000015   -0.00086477
     atom   64 type  1   force =     0.00000017   -0.00000009    0.00002006
     atom   65 type  1   force =     0.00000003   -0.00000002    0.00190082
     atom   66 type  1   force =     0.00000000   -0.00000021   -0.00149705
     atom   67 type  1   force =    -0.00000012   -0.00000010    0.00149702
     atom   68 type  1   force =     0.00000000   -0.00000000   -0.00190098
     atom   69 type  1   force =     0.00000000   -0.00000006   -0.00002006
     atom   70 type  1   force =     0.00000008   -0.00000006    0.00086481
     atom   71 type  1   force =    -0.00000000    0.00000000   -0.00104221
     atom   72 type  1   force =     0.00000000    0.00000004    0.00044436
     atom   73 type  1   force =    -0.00000007   -0.00000003   -0.00044447
     atom   74 type  1   force =     0.00000013   -0.00000008    0.00104244
     atom   75 type  1   force =     0.00000000   -0.00000020   -0.00086470
     atom   76 type  1   force =    -0.00000016   -0.00000010    0.00002006
     atom   77 type  1   force =     0.00000014   -0.00000008    0.00190072
     atom   78 type  1   force =     0.00000000   -0.00000010   -0.00149707
     atom   79 type  1   force =     0.00000015   -0.00000005    0.00149702
     atom   80 type  1   force =     0.00000015   -0.00000009   -0.00190081
     atom   81 type  1   force =     0.00000000   -0.00000014   -0.00002008
     atom   82 type  1   force =    -0.00000009   -0.00000004    0.00086481
     atom   83 type  1   force =     0.00000005   -0.00000003   -0.00104227
     atom   84 type  1   force =     0.00000000    0.00000004    0.00044439
     atom   85 type  1   force =    -0.00000000    0.00000007   -0.00044447
     atom   86 type  1   force =     0.00000000    0.00000006    0.00104224
     atom   87 type  1   force =    -0.00000013    0.00000008   -0.00086477
     atom   88 type  1   force =     0.00000001    0.00000019    0.00002006
     atom   89 type  1   force =     0.00000000    0.00000003    0.00190082
     atom   90 type  1   force =    -0.00000019    0.00000011   -0.00149705
     atom   91 type  1   force =     0.00000000    0.00000000    0.00149680
     atom   92 type  1   force =     0.00000000    0.00000000   -0.00190098
     atom   93 type  1   force =    -0.00000005    0.00000003   -0.00002006
     atom   94 type  1   force =    -0.00000001    0.00000010    0.00086481
     atom   95 type  1   force =     0.00000000   -0.00000000   -0.00104221
     atom   96 type  1   force =     0.00000004   -0.00000002    0.00044436
     atom   97 type  1   force =     0.00000000    0.00000000   -0.00044445
     atom   98 type  1   force =    -0.00000005   -0.00000003    0.00104224
     atom   99 type  1   force =     0.00000017    0.00000010   -0.00086470
     atom  100 type  1   force =     0.00000000    0.00000000    0.00001992
     atom  101 type  1   force =    -0.00000003   -0.00000002    0.00190082
     atom  102 type  1   force =     0.00000009    0.00000005   -0.00149707
     atom  103 type  1   force =     0.00000012   -0.00000010    0.00149702
     atom  104 type  1   force =    -0.00000000   -0.00000000   -0.00190098
     atom  105 type  1   force =     0.00000012    0.00000007   -0.00002008
     atom  106 type  1   force =    -0.00000000   -0.00000000    0.00086471
     atom  107 type  1   force =     0.00000000    0.00000000   -0.00104221
     atom  108 type  1   force =    -0.00000004   -0.00000002    0.00044439

     Total force =     0.011914     Total SCF correction =     0.000027


     Computing stress (Cartesian axis) and pressure

          total   stress  (Ry/bohr**3)                   (kbar)     P=       -4.72
  -0.00003520  -0.00000000   0.00000000           -5.18       -0.00        0.00
  -0.00000000  -0.00003520   0.00000000           -0.00       -5.18        0.00
   0.00000000   0.00000000  -0.00002585            0.00        0.00       -3.80

     Energy error            =      4.7E-03 Ry
     Gradient error          =      1.9E-03 Ry/Bohr

     number of scf cycles    =   9
     number of bfgs steps    =   8

     energy             old  =   -1555.0698738673 Ry
     energy             new  =   -1555.0746148017 Ry

     CASE: energy            _new < energy            _old

     new trust radius        =       0.0503387199 bohr
     new conv_thr            =       0.0000000002 Ry


ATOMIC_POSITIONS (angstrom)
Li              -0.0000000000       -0.0000000000       14.9909718597
Li               2.4319663762        1.4040964420       16.1442904473
Li               4.8639290038        2.8081907197       16.8851775834
Li               7.2958834680        4.2122802843       17.9244686178
Li               2.4319694197        1.4040981991       18.9765507954
Li               4.8639302655        2.8081914481       19.9596834507
Li               2.4319684917        4.2122847271       20.9616024532
Li               2.4319697175        1.4040983711       21.9447358935
Li               4.8639292827        2.8081908807       22.9968158601
Li               7.2958834680        4.2122802843       24.0361057162
Li               2.4319664929        1.4040965093       24.7769915263
Li               4.8639253025        2.8081885827       25.9302993621
Li               2.4319652559        4.2122820683       14.9909821472
Li               4.8639249323        5.6163721995       16.1442976637
Li               7.2958834680        7.0204594134       16.8851775834
Li               9.7278454493        8.4245523134       17.9244660841
Li               4.8639259193        5.6163716296       18.9765520227
Li               7.2958834680        7.0204579565       19.9596834507
Li               4.8639221323        8.4245519942       20.9616024532
Li               4.8639257578        5.6163717229       21.9447324570
Li               7.2958834680        7.0204590914       22.9968158601
Li               9.7278446728        8.4245540688       24.0361071297
Li               4.8639255680        5.6163718324       24.7769855597
Li               7.2958834680        7.0204636873       25.9302993621
Li               4.8639228170        8.4245561259       14.9909821472
Li               7.2958834680        9.8286479688       16.1442904473
Li               9.7278496107       11.2327445457       16.8851732803
Li              12.1598133418       12.6368442657       17.9244660841
Li               7.2958834680        9.8286444545       18.9765507954
Li               9.7278499705       11.2327443379       19.9596839930
Li               7.2958834680       12.6368408528       20.9616022809
Li               7.2958834680        9.8286441106       21.9447358935
Li               9.7278500048       11.2327443182       22.9968199431
Li              12.1598114333       12.6368440605       24.0361071297
Li               7.2958834680        9.8286478341       24.7769915263
Li               9.7278472672       11.2327458987       25.9303043967
Li               4.8639259070        0.0000026586       14.9909821472
Li               7.2958834680        1.4040964537       16.1442976637
Li               9.7278379323        2.8081907197       16.8851775834
Li              12.1597990436        4.2122851265       17.9244660841
Li               7.2958834680        1.4040975935       18.9765520227
Li               9.7278366706        2.8081914481       19.9596834507
Li               7.2958834680        4.2122802843       20.9616014788
Li               7.2958834680        1.4040974069       21.9447324570
Li               9.7278376534        2.8081908807       22.9968158601
Li              12.1598001755        4.2122835763       24.0361071297
Li               7.2958834680        1.4040971878       24.7769855597
Li               9.7278416336        2.8081885827       25.9302993621
Li               7.2958834680        4.2122802843       14.9909861686
Li               9.7278420038        5.6163721995       16.1442976637
Li              12.1598027819        7.0204654094       16.8851742410
Li              14.5917669361        8.4245605685       17.9244654893
Li               9.7278410168        5.6163716296       18.9765520227
Li              12.1598010743        7.0204644235       19.9596819476
Li               9.7278448038        8.4245519942       20.9616024532
Li               9.7278411783        5.6163717229       21.9447324570
Li              12.1598024783        7.0204652341       22.9968172930
Li              14.5917669361        8.4245605685       24.0361053174
Li               9.7278413681        5.6163718324       24.7769855597
Li              12.1598042148        7.0204662367       25.9303019350
Li               9.7278441191        8.4245561259       14.9909821472
Li              12.1598069127        9.8286533427       16.1442932978
Li              14.5917669361       11.2327508867       16.8851742410
Li              17.0237205304       12.6368442657       17.9244660841
Li              12.1598076978        9.8286528894       18.9765494310
Li              14.5917669361       11.2327528585       19.9596819476
Li              12.1598132955       12.6368449843       20.9616024532
Li              12.1598076308        9.8286529281       21.9447360507
Li              14.5917669361       11.2327512372       22.9968172930
Li              17.0237224389       12.6368440605       24.0361071297
Li              12.1598067744        9.8286534226       24.7769880263
Li              14.5917669361       11.2327492321       25.9303019350
Li               9.7278410291        0.0000026586       14.9909821472
Li              12.1598005599        1.4040964420       16.1442904473
Li              14.5917669361        2.8081926143       16.8851732803
Li               2.4319678925        4.2122851265       17.9244660841
Li              12.1597975164        1.4040981991       18.9765507954
Li              14.5917669361        2.8081930297       19.9596839930
Li              12.1597984444        4.2122847271       20.9616024532
Li              12.1597972186        1.4040983711       21.9447358935
Li              14.5917669361        2.8081930693       22.9968199431
Li              17.0237336967        4.2122835763       24.0361071297
Li              12.1598004432        1.4040965093       24.7769915263
Li              14.5917669361        2.8081899082       25.9303043967
Li              12.1598016802        4.2122820683       14.9909821472
Li              14.5917669361        5.6163750201       16.1442932978
Li              17.0237310903        7.0204654094       16.8851742410
Li              19.4556884229        8.4245523134       17.9244660841
Li              14.5917669361        5.6163759266       18.9765494310
Li              17.0237327979        7.0204644235       19.9596819476
Li              14.5917669361        8.4245605685       20.9616048693
Li              14.5917669361        5.6163758493       21.9447360507
Li              17.0237313939        7.0204652341       22.9968172930
Li              19.4556891994        8.4245540688       24.0361071297
Li              14.5917669361        5.6163748604       24.7769880263
Li              17.0237296574        7.0204662367       25.9303019350
Li              14.5917669361        8.4245605685       14.9909819398
Li              17.0237269595        9.8286533427       16.1442932978
Li              19.4556842615       11.2327445457       16.8851732803
Li              21.8876504041       12.6368408528       17.9244634604
Li              17.0237261744        9.8286528894       18.9765494310
Li              19.4556839017       11.2327443379       19.9596839930
Li              17.0237205767       12.6368449843       20.9616024532
Li              17.0237262414        9.8286529281       21.9447360507
Li              19.4556838674       11.2327443182       22.9968199431
Li              21.8876504041       12.6368408528       24.0361132880
Li              17.0237270978        9.8286534226       24.7769880263
Li              19.4556866050       11.2327458987       25.9303043967



     Writing config-only to output data dir /scratch/deepanthpcu/ml/tmp/Lislab/Lislab.save/ :
     XML data file
     NEW-OLD atomic charge density approx. for the potential

     negative rho (up, down):  3.430E-05 0.000E+00

     total cpu time spent up to now is     2275.7 secs

     per-process dynamical memory:   119.1 Mb

     Self-consistent Calculation

     iteration #  1     ecut=    60.00 Ry     beta= 0.30
     Davidson diagonalization with overlap
     ethr =  1.00E-06,  avg # of iterations =  6.0

     negative rho (up, down):  1.962E-05 0.000E+00

     total cpu time spent up to now is     2301.3 secs

     total energy              =   -1555.07539261 Ry
     estimated scf accuracy    <       0.00070985 Ry

     iteration #  2     ecut=    60.00 Ry     beta= 0.30
     Davidson diagonalization with overlap
     ethr =  2.19E-07,  avg # of iterations =  4.8

     negative rho (up, down):  1.814E-05 0.000E+00

     total cpu time spent up to now is     2316.4 secs

     total energy              =   -1555.07531641 Ry
     estimated scf accuracy    <       0.00221703 Ry

     iteration #  3     ecut=    60.00 Ry     beta= 0.30
     Davidson diagonalization with overlap
     ethr =  2.19E-07,  avg # of iterations =  4.5

     negative rho (up, down):  1.260E-05 0.000E+00

     total cpu time spent up to now is     2330.9 secs

     total energy              =   -1555.07551532 Ry
     estimated scf accuracy    <       0.00065987 Ry

     iteration #  4     ecut=    60.00 Ry     beta= 0.30
     Davidson diagonalization with overlap
     ethr =  2.04E-07,  avg # of iterations =  2.2

     negative rho (up, down):  2.043E-05 0.000E+00

     total cpu time spent up to now is     2343.8 secs

     total energy              =   -1555.07549181 Ry
     estimated scf accuracy    <       0.00292967 Ry

     iteration #  5     ecut=    60.00 Ry     beta= 0.30
     Davidson diagonalization with overlap
     ethr =  2.04E-07,  avg # of iterations =  1.0

     negative rho (up, down):  5.692E-07 0.000E+00

     total cpu time spent up to now is     2355.8 secs

     total energy              =   -1555.07555734 Ry
     estimated scf accuracy    <       0.00001941 Ry

     iteration #  6     ecut=    60.00 Ry     beta= 0.30
     Davidson diagonalization with overlap
     ethr =  5.99E-09,  avg # of iterations =  4.8

     negative rho (up, down):  6.398E-08 0.000E+00

     total cpu time spent up to now is     2371.5 secs

     total energy              =   -1555.07555980 Ry
     estimated scf accuracy    <       0.00001922 Ry

     iteration #  7     ecut=    60.00 Ry     beta= 0.30
     Davidson diagonalization with overlap
     ethr =  5.93E-09,  avg # of iterations =  1.8

     negative rho (up, down):  2.891E-08 0.000E+00

     total cpu time spent up to now is     2384.0 secs

     total energy              =   -1555.07555959 Ry
     estimated scf accuracy    <       0.00000718 Ry

     iteration #  8     ecut=    60.00 Ry     beta= 0.30
     Davidson diagonalization with overlap
     ethr =  2.22E-09,  avg # of iterations =  4.0

     negative rho (up, down):  1.375E-08 0.000E+00

     total cpu time spent up to now is     2398.4 secs

     total energy              =   -1555.07556097 Ry
     estimated scf accuracy    <       0.00000424 Ry

     iteration #  9     ecut=    60.00 Ry     beta= 0.30
     Davidson diagonalization with overlap
     ethr =  1.31E-09,  avg # of iterations =  1.5

     negative rho (up, down):  1.043E-08 0.000E+00

     total cpu time spent up to now is     2411.1 secs

     total energy              =   -1555.07556080 Ry
     estimated scf accuracy    <       0.00000433 Ry

     iteration # 10     ecut=    60.00 Ry     beta= 0.30
     Davidson diagonalization with overlap
     ethr =  1.31E-09,  avg # of iterations =  2.0

     total cpu time spent up to now is     2424.0 secs

     total energy              =   -1555.07556104 Ry
     estimated scf accuracy    <       0.00000051 Ry

     iteration # 11     ecut=    60.00 Ry     beta= 0.30
     Davidson diagonalization with overlap
     ethr =  1.57E-10,  avg # of iterations =  4.0

     total cpu time spent up to now is     2438.4 secs

     total energy              =   -1555.07556087 Ry
     estimated scf accuracy    <       0.00000011 Ry

     iteration # 12     ecut=    60.00 Ry     beta= 0.30
     Davidson diagonalization with overlap
     ethr =  3.37E-11,  avg # of iterations =  4.5

     total cpu time spent up to now is     2453.6 secs

     total energy              =   -1555.07556087 Ry
     estimated scf accuracy    <       0.00000010 Ry

     iteration # 13     ecut=    60.00 Ry     beta= 0.30
     Davidson diagonalization with overlap
     ethr =  2.98E-11,  avg # of iterations =  1.0

     total cpu time spent up to now is     2465.6 secs

     total energy              =   -1555.07556085 Ry
     estimated scf accuracy    <       0.00000003 Ry

     iteration # 14     ecut=    60.00 Ry     beta= 0.30
     Davidson diagonalization with overlap
     ethr =  1.06E-11,  avg # of iterations =  4.0

     total cpu time spent up to now is     2479.6 secs

     total energy              =   -1555.07556084 Ry
     estimated scf accuracy    <       0.00000010 Ry

     iteration # 15     ecut=    60.00 Ry     beta= 0.30
     Davidson diagonalization with overlap
     ethr =  1.06E-11,  avg # of iterations =  2.0

     total cpu time spent up to now is     2492.6 secs

     total energy              =   -1555.07556083 Ry
     estimated scf accuracy    <       0.00000002 Ry

     iteration # 16     ecut=    60.00 Ry     beta= 0.30
     Davidson diagonalization with overlap
     ethr =  6.60E-12,  avg # of iterations =  1.0

     total cpu time spent up to now is     2504.6 secs

     total energy              =   -1555.07556084 Ry
     estimated scf accuracy    <          1.9E-09 Ry

     iteration # 17     ecut=    60.00 Ry     beta= 0.30
     Davidson diagonalization with overlap
     ethr =  5.79E-13,  avg # of iterations =  4.8

     total cpu time spent up to now is     2520.0 secs

     total energy              =   -1555.07556085 Ry
     estimated scf accuracy    <          1.1E-09 Ry

     iteration # 18     ecut=    60.00 Ry     beta= 0.30
     Davidson diagonalization with overlap
     ethr =  3.36E-13,  avg # of iterations =  1.0

     total cpu time spent up to now is     2532.0 secs

     total energy              =   -1555.07556085 Ry
     estimated scf accuracy    <          3.9E-10 Ry

     iteration # 19     ecut=    60.00 Ry     beta= 0.30
     Davidson diagonalization with overlap
     ethr =  1.20E-13,  avg # of iterations =  4.0

     total cpu time spent up to now is     2545.9 secs

     End of self-consistent calculation

          k = 0.0000 0.0000 0.0000 (399281 PWs)   bands (ev):

   -49.3129 -49.3129 -49.3129 -49.3129 -49.3129 -49.3128 -49.3128 -49.3128
   -49.3128 -49.3128 -49.3128 -49.3127 -49.3127 -49.3127 -49.3127 -49.3127
   -49.3127 -49.3127 -48.5308 -48.5304 -48.5304 -48.5304 -48.5304 -48.5304
   -48.5304 -48.5304 -48.5304 -48.5304 -48.5304 -48.5304 -48.5304 -48.5304
   -48.5304 -48.5304 -48.5304 -48.5304 -48.2864 -48.2863 -48.2863 -48.2863
   -48.2863 -48.2863 -48.2863 -48.2863 -48.2863 -48.2863 -48.2863 -48.2862
   -48.2862 -48.2862 -48.2862 -48.2862 -48.2862 -48.2861 -48.2715 -48.2671
   -48.2671 -48.2671 -48.2671 -48.2671 -48.2671 -48.2625 -48.2625 -48.2623
   -48.2610 -48.2610 -48.2610 -48.2610 -48.2610 -48.2610 -48.2606 -48.2606
   -48.2606 -48.2606 -48.2588 -48.2588 -48.2588 -48.2588 -48.2588 -48.2588
   -48.2584 -48.2584 -48.2575 -48.2548 -48.2548 -48.2548 -48.2548 -48.2548
   -48.2548 -48.2509 -48.1498 -48.1498 -48.1498 -48.1498 -48.1496 -48.1496
   -48.1496 -48.1496 -48.1496 -48.1496 -48.1494 -48.1494 -48.1494 -48.1494
   -48.1494 -48.1494 -48.1494 -48.1489  -5.1382  -4.7228  -4.4347  -4.4347
    -4.4347  -4.4347  -4.4347  -4.4347  -4.0196  -4.0196  -4.0196  -4.0196
    -4.0196  -4.0196  -3.9759  -3.2670  -3.2670  -3.2670  -3.2670  -3.2670
    -3.2670  -3.0496  -3.0496  -3.0496  -3.0496  -3.0495  -3.0495  -3.0437
    -2.6352  -2.6352  -2.6352  -2.6352  -2.6154  -2.6154  -2.3480  -2.3480
    -2.3480  -2.3480  -2.3480  -2.3480  -2.2994  -2.2994  -2.2994  -2.2994
    -2.2994  -2.2994  -2.0588  -1.9067  -1.9067  -1.9067  -1.9067  -1.9067
    -1.9067  -1.8723  -1.8723  -1.8723  -1.8723  -1.8266  -1.8266  -1.4392
    -1.4392  -1.4392  -1.4392  -1.4392  -1.4392  -1.1389  -1.1389  -1.1389
    -1.1389  -1.1389  -1.1389  -1.0619  -1.0619  -1.0619  -1.0619  -1.0619
    -1.0619  -1.0149  -1.0149  -1.0149  -1.0149  -0.9666  -0.6675  -0.6675
    -0.5712  -0.5712

          k = 0.0000 0.2887 0.0000 (399667 PWs)   bands (ev):

   -49.3130 -49.3129 -49.3129 -49.3129 -49.3129 -49.3129 -49.3129 -49.3129
   -49.3128 -49.3128 -49.3128 -49.3128 -49.3128 -49.3128 -49.3128 -49.3128
   -49.3128 -49.3128 -48.5308 -48.5306 -48.5306 -48.5305 -48.5305 -48.5305
   -48.5305 -48.5305 -48.5305 -48.5304 -48.5304 -48.5304 -48.5304 -48.5304
   -48.5304 -48.5304 -48.5304 -48.5304 -48.2865 -48.2864 -48.2864 -48.2864
   -48.2864 -48.2864 -48.2864 -48.2863 -48.2863 -48.2863 -48.2863 -48.2863
   -48.2863 -48.2863 -48.2862 -48.2862 -48.2862 -48.2862 -48.2713 -48.2688
   -48.2678 -48.2678 -48.2660 -48.2660 -48.2652 -48.2632 -48.2632 -48.2622
   -48.2619 -48.2613 -48.2613 -48.2612 -48.2611 -48.2611 -48.2609 -48.2609
   -48.2597 -48.2597 -48.2589 -48.2589 -48.2588 -48.2588 -48.2587 -48.2585
   -48.2581 -48.2581 -48.2577 -48.2564 -48.2558 -48.2558 -48.2544 -48.2544
   -48.2537 -48.2515 -48.1498 -48.1498 -48.1497 -48.1497 -48.1497 -48.1497
   -48.1496 -48.1496 -48.1496 -48.1496 -48.1496 -48.1495 -48.1495 -48.1494
   -48.1494 -48.1494 -48.1494 -48.1493  -5.0943  -4.7427  -4.6790  -4.5668
    -4.5668  -4.3274  -4.2149  -4.2149  -4.1516  -4.1516  -4.0384  -3.9315
    -3.8000  -3.8000  -3.6244  -3.5764  -3.5179  -3.5179  -3.3993  -3.3993
    -3.1096  -3.1096  -3.0478  -3.0478  -2.9977  -2.9941  -2.9941  -2.9821
    -2.8770  -2.6363  -2.6363  -2.6331  -2.6017  -2.6017  -2.5557  -2.4979
    -2.4979  -2.4535  -2.4535  -2.3382  -2.3382  -2.2225  -2.2225  -2.0927
    -2.0927  -2.0770  -2.0770  -2.0142  -1.9581  -1.9469  -1.9469  -1.8151
    -1.8151  -1.7952  -1.6754  -1.5909  -1.5297  -1.5297  -1.5128  -1.5128
    -1.5122  -1.5122  -1.4245  -1.4245  -1.3806  -1.3806  -1.2803  -1.2803
    -1.2353  -1.1820  -1.1737  -1.1737  -1.1636  -1.1636  -1.1555  -0.9366
    -0.9366  -0.9292  -0.9097  -0.9097  -0.8766  -0.8766  -0.7732  -0.7596
    -0.7435  -0.7019

          k = 0.0000-0.5774 0.0000 (399688 PWs)   bands (ev):

   -49.3130 -49.3130 -49.3129 -49.3129 -49.3129 -49.3129 -49.3129 -49.3129
   -49.3128 -49.3128 -49.3128 -49.3128 -49.3128 -49.3128 -49.3128 -49.3128
   -49.3128 -49.3128 -48.5307 -48.5307 -48.5306 -48.5306 -48.5305 -48.5305
   -48.5305 -48.5304 -48.5304 -48.5304 -48.5304 -48.5304 -48.5304 -48.5304
   -48.5304 -48.5304 -48.5304 -48.5304 -48.2864 -48.2864 -48.2864 -48.2864
   -48.2863 -48.2863 -48.2863 -48.2863 -48.2863 -48.2863 -48.2863 -48.2863
   -48.2863 -48.2863 -48.2863 -48.2863 -48.2862 -48.2862 -48.2704 -48.2704
   -48.2680 -48.2680 -48.2646 -48.2646 -48.2646 -48.2646 -48.2636 -48.2632
   -48.2617 -48.2617 -48.2613 -48.2613 -48.2613 -48.2613 -48.2609 -48.2609
   -48.2591 -48.2591 -48.2591 -48.2591 -48.2587 -48.2587 -48.2580 -48.2580
   -48.2578 -48.2576 -48.2570 -48.2570 -48.2570 -48.2570 -48.2543 -48.2543
   -48.2525 -48.2525 -48.1498 -48.1497 -48.1497 -48.1497 -48.1497 -48.1497
   -48.1496 -48.1496 -48.1496 -48.1496 -48.1496 -48.1496 -48.1495 -48.1495
   -48.1494 -48.1494 -48.1494 -48.1494  -4.9626  -4.9626  -4.6109  -4.6109
    -4.5472  -4.5472  -4.1956  -4.1956  -3.9084  -3.9084  -3.9084  -3.9084
    -3.7983  -3.7983  -3.5563  -3.5539  -3.4942  -3.4942  -3.4942  -3.4942
    -3.4435  -3.4435  -3.1438  -3.1357  -2.8629  -2.8629  -2.8629  -2.8629
    -2.8603  -2.8603  -2.7461  -2.7461  -2.7461  -2.7461  -2.4974  -2.4974
    -2.4343  -2.4343  -2.4343  -2.4343  -2.3939  -2.3738  -1.9291  -1.9291
    -1.9291  -1.9291  -1.8823  -1.8823  -1.8227  -1.8227  -1.8227  -1.8227
    -1.6670  -1.6670  -1.6670  -1.6670  -1.5824  -1.5617  -1.5617  -1.5277
    -1.5277  -1.5182  -1.5182  -1.4737  -1.4737  -1.4737  -1.4737  -1.3271
    -1.2931  -1.1089  -1.1089  -1.0931  -1.0931  -1.0249  -1.0249  -1.0249
    -1.0249  -0.8550  -0.8550  -0.7739  -0.7739  -0.7475  -0.7475  -0.7475
    -0.7475  -0.7122

          k = 0.2500-0.7217 0.0000 (399610 PWs)   bands (ev):

   -49.3130 -49.3129 -49.3129 -49.3129 -49.3129 -49.3129 -49.3129 -49.3128
   -49.3128 -49.3128 -49.3128 -49.3128 -49.3128 -49.3128 -49.3128 -49.3128
   -49.3127 -49.3127 -48.5308 -48.5306 -48.5305 -48.5305 -48.5305 -48.5305
   -48.5305 -48.5304 -48.5304 -48.5304 -48.5304 -48.5304 -48.5304 -48.5304
   -48.5304 -48.5304 -48.5303 -48.5303 -48.2864 -48.2864 -48.2864 -48.2864
   -48.2863 -48.2863 -48.2863 -48.2863 -48.2863 -48.2863 -48.2863 -48.2863
   -48.2863 -48.2863 -48.2863 -48.2863 -48.2862 -48.2862 -48.2707 -48.2694
   -48.2694 -48.2663 -48.2663 -48.2648 -48.2642 -48.2642 -48.2633 -48.2624
   -48.2623 -48.2623 -48.2619 -48.2614 -48.2614 -48.2605 -48.2605 -48.2601
   -48.2601 -48.2593 -48.2593 -48.2585 -48.2583 -48.2583 -48.2582 -48.2582
   -48.2580 -48.2578 -48.2572 -48.2572 -48.2570 -48.2556 -48.2556 -48.2532
   -48.2532 -48.2522 -48.1498 -48.1497 -48.1497 -48.1497 -48.1497 -48.1496
   -48.1496 -48.1496 -48.1496 -48.1496 -48.1495 -48.1495 -48.1495 -48.1495
   -48.1494 -48.1494 -48.1494 -48.1494  -5.0065  -4.8307  -4.8307  -4.5911
    -4.4153  -4.4153  -4.3033  -4.3033  -3.9530  -3.8882  -3.8882  -3.8427
    -3.7752  -3.7752  -3.6651  -3.6651  -3.5382  -3.4297  -3.4274  -3.3665
    -3.3665  -3.2416  -3.2416  -3.1346  -3.1346  -3.0176  -3.0072  -2.9060
    -2.8443  -2.8443  -2.7860  -2.7235  -2.7235  -2.5906  -2.5906  -2.4143
    -2.4114  -2.2688  -2.2405  -2.2351  -2.2351  -2.1755  -2.1755  -2.0901
    -2.0901  -1.9919  -1.9848  -1.9759  -1.9258  -1.8218  -1.8098  -1.8098
    -1.7629  -1.7629  -1.7536  -1.7535  -1.6733  -1.6733  -1.5297  -1.4892
    -1.4892  -1.4354  -1.3438  -1.3438  -1.3060  -1.3060  -1.2487  -1.2384
    -1.1985  -1.1985  -1.1953  -1.1946  -1.1946  -1.0322  -1.0322  -1.0150
    -1.0150  -0.9351  -0.8612  -0.8505  -0.8505  -0.7970  -0.7970  -0.7716
    -0.7185  -0.7185

     the Fermi energy is    -1.7226 ev

!    total energy              =   -1555.07556085 Ry
     estimated scf accuracy    <          3.5E-11 Ry
     smearing contrib. (-TS)   =      -0.01269569 Ry
     internal energy E=F+TS    =   -1555.06286516 Ry

     The total energy is F=E-TS. E is the sum of the following terms:
     one-electron contribution =  -14023.39998785 Ry
     hartree contribution      =    6845.71403267 Ry
     xc contribution           =    -359.08047533 Ry
     ewald contribution        =    5981.70356534 Ry

     convergence has been achieved in  19 iterations

     Forces acting on atoms (cartesian axes, Ry/au):

     atom    1 type  1   force =     0.00000000    0.00000000   -0.00044994
     atom    2 type  1   force =    -0.00000018   -0.00000011   -0.00017225
     atom    3 type  1   force =    -0.00000026   -0.00000015   -0.00024355
     atom    4 type  1   force =     0.00000000    0.00000000    0.00058343
     atom    5 type  1   force =    -0.00000022   -0.00000013    0.00231850
     atom    6 type  1   force =    -0.00000020   -0.00000011   -0.00175721
     atom    7 type  1   force =    -0.00000021   -0.00000014    0.00175713
     atom    8 type  1   force =    -0.00000025   -0.00000014   -0.00231862
     atom    9 type  1   force =    -0.00000014   -0.00000008   -0.00058331
     atom   10 type  1   force =     0.00000000    0.00000000    0.00024367
     atom   11 type  1   force =    -0.00000014   -0.00000008    0.00017248
     atom   12 type  1   force =     0.00000009    0.00000005    0.00045044
     atom   13 type  1   force =    -0.00000002    0.00000006   -0.00045039
     atom   14 type  1   force =    -0.00000006    0.00000003   -0.00017255
     atom   15 type  1   force =     0.00000000    0.00000030   -0.00024355
     atom   16 type  1   force =    -0.00000004    0.00000028    0.00058338
     atom   17 type  1   force =    -0.00000003    0.00000002    0.00231853
     atom   18 type  1   force =     0.00000000    0.00000023   -0.00175721
     atom   19 type  1   force =     0.00000001    0.00000025    0.00175713
     atom   20 type  1   force =    -0.00000002    0.00000001   -0.00231852
     atom   21 type  1   force =     0.00000000    0.00000017   -0.00058331
     atom   22 type  1   force =    -0.00000002    0.00000021    0.00024362
     atom   23 type  1   force =    -0.00000002    0.00000001    0.00017264
     atom   24 type  1   force =     0.00000000   -0.00000010    0.00045044
     atom   25 type  1   force =    -0.00000006   -0.00000001   -0.00045039
     atom   26 type  1   force =     0.00000000    0.00000021   -0.00017225
     atom   27 type  1   force =    -0.00000024    0.00000014   -0.00024344
     atom   28 type  1   force =    -0.00000026   -0.00000010    0.00058338
     atom   29 type  1   force =     0.00000000    0.00000026    0.00231850
     atom   30 type  1   force =    -0.00000018    0.00000010   -0.00175722
     atom   31 type  1   force =    -0.00000000   -0.00000000    0.00175719
     atom   32 type  1   force =     0.00000000    0.00000029   -0.00231862
     atom   33 type  1   force =    -0.00000024    0.00000014   -0.00058341
     atom   34 type  1   force =    -0.00000019   -0.00000008    0.00024362
     atom   35 type  1   force =     0.00000000    0.00000016    0.00017248
     atom   36 type  1   force =    -0.00000001    0.00000000    0.00045026
     atom   37 type  1   force =     0.00000004   -0.00000004   -0.00045039
     atom   38 type  1   force =     0.00000000   -0.00000007   -0.00017255
     atom   39 type  1   force =     0.00000026   -0.00000015   -0.00024355
     atom   40 type  1   force =     0.00000022   -0.00000017    0.00058338
     atom   41 type  1   force =     0.00000000   -0.00000003    0.00231853
     atom   42 type  1   force =     0.00000020   -0.00000011   -0.00175721
     atom   43 type  1   force =     0.00000000    0.00000000    0.00175731
     atom   44 type  1   force =     0.00000000   -0.00000002   -0.00231852
     atom   45 type  1   force =     0.00000014   -0.00000008   -0.00058331
     atom   46 type  1   force =     0.00000017   -0.00000013    0.00024362
     atom   47 type  1   force =    -0.00000000   -0.00000003    0.00017264
     atom   48 type  1   force =    -0.00000009    0.00000005    0.00045044
     atom   49 type  1   force =     0.00000000    0.00000000   -0.00045054
     atom   50 type  1   force =     0.00000006    0.00000003   -0.00017255
     atom   51 type  1   force =     0.00000016    0.00000009   -0.00024356
     atom   52 type  1   force =    -0.00000000   -0.00000000    0.00058336
     atom   53 type  1   force =     0.00000003    0.00000002    0.00231853
     atom   54 type  1   force =     0.00000021    0.00000012   -0.00175722
     atom   55 type  1   force =    -0.00000001    0.00000025    0.00175713
     atom   56 type  1   force =     0.00000002    0.00000001   -0.00231852
     atom   57 type  1   force =     0.00000008    0.00000005   -0.00058340
     atom   58 type  1   force =     0.00000000    0.00000000    0.00024364
     atom   59 type  1   force =     0.00000002    0.00000001    0.00017264
     atom   60 type  1   force =    -0.00000005   -0.00000003    0.00045031
     atom   61 type  1   force =     0.00000006   -0.00000001   -0.00045039
     atom   62 type  1   force =     0.00000003   -0.00000002   -0.00017250
     atom   63 type  1   force =     0.00000000   -0.00000018   -0.00024356
     atom   64 type  1   force =     0.00000026   -0.00000010    0.00058338
     atom   65 type  1   force =    -0.00000001    0.00000001    0.00231858
     atom   66 type  1   force =     0.00000000   -0.00000024   -0.00175722
     atom   67 type  1   force =    -0.00000023   -0.00000012    0.00175713
     atom   68 type  1   force =    -0.00000004    0.00000003   -0.00231883
     atom   69 type  1   force =     0.00000000   -0.00000009   -0.00058340
     atom   70 type  1   force =     0.00000019   -0.00000008    0.00024362
     atom   71 type  1   force =    -0.00000004    0.00000002    0.00017257
     atom   72 type  1   force =     0.00000000    0.00000006    0.00045031
     atom   73 type  1   force =    -0.00000004   -0.00000004   -0.00045039
     atom   74 type  1   force =     0.00000018   -0.00000011   -0.00017225
     atom   75 type  1   force =     0.00000000   -0.00000028   -0.00024344
     atom   76 type  1   force =    -0.00000022   -0.00000017    0.00058338
     atom   77 type  1   force =     0.00000022   -0.00000013    0.00231850
     atom   78 type  1   force =     0.00000000   -0.00000021   -0.00175722
     atom   79 type  1   force =     0.00000021   -0.00000014    0.00175713
     atom   80 type  1   force =     0.00000025   -0.00000014   -0.00231862
     atom   81 type  1   force =     0.00000000   -0.00000028   -0.00058341
     atom   82 type  1   force =    -0.00000017   -0.00000013    0.00024362
     atom   83 type  1   force =     0.00000014   -0.00000008    0.00017248
     atom   84 type  1   force =     0.00000000   -0.00000001    0.00045026
     atom   85 type  1   force =     0.00000002    0.00000006   -0.00045039
     atom   86 type  1   force =     0.00000000    0.00000004   -0.00017250
     atom   87 type  1   force =    -0.00000016    0.00000009   -0.00024356
     atom   88 type  1   force =     0.00000004    0.00000028    0.00058338
     atom   89 type  1   force =     0.00000000   -0.00000002    0.00231858
     atom   90 type  1   force =    -0.00000021    0.00000012   -0.00175722
     atom   91 type  1   force =     0.00000000    0.00000000    0.00175689
     atom   92 type  1   force =     0.00000000   -0.00000005   -0.00231883
     atom   93 type  1   force =    -0.00000008    0.00000005   -0.00058340
     atom   94 type  1   force =     0.00000002    0.00000021    0.00024362
     atom   95 type  1   force =     0.00000000   -0.00000004    0.00017257
     atom   96 type  1   force =     0.00000005   -0.00000003    0.00045031
     atom   97 type  1   force =    -0.00000000   -0.00000000   -0.00045041
     atom   98 type  1   force =    -0.00000003   -0.00000002   -0.00017250
     atom   99 type  1   force =     0.00000024    0.00000014   -0.00024344
     atom  100 type  1   force =     0.00000000    0.00000000    0.00058333
     atom  101 type  1   force =     0.00000001    0.00000001    0.00231858
     atom  102 type  1   force =     0.00000018    0.00000010   -0.00175722
     atom  103 type  1   force =     0.00000023   -0.00000012    0.00175713
     atom  104 type  1   force =     0.00000004    0.00000003   -0.00231883
     atom  105 type  1   force =     0.00000024    0.00000014   -0.00058341
     atom  106 type  1   force =     0.00000000    0.00000000    0.00024345
     atom  107 type  1   force =     0.00000004    0.00000002    0.00017257
     atom  108 type  1   force =     0.00000001    0.00000000    0.00045026

     Total force =     0.012795     Total SCF correction =     0.000009


     Computing stress (Cartesian axis) and pressure

          total   stress  (Ry/bohr**3)                   (kbar)     P=       -4.67
  -0.00003512  -0.00000000   0.00000000           -5.17       -0.00        0.00
  -0.00000000  -0.00003512   0.00000000           -0.00       -5.17        0.00
   0.00000000  -0.00000000  -0.00002505            0.00       -0.00       -3.69

     Energy error            =      9.5E-04 Ry
     Gradient error          =      2.3E-03 Ry/Bohr

     number of scf cycles    =  10
     number of bfgs steps    =   9

     energy             old  =   -1555.0746148017 Ry
     energy             new  =   -1555.0755608480 Ry

     CASE: energy            _new < energy            _old

     new trust radius        =       0.0054849531 bohr
     new conv_thr            =       0.0000000002 Ry


ATOMIC_POSITIONS (angstrom)
Li              -0.0000000000       -0.0000000000       14.9905075370
Li               2.4319663660        1.4040964361       16.1471929595
Li               4.8639289703        2.8081907004       16.8830311242
Li               7.2958834680        4.2122802843       17.9237607087
Li               2.4319694479        1.4040982154       18.9781179240
Li               4.8639303031        2.8081914699       19.9584811340
Li               2.4319684910        4.2122847526       20.9628047500
Li               2.4319697327        1.4040983799       21.9431687382
Li               4.8639293330        2.8081909098       22.9975238741
Li               7.2958834680        4.2122802843       24.0382522508
Li               2.4319665145        1.4040965218       24.7740891244
Li               4.8639254161        2.8081886483       25.9307637369
Li               2.4319653230        4.2122821524       14.9905177656
Li               4.8639249336        5.6163721987       16.1472001337
Li               7.2958834680        7.0204594520       16.8830311242
Li               9.7278454711        8.4245523204       17.9237580901
Li               4.8639259569        5.6163716079       18.9781191984
Li               7.2958834680        7.0204579131       19.9584811340
Li               4.8639221099        8.4245519821       20.9628047500
Li               4.8639258004        5.6163716983       21.9431652921
Li               7.2958834680        7.0204590333       22.9975238741
Li               9.7278446727        8.4245540719       24.0382536588
Li               4.8639256146        5.6163718056       24.7740831388
Li               7.2958834680        7.0204635561       25.9307637369
Li               4.8639227777        8.4245560257       14.9905177656
Li               7.2958834680        9.8286479806       16.1471929595
Li               9.7278495735       11.2327445671       16.8830268055
Li              12.1598133466       12.6368442433       17.9237580901
Li               7.2958834680        9.8286444219       18.9781179240
Li               9.7278499836       11.2327443304       19.9584816758
Li               7.2958834680       12.6368408528       20.9628046098
Li               7.2958834680        9.8286440931       21.9431687382
Li               9.7278499724       11.2327443369       22.9975279686
Li              12.1598114307       12.6368440590       24.0382536588
Li               7.2958834680        9.8286478091       24.7740891244
Li               9.7278473238       11.2327458660       25.9307687643
Li               4.8639260134        0.0000026747       14.9905177656
Li               7.2958834680        1.4040964552       16.1472001337
Li               9.7278379658        2.8081907004       16.8830311242
Li              12.1597990605        4.2122851418       17.9237580901
Li               7.2958834680        1.4040976369       18.9781191984
Li               9.7278366330        2.8081914699       19.9584811340
Li               7.2958834680        4.2122802843       20.9628038743
Li               7.2958834680        1.4040974562       21.9431652921
Li               9.7278376031        2.8081909098       22.9975238741
Li              12.1598001782        4.2122835747       24.0382536588
Li               7.2958834680        1.4040972416       24.7740831388
Li               9.7278415200        2.8081886483       25.9307637369
Li               7.2958834680        4.2122802843       14.9905217590
Li               9.7278420025        5.6163721987       16.1472001337
Li              12.1598028397        7.0204654428       16.8830277205
Li              14.5917669361        8.4245605685       17.9237574802
Li               9.7278409792        5.6163716079       18.9781191984
Li              12.1598011375        7.0204644600       19.9584795816
Li               9.7278448262        8.4245519821       20.9628047500
Li               9.7278411357        5.6163716983       21.9431652921
Li              12.1598024803        7.0204652353       22.9975252633
Li              14.5917669361        8.4245605685       24.0382518095
Li               9.7278413215        5.6163718056       24.7740831388
Li              12.1598041595        7.0204662047       25.9307662670
Li               9.7278441584        8.4245560257       14.9905177656
Li              12.1598069757        9.8286533063       16.1471957376
Li              14.5917669361       11.2327508200       16.8830277205
Li              17.0237205256       12.6368442433       17.9237580901
Li              12.1598077573        9.8286528551       18.9781165812
Li              14.5917669361       11.2327527855       19.9584795816
Li              12.1598133172       12.6368449710       20.9628047500
Li              12.1598076648        9.8286529084       21.9431687535
Li              14.5917669361       11.2327512350       22.9975252633
Li              17.0237224415       12.6368440590       24.0382536588
Li              12.1598067841        9.8286534169       24.7740856040
Li              14.5917669361       11.2327492960       25.9307662670
Li               9.7278409227        0.0000026747       14.9905177656
Li              12.1598005701        1.4040964361       16.1471929595
Li              14.5917669361        2.8081925713       16.8830268055
Li               2.4319678756        4.2122851418       17.9237580901
Li              12.1597974882        1.4040982154       18.9781179240
Li              14.5917669361        2.8081930448       19.9584816758
Li              12.1597984451        4.2122847526       20.9628047500
Li              12.1597972034        1.4040983799       21.9431687382
Li              14.5917669361        2.8081930319       22.9975279686
Li              17.0237336940        4.2122835747       24.0382536588
Li              12.1598004216        1.4040965218       24.7740891244
Li              14.5917669361        2.8081899736       25.9307687643
Li              12.1598016131        4.2122821524       14.9905177656
Li              14.5917669361        5.6163750929       16.1471957376
Li              17.0237310325        7.0204654428       16.8830277205
Li              19.4556884011        8.4245523204       17.9237580901
Li              14.5917669361        5.6163759954       18.9781165812
Li              17.0237327347        7.0204644600       19.9584795816
Li              14.5917669361        8.4245605685       20.9628070437
Li              14.5917669361        5.6163758886       21.9431687535
Li              17.0237313919        7.0204652353       22.9975252633
Li              19.4556891995        8.4245540719       24.0382536588
Li              14.5917669361        5.6163748716       24.7740856040
Li              17.0237297127        7.0204662047       25.9307662670
Li              14.5917669361        8.4245605685       14.9905175724
Li              17.0237268965        9.8286533063       16.1471957376
Li              19.4556842987       11.2327445671       16.8830268055
Li              21.8876504041       12.6368408528       17.9237553697
Li              17.0237261149        9.8286528551       18.9781165812
Li              19.4556838886       11.2327443304       19.9584816758
Li              17.0237205550       12.6368449710       20.9628047500
Li              17.0237262074        9.8286529084       21.9431687535
Li              19.4556838998       11.2327443369       22.9975279686
Li              21.8876504041       12.6368408528       24.0382598384
Li              17.0237270881        9.8286534169       24.7740856040
Li              19.4556865484       11.2327458660       25.9307687643



     Writing config-only to output data dir /scratch/deepanthpcu/ml/tmp/Lislab/Lislab.save/ :
     XML data file
     NEW-OLD atomic charge density approx. for the potential

     negative rho (up, down):  1.100E-07 0.000E+00

     total cpu time spent up to now is     2561.3 secs

     per-process dynamical memory:   119.1 Mb

     Self-consistent Calculation

     iteration #  1     ecut=    60.00 Ry     beta= 0.30
     Davidson diagonalization with overlap
     ethr =  1.00E-06,  avg # of iterations =  3.0

     Threshold (ethr) on eigenvalues was too large:
     Diagonalizing with lowered threshold

     Davidson diagonalization with overlap
     ethr =  4.05E-10,  avg # of iterations =  7.0

     total cpu time spent up to now is     2601.6 secs

     total energy              =   -1555.07574028 Ry
     estimated scf accuracy    <       0.00000242 Ry

     iteration #  2     ecut=    60.00 Ry     beta= 0.30
     Davidson diagonalization with overlap
     ethr =  7.46E-10,  avg # of iterations =  2.0

     total cpu time spent up to now is     2615.1 secs

     total energy              =   -1555.07574032 Ry
     estimated scf accuracy    <       0.00000082 Ry

     iteration #  3     ecut=    60.00 Ry     beta= 0.30
     Davidson diagonalization with overlap
     ethr =  2.54E-10,  avg # of iterations =  5.5

     total cpu time spent up to now is     2630.1 secs

     total energy              =   -1555.07573954 Ry
     estimated scf accuracy    <       0.00004196 Ry

     iteration #  4     ecut=    60.00 Ry     beta= 0.30
     Davidson diagonalization with overlap
     ethr =  2.54E-10,  avg # of iterations =  5.0

     total cpu time spent up to now is     2644.1 secs

     total energy              =   -1555.07574051 Ry
     estimated scf accuracy    <       0.00000144 Ry

     iteration #  5     ecut=    60.00 Ry     beta= 0.30
     Davidson diagonalization with overlap
     ethr =  2.54E-10,  avg # of iterations =  3.0

     total cpu time spent up to now is     2657.9 secs

     total energy              =   -1555.07574061 Ry
     estimated scf accuracy    <       0.00000051 Ry

     iteration #  6     ecut=    60.00 Ry     beta= 0.30
     Davidson diagonalization with overlap
     ethr =  1.58E-10,  avg # of iterations =  1.0

     total cpu time spent up to now is     2669.9 secs

     total energy              =   -1555.07574061 Ry
     estimated scf accuracy    <       0.00000005 Ry

     iteration #  7     ecut=    60.00 Ry     beta= 0.30
     Davidson diagonalization with overlap
     ethr =  1.66E-11,  avg # of iterations =  4.0

     total cpu time spent up to now is     2684.1 secs

     total energy              =   -1555.07574064 Ry
     estimated scf accuracy    <       0.00000003 Ry

     iteration #  8     ecut=    60.00 Ry     beta= 0.30
     Davidson diagonalization with overlap
     ethr =  8.16E-12,  avg # of iterations =  4.5

     total cpu time spent up to now is     2698.5 secs

     total energy              =   -1555.07574064 Ry
     estimated scf accuracy    <       0.00000002 Ry

     iteration #  9     ecut=    60.00 Ry     beta= 0.30
     Davidson diagonalization with overlap
     ethr =  6.42E-12,  avg # of iterations =  2.0

     total cpu time spent up to now is     2711.4 secs

     total energy              =   -1555.07574066 Ry
     estimated scf accuracy    <          5.7E-09 Ry

     iteration # 10     ecut=    60.00 Ry     beta= 0.30
     Davidson diagonalization with overlap
     ethr =  1.76E-12,  avg # of iterations =  3.0

     total cpu time spent up to now is     2725.0 secs

     total energy              =   -1555.07574067 Ry
     estimated scf accuracy    <          6.6E-10 Ry

     iteration # 11     ecut=    60.00 Ry     beta= 0.30
     Davidson diagonalization with overlap
     ethr =  2.03E-13,  avg # of iterations =  8.0

     total cpu time spent up to now is     2743.5 secs

     total energy              =   -1555.07574068 Ry
     estimated scf accuracy    <          4.7E-09 Ry

     iteration # 12     ecut=    60.00 Ry     beta= 0.30
     Davidson diagonalization with overlap
     ethr =  2.03E-13,  avg # of iterations =  4.5

     total cpu time spent up to now is     2758.8 secs

     total energy              =   -1555.07574068 Ry
     estimated scf accuracy    <          2.6E-10 Ry

     iteration # 13     ecut=    60.00 Ry     beta= 0.30
     Davidson diagonalization with overlap
     ethr =  1.00E-13,  avg # of iterations =  2.8

     total cpu time spent up to now is     2772.2 secs

     total energy              =   -1555.07574068 Ry
     estimated scf accuracy    <          5.7E-10 Ry

     iteration # 14     ecut=    60.00 Ry     beta= 0.30
     Davidson diagonalization with overlap
     ethr =  1.00E-13,  avg # of iterations =  2.0

     total cpu time spent up to now is     2785.2 secs

     total energy              =   -1555.07574068 Ry
     estimated scf accuracy    <          8.2E-10 Ry

     iteration # 15     ecut=    60.00 Ry     beta= 0.30
     Davidson diagonalization with overlap
     ethr =  1.00E-13,  avg # of iterations =  2.0

     total cpu time spent up to now is     2798.0 secs

     End of self-consistent calculation

          k = 0.0000 0.0000 0.0000 (399281 PWs)   bands (ev):

   -49.3122 -49.3122 -49.3122 -49.3122 -49.3122 -49.3122 -49.3122 -49.3122
   -49.3122 -49.3122 -49.3122 -49.3121 -49.3121 -49.3121 -49.3121 -49.3121
   -49.3121 -49.3121 -48.5286 -48.5282 -48.5282 -48.5282 -48.5282 -48.5282
   -48.5282 -48.5282 -48.5282 -48.5282 -48.5282 -48.5282 -48.5282 -48.5282
   -48.5282 -48.5281 -48.5281 -48.5281 -48.2861 -48.2860 -48.2860 -48.2860
   -48.2860 -48.2860 -48.2860 -48.2860 -48.2860 -48.2860 -48.2860 -48.2859
   -48.2859 -48.2859 -48.2859 -48.2859 -48.2858 -48.2858 -48.2710 -48.2665
   -48.2665 -48.2665 -48.2665 -48.2665 -48.2665 -48.2621 -48.2621 -48.2618
   -48.2605 -48.2605 -48.2605 -48.2605 -48.2605 -48.2605 -48.2599 -48.2599
   -48.2599 -48.2599 -48.2583 -48.2583 -48.2583 -48.2583 -48.2583 -48.2583
   -48.2580 -48.2580 -48.2570 -48.2543 -48.2543 -48.2543 -48.2543 -48.2543
   -48.2543 -48.2503 -48.1485 -48.1485 -48.1485 -48.1485 -48.1483 -48.1483
   -48.1483 -48.1483 -48.1483 -48.1483 -48.1482 -48.1481 -48.1481 -48.1481
   -48.1481 -48.1481 -48.1481 -48.1476  -5.1374  -4.7221  -4.4339  -4.4339
    -4.4339  -4.4339  -4.4339  -4.4339  -4.0189  -4.0189  -4.0189  -4.0189
    -4.0189  -4.0189  -3.9752  -3.2663  -3.2663  -3.2663  -3.2663  -3.2663
    -3.2663  -3.0490  -3.0490  -3.0490  -3.0490  -3.0486  -3.0486  -3.0430
    -2.6348  -2.6348  -2.6348  -2.6348  -2.6146  -2.6146  -2.3473  -2.3473
    -2.3473  -2.3473  -2.3473  -2.3473  -2.2985  -2.2985  -2.2985  -2.2985
    -2.2985  -2.2985  -2.0584  -1.9061  -1.9061  -1.9061  -1.9061  -1.9061
    -1.9061  -1.8719  -1.8719  -1.8719  -1.8719  -1.8260  -1.8260  -1.4386
    -1.4386  -1.4386  -1.4386  -1.4386  -1.4386  -1.1386  -1.1386  -1.1386
    -1.1386  -1.1386  -1.1386  -1.0613  -1.0613  -1.0613  -1.0613  -1.0613
    -1.0613  -1.0130  -1.0130  -1.0130  -1.0130  -0.9640  -0.6672  -0.6672
    -0.5709  -0.5709

          k = 0.0000 0.2887 0.0000 (399667 PWs)   bands (ev):

   -49.3123 -49.3123 -49.3123 -49.3123 -49.3123 -49.3123 -49.3122 -49.3122
   -49.3122 -49.3122 -49.3122 -49.3122 -49.3121 -49.3121 -49.3121 -49.3121
   -49.3121 -49.3121 -48.5286 -48.5284 -48.5284 -48.5283 -48.5283 -48.5282
   -48.5282 -48.5282 -48.5282 -48.5282 -48.5282 -48.5282 -48.5282 -48.5282
   -48.5282 -48.5282 -48.5282 -48.5282 -48.2862 -48.2861 -48.2861 -48.2861
   -48.2861 -48.2861 -48.2861 -48.2860 -48.2860 -48.2860 -48.2860 -48.2860
   -48.2859 -48.2859 -48.2859 -48.2859 -48.2859 -48.2859 -48.2708 -48.2682
   -48.2672 -48.2672 -48.2655 -48.2655 -48.2647 -48.2628 -48.2628 -48.2618
   -48.2614 -48.2608 -48.2606 -48.2606 -48.2606 -48.2606 -48.2604 -48.2604
   -48.2591 -48.2591 -48.2584 -48.2584 -48.2582 -48.2582 -48.2581 -48.2580
   -48.2576 -48.2576 -48.2572 -48.2558 -48.2552 -48.2552 -48.2538 -48.2538
   -48.2531 -48.2509 -48.1486 -48.1486 -48.1485 -48.1485 -48.1484 -48.1484
   -48.1484 -48.1484 -48.1483 -48.1483 -48.1483 -48.1483 -48.1483 -48.1481
   -48.1481 -48.1481 -48.1481 -48.1480  -5.0935  -4.7420  -4.6783  -4.5661
    -4.5661  -4.3267  -4.2141  -4.2141  -4.1509  -4.1509  -4.0376  -3.9308
    -3.7994  -3.7994  -3.6237  -3.5756  -3.5171  -3.5171  -3.3986  -3.3986
    -3.1090  -3.1090  -3.0471  -3.0471  -2.9970  -2.9934  -2.9934  -2.9814
    -2.8763  -2.6356  -2.6356  -2.6323  -2.6012  -2.6012  -2.5551  -2.4972
    -2.4972  -2.4527  -2.4527  -2.3376  -2.3376  -2.2219  -2.2219  -2.0916
    -2.0916  -2.0764  -2.0764  -2.0138  -1.9573  -1.9462  -1.9462  -1.8146
    -1.8146  -1.7941  -1.6749  -1.5903  -1.5290  -1.5290  -1.5121  -1.5121
    -1.5118  -1.5118  -1.4235  -1.4235  -1.3800  -1.3800  -1.2793  -1.2793
    -1.2347  -1.1814  -1.1735  -1.1735  -1.1630  -1.1630  -1.1552  -0.9355
    -0.9355  -0.9266  -0.9093  -0.9093  -0.8760  -0.8760  -0.7726  -0.7581
    -0.7432  -0.7013

          k = 0.0000-0.5774 0.0000 (399688 PWs)   bands (ev):

   -49.3123 -49.3123 -49.3123 -49.3123 -49.3122 -49.3122 -49.3122 -49.3122
   -49.3122 -49.3122 -49.3122 -49.3122 -49.3122 -49.3122 -49.3122 -49.3122
   -49.3122 -49.3121 -48.5285 -48.5285 -48.5284 -48.5284 -48.5283 -48.5283
   -48.5283 -48.5282 -48.5282 -48.5282 -48.5282 -48.5282 -48.5282 -48.5282
   -48.5282 -48.5282 -48.5282 -48.5282 -48.2861 -48.2861 -48.2861 -48.2861
   -48.2860 -48.2860 -48.2860 -48.2860 -48.2860 -48.2860 -48.2860 -48.2860
   -48.2860 -48.2860 -48.2860 -48.2860 -48.2859 -48.2859 -48.2699 -48.2699
   -48.2675 -48.2675 -48.2641 -48.2641 -48.2641 -48.2641 -48.2632 -48.2626
   -48.2613 -48.2613 -48.2607 -48.2607 -48.2607 -48.2607 -48.2604 -48.2604
   -48.2586 -48.2586 -48.2586 -48.2586 -48.2582 -48.2582 -48.2575 -48.2575
   -48.2573 -48.2570 -48.2564 -48.2564 -48.2564 -48.2564 -48.2537 -48.2537
   -48.2519 -48.2519 -48.1485 -48.1484 -48.1484 -48.1484 -48.1484 -48.1484
   -48.1484 -48.1484 -48.1484 -48.1484 -48.1483 -48.1483 -48.1483 -48.1483
   -48.1481 -48.1481 -48.1481 -48.1481  -4.9618  -4.9618  -4.6102  -4.6102
    -4.5465  -4.5465  -4.1949  -4.1949  -3.9077  -3.9077  -3.9077  -3.9077
    -3.7975  -3.7975  -3.5555  -3.5533  -3.4936  -3.4936  -3.4936  -3.4936
    -3.4427  -3.4427  -3.1433  -3.1349  -2.8622  -2.8622  -2.8622  -2.8622
    -2.8595  -2.8595  -2.7454  -2.7454  -2.7454  -2.7454  -2.4965  -2.4965
    -2.4337  -2.4337  -2.4337  -2.4337  -2.3932  -2.3732  -1.9284  -1.9284
    -1.9284  -1.9284  -1.8819  -1.8819  -1.8220  -1.8220  -1.8220  -1.8220
    -1.6659  -1.6659  -1.6659  -1.6659  -1.5806  -1.5611  -1.5611  -1.5270
    -1.5270  -1.5178  -1.5178  -1.4731  -1.4731  -1.4731  -1.4731  -1.3269
    -1.2925  -1.1086  -1.1086  -1.0924  -1.0924  -1.0244  -1.0244  -1.0244
    -1.0244  -0.8531  -0.8531  -0.8007  -0.7726  -0.7726  -0.7470  -0.7470
    -0.7470  -0.7470

          k = 0.2500-0.7217 0.0000 (399610 PWs)   bands (ev):

   -49.3123 -49.3123 -49.3122 -49.3122 -49.3122 -49.3122 -49.3122 -49.3122
   -49.3122 -49.3122 -49.3122 -49.3122 -49.3122 -49.3122 -49.3121 -49.3121
   -49.3121 -49.3121 -48.5286 -48.5284 -48.5283 -48.5283 -48.5283 -48.5283
   -48.5282 -48.5282 -48.5282 -48.5282 -48.5282 -48.5282 -48.5282 -48.5282
   -48.5282 -48.5282 -48.5281 -48.5281 -48.2861 -48.2861 -48.2860 -48.2860
   -48.2860 -48.2860 -48.2860 -48.2860 -48.2860 -48.2860 -48.2860 -48.2860
   -48.2860 -48.2860 -48.2859 -48.2859 -48.2859 -48.2859 -48.2702 -48.2689
   -48.2689 -48.2658 -48.2658 -48.2643 -48.2637 -48.2637 -48.2629 -48.2618
   -48.2618 -48.2618 -48.2614 -48.2609 -48.2609 -48.2600 -48.2600 -48.2596
   -48.2595 -48.2588 -48.2588 -48.2579 -48.2578 -48.2577 -48.2577 -48.2577
   -48.2576 -48.2573 -48.2566 -48.2566 -48.2565 -48.2550 -48.2550 -48.2526
   -48.2526 -48.2516 -48.1485 -48.1485 -48.1485 -48.1484 -48.1484 -48.1484
   -48.1483 -48.1483 -48.1483 -48.1483 -48.1482 -48.1482 -48.1482 -48.1482
   -48.1482 -48.1481 -48.1481 -48.1481  -5.0057  -4.8299  -4.8299  -4.5904
    -4.4146  -4.4146  -4.3026  -4.3026  -3.9522  -3.8875  -3.8875  -3.8419
    -3.7745  -3.7745  -3.6643  -3.6643  -3.5375  -3.4289  -3.4268  -3.3659
    -3.3659  -3.2409  -3.2409  -3.1340  -3.1340  -3.0171  -3.0065  -2.9053
    -2.8437  -2.8437  -2.7854  -2.7227  -2.7227  -2.5900  -2.5899  -2.4136
    -2.4107  -2.2682  -2.2400  -2.2344  -2.2344  -2.1746  -2.1746  -2.0895
    -2.0895  -1.9913  -1.9844  -1.9752  -1.9254  -1.8207  -1.8092  -1.8092
    -1.7622  -1.7622  -1.7531  -1.7531  -1.6718  -1.6718  -1.5292  -1.4886
    -1.4886  -1.4336  -1.3434  -1.3434  -1.3053  -1.3053  -1.2482  -1.2375
    -1.1979  -1.1979  -1.1949  -1.1941  -1.1941  -1.0318  -1.0318  -1.0146
    -1.0146  -0.9349  -0.8587  -0.8499  -0.8499  -0.7957  -0.7957  -0.7711
    -0.7173  -0.7173

     the Fermi energy is    -1.7219 ev

!    total energy              =   -1555.07574068 Ry
     estimated scf accuracy    <          3.2E-11 Ry
     smearing contrib. (-TS)   =      -0.01265332 Ry
     internal energy E=F+TS    =   -1555.06308736 Ry

     The total energy is F=E-TS. E is the sum of the following terms:
     one-electron contribution =  -14023.77541396 Ry
     hartree contribution      =    6845.91259833 Ry
     xc contribution           =    -359.08178089 Ry
     ewald contribution        =    5981.88150916 Ry

     convergence has been achieved in  15 iterations

     Forces acting on atoms (cartesian axes, Ry/au):

     atom    1 type  1   force =    -0.00000000   -0.00000000   -0.00044453
     atom    2 type  1   force =    -0.00000015   -0.00000008   -0.00026570
     atom    3 type  1   force =    -0.00000023   -0.00000013   -0.00018787
     atom    4 type  1   force =     0.00000000    0.00000000    0.00064885
     atom    5 type  1   force =    -0.00000019   -0.00000011    0.00226092
     atom    6 type  1   force =    -0.00000019   -0.00000011   -0.00173745
     atom    7 type  1   force =    -0.00000022   -0.00000012    0.00173741
     atom    8 type  1   force =    -0.00000026   -0.00000015   -0.00226090
     atom    9 type  1   force =    -0.00000017   -0.00000010   -0.00064875
     atom   10 type  1   force =     0.00000000    0.00000000    0.00018793
     atom   11 type  1   force =    -0.00000017   -0.00000010    0.00026584
     atom   12 type  1   force =     0.00000006    0.00000004    0.00044497
     atom   13 type  1   force =    -0.00000001    0.00000010   -0.00044489
     atom   14 type  1   force =    -0.00000007    0.00000004   -0.00026597
     atom   15 type  1   force =     0.00000000    0.00000027   -0.00018787
     atom   16 type  1   force =     0.00000002    0.00000024    0.00064882
     atom   17 type  1   force =    -0.00000005    0.00000003    0.00226089
     atom   18 type  1   force =     0.00000000    0.00000022   -0.00173745
     atom   19 type  1   force =    -0.00000001    0.00000025    0.00173741
     atom   20 type  1   force =    -0.00000003    0.00000002   -0.00226088
     atom   21 type  1   force =     0.00000000    0.00000020   -0.00064875
     atom   22 type  1   force =    -0.00000004    0.00000024    0.00018789
     atom   23 type  1   force =    -0.00000005    0.00000003    0.00026602
     atom   24 type  1   force =     0.00000000   -0.00000007    0.00044497
     atom   25 type  1   force =    -0.00000009   -0.00000004   -0.00044489
     atom   26 type  1   force =     0.00000000    0.00000017   -0.00026570
     atom   27 type  1   force =    -0.00000018    0.00000010   -0.00018775
     atom   28 type  1   force =    -0.00000020   -0.00000014    0.00064882
     atom   29 type  1   force =     0.00000000    0.00000022    0.00226092
     atom   30 type  1   force =    -0.00000015    0.00000008   -0.00173742
     atom   31 type  1   force =    -0.00000000   -0.00000000    0.00173756
     atom   32 type  1   force =     0.00000000    0.00000030   -0.00226090
     atom   33 type  1   force =    -0.00000026    0.00000015   -0.00064882
     atom   34 type  1   force =    -0.00000022   -0.00000009    0.00018789
     atom   35 type  1   force =     0.00000000    0.00000020    0.00026584
     atom   36 type  1   force =    -0.00000003    0.00000002    0.00044475
     atom   37 type  1   force =     0.00000008   -0.00000006   -0.00044489
     atom   38 type  1   force =     0.00000000   -0.00000008   -0.00026597
     atom   39 type  1   force =     0.00000023   -0.00000013   -0.00018787
     atom   40 type  1   force =     0.00000022   -0.00000010    0.00064882
     atom   41 type  1   force =     0.00000000   -0.00000006    0.00226089
     atom   42 type  1   force =     0.00000019   -0.00000011   -0.00173745
     atom   43 type  1   force =     0.00000000    0.00000000    0.00173756
     atom   44 type  1   force =     0.00000000   -0.00000004   -0.00226088
     atom   45 type  1   force =     0.00000017   -0.00000010   -0.00064875
     atom   46 type  1   force =     0.00000019   -0.00000015    0.00018789
     atom   47 type  1   force =     0.00000000   -0.00000005    0.00026602
     atom   48 type  1   force =    -0.00000006    0.00000004    0.00044497
     atom   49 type  1   force =    -0.00000000   -0.00000000   -0.00044504
     atom   50 type  1   force =     0.00000007    0.00000004   -0.00026597
     atom   51 type  1   force =     0.00000018    0.00000010   -0.00018787
     atom   52 type  1   force =    -0.00000000   -0.00000000    0.00064878
     atom   53 type  1   force =     0.00000005    0.00000003    0.00226089
     atom   54 type  1   force =     0.00000023    0.00000013   -0.00173750
     atom   55 type  1   force =     0.00000001    0.00000025    0.00173741
     atom   56 type  1   force =     0.00000003    0.00000002   -0.00226088
     atom   57 type  1   force =     0.00000009    0.00000005   -0.00064887
     atom   58 type  1   force =     0.00000000    0.00000000    0.00018790
     atom   59 type  1   force =     0.00000005    0.00000003    0.00026602
     atom   60 type  1   force =    -0.00000005   -0.00000003    0.00044485
     atom   61 type  1   force =     0.00000009   -0.00000004   -0.00044489
     atom   62 type  1   force =     0.00000008   -0.00000005   -0.00026589
     atom   63 type  1   force =     0.00000000   -0.00000021   -0.00018787
     atom   64 type  1   force =     0.00000020   -0.00000014    0.00064882
     atom   65 type  1   force =     0.00000003   -0.00000002    0.00226093
     atom   66 type  1   force =     0.00000000   -0.00000026   -0.00173750
     atom   67 type  1   force =    -0.00000022   -0.00000013    0.00173741
     atom   68 type  1   force =    -0.00000005    0.00000003   -0.00226118
     atom   69 type  1   force =     0.00000000   -0.00000010   -0.00064887
     atom   70 type  1   force =     0.00000022   -0.00000009    0.00018789
     atom   71 type  1   force =    -0.00000005    0.00000003    0.00026594
     atom   72 type  1   force =     0.00000000    0.00000006    0.00044485
     atom   73 type  1   force =    -0.00000008   -0.00000006   -0.00044489
     atom   74 type  1   force =     0.00000015   -0.00000008   -0.00026570
     atom   75 type  1   force =     0.00000000   -0.00000021   -0.00018775
     atom   76 type  1   force =    -0.00000022   -0.00000010    0.00064882
     atom   77 type  1   force =     0.00000019   -0.00000011    0.00226092
     atom   78 type  1   force =     0.00000000   -0.00000017   -0.00173742
     atom   79 type  1   force =     0.00000022   -0.00000012    0.00173741
     atom   80 type  1   force =     0.00000026   -0.00000015   -0.00226090
     atom   81 type  1   force =     0.00000000   -0.00000030   -0.00064882
     atom   82 type  1   force =    -0.00000019   -0.00000015    0.00018789
     atom   83 type  1   force =     0.00000017   -0.00000010    0.00026584
     atom   84 type  1   force =     0.00000000   -0.00000004    0.00044475
     atom   85 type  1   force =     0.00000001    0.00000010   -0.00044489
     atom   86 type  1   force =     0.00000000    0.00000010   -0.00026589
     atom   87 type  1   force =    -0.00000018    0.00000010   -0.00018787
     atom   88 type  1   force =    -0.00000002    0.00000024    0.00064882
     atom   89 type  1   force =     0.00000000    0.00000004    0.00226093
     atom   90 type  1   force =    -0.00000023    0.00000013   -0.00173750
     atom   91 type  1   force =     0.00000000    0.00000000    0.00173710
     atom   92 type  1   force =     0.00000000   -0.00000006   -0.00226118
     atom   93 type  1   force =    -0.00000009    0.00000005   -0.00064887
     atom   94 type  1   force =     0.00000004    0.00000024    0.00018789
     atom   95 type  1   force =     0.00000000   -0.00000005    0.00026594
     atom   96 type  1   force =     0.00000005   -0.00000003    0.00044485
     atom   97 type  1   force =     0.00000000    0.00000000   -0.00044486
     atom   98 type  1   force =    -0.00000008   -0.00000005   -0.00026589
     atom   99 type  1   force =     0.00000018    0.00000010   -0.00018775
     atom  100 type  1   force =    -0.00000000   -0.00000000    0.00064880
     atom  101 type  1   force =    -0.00000003   -0.00000002    0.00226093
     atom  102 type  1   force =     0.00000015    0.00000008   -0.00173742
     atom  103 type  1   force =     0.00000022   -0.00000013    0.00173741
     atom  104 type  1   force =     0.00000005    0.00000003   -0.00226118
     atom  105 type  1   force =     0.00000026    0.00000015   -0.00064882
     atom  106 type  1   force =     0.00000000    0.00000000    0.00018775
     atom  107 type  1   force =     0.00000005    0.00000003    0.00026594
     atom  108 type  1   force =     0.00000003    0.00000002    0.00044475

     Total force =     0.012625     Total SCF correction =     0.000009


     Computing stress (Cartesian axis) and pressure

          total   stress  (Ry/bohr**3)                   (kbar)     P=       -4.67
  -0.00003511  -0.00000000   0.00000000           -5.17       -0.00        0.00
  -0.00000000  -0.00003511   0.00000000           -0.00       -5.17        0.00
  -0.00000000  -0.00000000  -0.00002500           -0.00       -0.00       -3.68

     Energy error            =      1.8E-04 Ry
     Gradient error          =      2.3E-03 Ry/Bohr

     number of scf cycles    =  11
     number of bfgs steps    =  10

     energy             old  =   -1555.0755608480 Ry
     energy             new  =   -1555.0757406815 Ry

     CASE: energy            _new < energy            _old


     WARNING: bfgs curvature condition failed, Theta= 0.888
     new trust radius        =       0.0060334484 bohr
     new conv_thr            =       0.0000000002 Ry


ATOMIC_POSITIONS (angstrom)
Li              -0.0000000000       -0.0000000000       14.9897411391
Li               2.4319662821        1.4040963877       16.1503857229
Li               4.8639288111        2.8081906085       16.8804669436
Li               7.2958834680        4.2122802843       17.9232921188
Li               2.4319693862        1.4040981798       18.9810984011
Li               4.8639302483        2.8081914382       19.9561909888
Li               2.4319683569        4.2122847437       20.9650948372
Li               2.4319696101        1.4040983091       21.9401882424
Li               4.8639292965        2.8081908887       22.9979926433
Li               7.2958834680        4.2122802843       24.0408165636
Li               2.4319664468        1.4040964827       24.7708965558
Li               4.8639255757        2.8081887405       25.9315304106
Li               2.4319653902        4.2122823191       14.9897511314
Li               4.8639248766        5.6163722316       16.1503927195
Li               7.2958834680        7.0204596358       16.8804669436
Li               9.7278455446        8.4245524513       17.9232893894
Li               4.8639259525        5.6163716104       18.9810997116
Li               7.2958834680        7.0204579763       19.9561909888
Li               4.8639220505        8.4245521026       20.9650948372
Li               4.8639258157        5.6163716895       21.9401847912
Li               7.2958834680        7.0204590754       22.9979926433
Li               9.7278446674        8.4245542068       24.0408179415
Li               4.8639256374        5.6163717924       24.7708906416
Li               7.2958834680        7.0204633718       25.9315304106
Li               4.8639226669        8.4245558842       14.9897511314
Li               7.2958834680        9.8286480775       16.1503857229
Li               9.7278494591       11.2327446332       16.8804626688
Li              12.1598132700       12.6368441142       17.9232893894
Li               7.2958834680        9.8286444932       18.9810984011
Li               9.7278499453       11.2327443525       19.9561915469
Li               7.2958834680       12.6368408528       20.9650948268
Li               7.2958834680        9.8286442346       21.9401882424
Li               9.7278498070       11.2327444323       22.9979967133
Li              12.1598113111       12.6368439962       24.0408179415
Li               7.2958834680        9.8286478873       24.7708965558
Li               9.7278473774       11.2327458351       25.9315353151
Li               4.8639261913        0.0000026495       14.9897511314
Li               7.2958834680        1.4040963894       16.1503927195
Li               9.7278381250        2.8081906085       16.8804669436
Li              12.1597992107        4.2122851400       17.9232893894
Li               7.2958834680        1.4040976318       18.9810997116
Li               9.7278366878        2.8081914382       19.9561909888
Li               7.2958834680        4.2122802843       20.9650941564
Li               7.2958834680        1.4040974738       21.9401847912
Li               9.7278376396        2.8081908887       22.9979926433
Li              12.1598002924        4.2122835026       24.0408179415
Li               7.2958834680        1.4040972680       24.7708906416
Li               9.7278413604        2.8081887405       25.9315304106
Li               7.2958834680        4.2122802843       14.9897550054
Li               9.7278420595        5.6163722316       16.1503927195
Li              12.1598030263        7.0204655505       16.8804634793
Li              14.5917669361        8.4245605685       17.9232887453
Li               9.7278409836        5.6163716104       18.9810997116
Li              12.1598013591        7.0204645879       19.9561893378
Li               9.7278448856        8.4245521026       20.9650948372
Li               9.7278411204        5.6163716895       21.9401847912
Li              12.1598025499        7.0204652754       22.9979938998
Li              14.5917669361        8.4245605685       24.0408160363
Li               9.7278412987        5.6163717924       24.7708906416
Li              12.1598040795        7.0204661586       25.9315328207
Li               9.7278442692        8.4245558842       14.9897511314
Li              12.1598071186        9.8286532238       16.1503883596
Li              14.5917669361       11.2327506045       16.8804634793
Li              17.0237206022       12.6368441142       17.9232893894
Li              12.1598078789        9.8286527849       18.9810970799
Li              14.5917669361       11.2327525296       19.9561893378
Li              12.1598132425       12.6368448592       20.9650948372
Li              12.1598077012        9.8286528875       21.9401879299
Li              14.5917669361       11.2327511546       22.9979938998
Li              17.0237225611       12.6368439962       24.0408179415
Li              12.1598067814        9.8286534185       24.7708930535
Li              14.5917669361       11.2327493884       25.9315328207
Li               9.7278407448        0.0000026495       14.9897511314
Li              12.1598006540        1.4040963877       16.1503857229
Li              14.5917669361        2.8081924392       16.8804626688
Li               2.4319677254        4.2122851400       17.9232893894
Li              12.1597975499        1.4040981798       18.9810984011
Li              14.5917669361        2.8081930005       19.9561915469
Li              12.1597985792        4.2122847437       20.9650948372
Li              12.1597973260        1.4040983091       21.9401882424
Li              14.5917669361        2.8081928409       22.9979967133
Li              17.0237335798        4.2122835026       24.0408179415
Li              12.1598004893        1.4040964827       24.7708965558
Li              14.5917669361        2.8081900354       25.9315353151
Li              12.1598015459        4.2122823191       14.9897511314
Li              14.5917669361        5.6163752578       16.1503883596
Li              17.0237308459        7.0204655505       16.8804634793
Li              19.4556883276        8.4245524513       17.9232893894
Li              14.5917669361        5.6163761358       18.9810970799
Li              17.0237325131        7.0204645879       19.9561893378
Li              14.5917669361        8.4245605685       20.9650968010
Li              14.5917669361        5.6163759306       21.9401879299
Li              17.0237313223        7.0204652754       22.9979938998
Li              19.4556892048        8.4245542068       24.0408179415
Li              14.5917669361        5.6163748685       24.7708930535
Li              17.0237297927        7.0204661586       25.9315328207
Li              14.5917669361        8.4245605685       14.9897510134
Li              17.0237267536        9.8286532238       16.1503883596
Li              19.4556844131       11.2327446332       16.8804626688
Li              21.8876504041       12.6368408528       17.9232865416
Li              17.0237259933        9.8286527849       18.9810970799
Li              19.4556839269       11.2327443525       19.9561915469
Li              17.0237206297       12.6368448592       20.9650948372
Li              17.0237261710        9.8286528875       21.9401879299
Li              19.4556840652       11.2327444323       22.9979967133
Li              21.8876504041       12.6368408528       24.0408240685
Li              17.0237270908        9.8286534185       24.7708930535
Li              19.4556864948       11.2327458351       25.9315353151



     Writing config-only to output data dir /scratch/deepanthpcu/ml/tmp/Lislab/Lislab.save/ :
     XML data file
     NEW-OLD atomic charge density approx. for the potential

     negative rho (up, down):  4.563E-07 0.000E+00

     total cpu time spent up to now is     2813.2 secs

     per-process dynamical memory:   119.1 Mb

     Self-consistent Calculation

     iteration #  1     ecut=    60.00 Ry     beta= 0.30
     Davidson diagonalization with overlap
     ethr =  1.00E-06,  avg # of iterations =  3.0

     Threshold (ethr) on eigenvalues was too large:
     Diagonalizing with lowered threshold

     Davidson diagonalization with overlap
     ethr =  1.77E-09,  avg # of iterations =  5.8

     negative rho (up, down):  6.683E-08 0.000E+00

     total cpu time spent up to now is     2850.6 secs

     total energy              =   -1555.07607475 Ry
     estimated scf accuracy    <       0.00000659 Ry

     iteration #  2     ecut=    60.00 Ry     beta= 0.30
     Davidson diagonalization with overlap
     ethr =  2.03E-09,  avg # of iterations =  5.2

     negative rho (up, down):  9.203E-08 0.000E+00

     total cpu time spent up to now is     2866.2 secs

     total energy              =   -1555.07607311 Ry
     estimated scf accuracy    <       0.00005327 Ry

     iteration #  3     ecut=    60.00 Ry     beta= 0.30
     Davidson diagonalization with overlap
     ethr =  2.03E-09,  avg # of iterations =  4.8

     total cpu time spent up to now is     2880.8 secs

     total energy              =   -1555.07607611 Ry
     estimated scf accuracy    <       0.00000144 Ry

     iteration #  4     ecut=    60.00 Ry     beta= 0.30
     Davidson diagonalization with overlap
     ethr =  4.46E-10,  avg # of iterations =  5.5

     total cpu time spent up to now is     2895.8 secs

     total energy              =   -1555.07607469 Ry
     estimated scf accuracy    <       0.00008615 Ry

     iteration #  5     ecut=    60.00 Ry     beta= 0.30
     Davidson diagonalization with overlap
     ethr =  4.46E-10,  avg # of iterations =  4.8

     total cpu time spent up to now is     2909.9 secs

     total energy              =   -1555.07607650 Ry
     estimated scf accuracy    <       0.00000032 Ry

     iteration #  6     ecut=    60.00 Ry     beta= 0.30
     Davidson diagonalization with overlap
     ethr =  9.89E-11,  avg # of iterations =  3.2

     total cpu time spent up to now is     2923.4 secs

     total energy              =   -1555.07607648 Ry
     estimated scf accuracy    <       0.00000008 Ry

     iteration #  7     ecut=    60.00 Ry     beta= 0.30
     Davidson diagonalization with overlap
     ethr =  2.42E-11,  avg # of iterations =  4.2

     total cpu time spent up to now is     2937.7 secs

     total energy              =   -1555.07607650 Ry
     estimated scf accuracy    <       0.00000005 Ry

     iteration #  8     ecut=    60.00 Ry     beta= 0.30
     Davidson diagonalization with overlap
     ethr =  1.62E-11,  avg # of iterations =  2.8

     total cpu time spent up to now is     2951.1 secs

     total energy              =   -1555.07607652 Ry
     estimated scf accuracy    <       0.00000004 Ry

     iteration #  9     ecut=    60.00 Ry     beta= 0.30
     Davidson diagonalization with overlap
     ethr =  1.14E-11,  avg # of iterations =  3.0

     total cpu time spent up to now is     2964.3 secs

     total energy              =   -1555.07607654 Ry
     estimated scf accuracy    <          3.5E-09 Ry

     iteration # 10     ecut=    60.00 Ry     beta= 0.30
     Davidson diagonalization with overlap
     ethr =  1.08E-12,  avg # of iterations =  4.2

     total cpu time spent up to now is     2979.4 secs

     total energy              =   -1555.07607656 Ry
     estimated scf accuracy    <          1.7E-09 Ry

     iteration # 11     ecut=    60.00 Ry     beta= 0.30
     Davidson diagonalization with overlap
     ethr =  5.36E-13,  avg # of iterations =  2.0

     total cpu time spent up to now is     2992.4 secs

     total energy              =   -1555.07607656 Ry
     estimated scf accuracy    <          5.8E-10 Ry

     iteration # 12     ecut=    60.00 Ry     beta= 0.30
     Davidson diagonalization with overlap
     ethr =  1.79E-13,  avg # of iterations =  2.0

     total cpu time spent up to now is     3005.7 secs

     total energy              =   -1555.07607657 Ry
     estimated scf accuracy    <          1.9E-10 Ry

     iteration # 13     ecut=    60.00 Ry     beta= 0.30
     Davidson diagonalization with overlap
     ethr =  1.00E-13,  avg # of iterations =  3.2

     total cpu time spent up to now is     3019.3 secs

     End of self-consistent calculation

          k = 0.0000 0.0000 0.0000 (399281 PWs)   bands (ev):

   -49.3116 -49.3116 -49.3116 -49.3116 -49.3116 -49.3116 -49.3116 -49.3116
   -49.3116 -49.3116 -49.3115 -49.3115 -49.3115 -49.3115 -49.3115 -49.3115
   -49.3115 -49.3114 -48.5265 -48.5261 -48.5261 -48.5261 -48.5261 -48.5261
   -48.5261 -48.5261 -48.5261 -48.5260 -48.5260 -48.5260 -48.5260 -48.5260
   -48.5260 -48.5260 -48.5260 -48.5260 -48.2862 -48.2861 -48.2861 -48.2861
   -48.2861 -48.2861 -48.2861 -48.2861 -48.2861 -48.2861 -48.2861 -48.2860
   -48.2860 -48.2860 -48.2860 -48.2860 -48.2860 -48.2859 -48.2701 -48.2657
   -48.2657 -48.2657 -48.2657 -48.2657 -48.2657 -48.2617 -48.2617 -48.2612
   -48.2598 -48.2598 -48.2598 -48.2598 -48.2598 -48.2598 -48.2587 -48.2587
   -48.2587 -48.2587 -48.2575 -48.2575 -48.2575 -48.2575 -48.2575 -48.2575
   -48.2575 -48.2575 -48.2563 -48.2533 -48.2533 -48.2533 -48.2533 -48.2533
   -48.2533 -48.2493 -48.1473 -48.1473 -48.1473 -48.1473 -48.1471 -48.1471
   -48.1471 -48.1471 -48.1471 -48.1471 -48.1470 -48.1469 -48.1469 -48.1469
   -48.1469 -48.1469 -48.1469 -48.1465  -5.1366  -4.7212  -4.4332  -4.4332
    -4.4332  -4.4332  -4.4332  -4.4332  -4.0180  -4.0180  -4.0180  -4.0180
    -4.0180  -4.0180  -3.9744  -3.2657  -3.2657  -3.2657  -3.2656  -3.2656
    -3.2656  -3.0484  -3.0484  -3.0484  -3.0484  -3.0478  -3.0478  -3.0423
    -2.6340  -2.6340  -2.6340  -2.6340  -2.6135  -2.6135  -2.3465  -2.3465
    -2.3465  -2.3465  -2.3465  -2.3465  -2.2977  -2.2977  -2.2977  -2.2977
    -2.2977  -2.2977  -2.0583  -1.9051  -1.9051  -1.9051  -1.9051  -1.9051
    -1.9051  -1.8717  -1.8717  -1.8717  -1.8717  -1.8251  -1.8251  -1.4382
    -1.4382  -1.4382  -1.4381  -1.4381  -1.4381  -1.1386  -1.1386  -1.1386
    -1.1386  -1.1386  -1.1386  -1.0607  -1.0607  -1.0607  -1.0607  -1.0607
    -1.0607  -1.0109  -1.0109  -1.0109  -1.0109  -0.9607  -0.6673  -0.6673
    -0.5701  -0.5701

          k = 0.0000 0.2887 0.0000 (399667 PWs)   bands (ev):

   -49.3117 -49.3117 -49.3117 -49.3117 -49.3117 -49.3117 -49.3116 -49.3116
   -49.3116 -49.3116 -49.3116 -49.3116 -49.3115 -49.3115 -49.3115 -49.3115
   -49.3115 -49.3115 -48.5265 -48.5263 -48.5263 -48.5262 -48.5262 -48.5261
   -48.5261 -48.5261 -48.5261 -48.5261 -48.5261 -48.5261 -48.5261 -48.5261
   -48.5261 -48.5261 -48.5261 -48.5261 -48.2863 -48.2862 -48.2862 -48.2862
   -48.2862 -48.2862 -48.2862 -48.2861 -48.2861 -48.2861 -48.2861 -48.2861
   -48.2861 -48.2861 -48.2861 -48.2861 -48.2860 -48.2860 -48.2699 -48.2674
   -48.2664 -48.2664 -48.2647 -48.2647 -48.2640 -48.2623 -48.2623 -48.2611
   -48.2605 -48.2601 -48.2598 -48.2598 -48.2597 -48.2597 -48.2596 -48.2596
   -48.2581 -48.2581 -48.2577 -48.2577 -48.2575 -48.2575 -48.2574 -48.2572
   -48.2569 -48.2569 -48.2564 -48.2549 -48.2543 -48.2543 -48.2528 -48.2528
   -48.2521 -48.2498 -48.1474 -48.1474 -48.1473 -48.1473 -48.1473 -48.1472
   -48.1472 -48.1472 -48.1471 -48.1471 -48.1471 -48.1471 -48.1471 -48.1470
   -48.1470 -48.1469 -48.1469 -48.1468  -5.0927  -4.7412  -4.6773  -4.5653
    -4.5653  -4.3258  -4.2133  -4.2133  -4.1500  -4.1500  -4.0369  -3.9300
    -3.7985  -3.7985  -3.6228  -3.5749  -3.5164  -3.5164  -3.3979  -3.3979
    -3.1082  -3.1082  -3.0465  -3.0465  -2.9963  -2.9926  -2.9926  -2.9807
    -2.8757  -2.6349  -2.6349  -2.6314  -2.6005  -2.6005  -2.5542  -2.4964
    -2.4964  -2.4518  -2.4518  -2.3371  -2.3371  -2.2212  -2.2212  -2.0905
    -2.0905  -2.0756  -2.0756  -2.0137  -1.9566  -1.9455  -1.9455  -1.8142
    -1.8142  -1.7930  -1.6747  -1.5897  -1.5279  -1.5279  -1.5118  -1.5118
    -1.5114  -1.5114  -1.4224  -1.4224  -1.3794  -1.3794  -1.2783  -1.2783
    -1.2341  -1.1804  -1.1737  -1.1737  -1.1624  -1.1624  -1.1553  -0.9346
    -0.9346  -0.9234  -0.9085  -0.9085  -0.8755  -0.8755  -0.7721  -0.7564
    -0.7424  -0.7003

          k = 0.0000-0.5774 0.0000 (399688 PWs)   bands (ev):

   -49.3117 -49.3117 -49.3117 -49.3117 -49.3116 -49.3116 -49.3116 -49.3116
   -49.3116 -49.3116 -49.3116 -49.3116 -49.3116 -49.3116 -49.3116 -49.3116
   -49.3116 -49.3115 -48.5264 -48.5264 -48.5263 -48.5263 -48.5262 -48.5262
   -48.5262 -48.5261 -48.5261 -48.5261 -48.5261 -48.5261 -48.5261 -48.5261
   -48.5261 -48.5260 -48.5260 -48.5260 -48.2862 -48.2862 -48.2862 -48.2862
   -48.2862 -48.2861 -48.2861 -48.2861 -48.2861 -48.2861 -48.2861 -48.2861
   -48.2861 -48.2861 -48.2861 -48.2861 -48.2861 -48.2861 -48.2690 -48.2690
   -48.2667 -48.2667 -48.2634 -48.2634 -48.2634 -48.2634 -48.2627 -48.2615
   -48.2606 -48.2606 -48.2598 -48.2598 -48.2598 -48.2598 -48.2597 -48.2597
   -48.2578 -48.2578 -48.2578 -48.2578 -48.2574 -48.2574 -48.2567 -48.2567
   -48.2567 -48.2559 -48.2555 -48.2555 -48.2555 -48.2555 -48.2527 -48.2527
   -48.2509 -48.2509 -48.1473 -48.1472 -48.1472 -48.1472 -48.1472 -48.1472
   -48.1472 -48.1472 -48.1472 -48.1472 -48.1471 -48.1471 -48.1471 -48.1471
   -48.1470 -48.1470 -48.1469 -48.1469  -4.9611  -4.9611  -4.6094  -4.6094
    -4.5456  -4.5456  -4.1940  -4.1940  -3.9069  -3.9069  -3.9069  -3.9069
    -3.7968  -3.7968  -3.5547  -3.5526  -3.4927  -3.4927  -3.4927  -3.4927
    -3.4420  -3.4420  -3.1424  -3.1339  -2.8615  -2.8615  -2.8615  -2.8615
    -2.8588  -2.8588  -2.7449  -2.7449  -2.7449  -2.7449  -2.4956  -2.4956
    -2.4328  -2.4328  -2.4328  -2.4328  -2.3928  -2.3726  -1.9277  -1.9277
    -1.9277  -1.9277  -1.8818  -1.8818  -1.8215  -1.8215  -1.8215  -1.8215
    -1.6648  -1.6648  -1.6648  -1.6648  -1.5785  -1.5606  -1.5606  -1.5263
    -1.5263  -1.5175  -1.5175  -1.4722  -1.4722  -1.4722  -1.4722  -1.3271
    -1.2919  -1.1080  -1.1080  -1.0911  -1.0911  -1.0243  -1.0243  -1.0243
    -1.0243  -0.8508  -0.8508  -0.7999  -0.7712  -0.7712  -0.7466  -0.7466
    -0.7466  -0.7466

          k = 0.2500-0.7217 0.0000 (399610 PWs)   bands (ev):

   -49.3117 -49.3117 -49.3116 -49.3116 -49.3116 -49.3116 -49.3116 -49.3116
   -49.3116 -49.3116 -49.3116 -49.3116 -49.3116 -49.3116 -49.3115 -49.3115
   -49.3115 -49.3115 -48.5265 -48.5263 -48.5262 -48.5262 -48.5262 -48.5262
   -48.5261 -48.5261 -48.5261 -48.5261 -48.5261 -48.5261 -48.5261 -48.5261
   -48.5261 -48.5261 -48.5260 -48.5260 -48.2862 -48.2862 -48.2862 -48.2862
   -48.2862 -48.2862 -48.2861 -48.2861 -48.2861 -48.2861 -48.2861 -48.2861
   -48.2861 -48.2861 -48.2861 -48.2861 -48.2860 -48.2860 -48.2693 -48.2680
   -48.2680 -48.2650 -48.2650 -48.2636 -48.2631 -48.2631 -48.2624 -48.2608
   -48.2608 -48.2608 -48.2606 -48.2602 -48.2602 -48.2593 -48.2593 -48.2587
   -48.2587 -48.2580 -48.2580 -48.2570 -48.2570 -48.2570 -48.2569 -48.2569
   -48.2567 -48.2566 -48.2557 -48.2557 -48.2556 -48.2540 -48.2540 -48.2516
   -48.2516 -48.2506 -48.1473 -48.1473 -48.1473 -48.1473 -48.1473 -48.1472
   -48.1472 -48.1472 -48.1471 -48.1471 -48.1471 -48.1470 -48.1470 -48.1470
   -48.1470 -48.1470 -48.1469 -48.1469  -5.0050  -4.8292  -4.8292  -4.5895
    -4.4137  -4.4137  -4.3018  -4.3018  -3.9515  -3.8866  -3.8866  -3.8412
    -3.7737  -3.7737  -3.6636  -3.6636  -3.5367  -3.4281  -3.4261  -3.3650
    -3.3650  -3.2401  -3.2401  -3.1333  -3.1333  -3.0163  -3.0055  -2.9045
    -2.8429  -2.8429  -2.7848  -2.7219  -2.7219  -2.5894  -2.5894  -2.4129
    -2.4101  -2.2679  -2.2394  -2.2337  -2.2337  -2.1737  -2.1737  -2.0892
    -2.0892  -1.9904  -1.9837  -1.9745  -1.9253  -1.8194  -1.8084  -1.8084
    -1.7614  -1.7614  -1.7530  -1.7530  -1.6702  -1.6702  -1.5283  -1.4879
    -1.4879  -1.4316  -1.3426  -1.3426  -1.3047  -1.3047  -1.2479  -1.2365
    -1.1972  -1.1972  -1.1948  -1.1939  -1.1939  -1.0317  -1.0317  -1.0138
    -1.0138  -0.9352  -0.8556  -0.8492  -0.8492  -0.7938  -0.7938  -0.7707
    -0.7159  -0.7159

     the Fermi energy is    -1.7212 ev

!    total energy              =   -1555.07607657 Ry
     estimated scf accuracy    <          1.1E-10 Ry
     smearing contrib. (-TS)   =      -0.01259690 Ry
     internal energy E=F+TS    =   -1555.06347967 Ry

     The total energy is F=E-TS. E is the sum of the following terms:
     one-electron contribution =  -14024.19218596 Ry
     hartree contribution      =    6846.13171414 Ry
     xc contribution           =    -359.08251866 Ry
     ewald contribution        =    5982.07951081 Ry

     convergence has been achieved in  13 iterations

     Forces acting on atoms (cartesian axes, Ry/au):

     atom    1 type  1   force =    -0.00000000   -0.00000000   -0.00043189
     atom    2 type  1   force =    -0.00000019   -0.00000011   -0.00032859
     atom    3 type  1   force =    -0.00000028   -0.00000016   -0.00013672
     atom    4 type  1   force =     0.00000000    0.00000000    0.00072232
     atom    5 type  1   force =    -0.00000023   -0.00000013    0.00209499
     atom    6 type  1   force =    -0.00000020   -0.00000011   -0.00166929
     atom    7 type  1   force =    -0.00000019   -0.00000015    0.00166928
     atom    8 type  1   force =    -0.00000023   -0.00000014   -0.00209511
     atom    9 type  1   force =    -0.00000012   -0.00000007   -0.00072216
     atom   10 type  1   force =     0.00000000    0.00000000    0.00013680
     atom   11 type  1   force =    -0.00000013   -0.00000008    0.00032878
     atom   12 type  1   force =     0.00000007    0.00000004    0.00043238
     atom   13 type  1   force =    -0.00000002    0.00000005   -0.00043233
     atom   14 type  1   force =    -0.00000007    0.00000004   -0.00032890
     atom   15 type  1   force =     0.00000000    0.00000032   -0.00013672
     atom   16 type  1   force =    -0.00000003    0.00000028    0.00072225
     atom   17 type  1   force =    -0.00000004    0.00000002    0.00209503
     atom   18 type  1   force =     0.00000000    0.00000023   -0.00166929
     atom   19 type  1   force =     0.00000003    0.00000024    0.00166928
     atom   20 type  1   force =     0.00000001   -0.00000001   -0.00209497
     atom   21 type  1   force =     0.00000000    0.00000014   -0.00072216
     atom   22 type  1   force =    -0.00000004    0.00000018    0.00013677
     atom   23 type  1   force =    -0.00000001    0.00000001    0.00032891
     atom   24 type  1   force =     0.00000000   -0.00000009    0.00043238
     atom   25 type  1   force =    -0.00000006   -0.00000000   -0.00043233
     atom   26 type  1   force =     0.00000000    0.00000021   -0.00032859
     atom   27 type  1   force =    -0.00000023    0.00000013   -0.00013662
     atom   28 type  1   force =    -0.00000026   -0.00000011    0.00072225
     atom   29 type  1   force =     0.00000000    0.00000027    0.00209499
     atom   30 type  1   force =    -0.00000019    0.00000011   -0.00166937
     atom   31 type  1   force =     0.00000000    0.00000000    0.00166929
     atom   32 type  1   force =     0.00000000    0.00000027   -0.00209511
     atom   33 type  1   force =    -0.00000023    0.00000013   -0.00072228
     atom   34 type  1   force =    -0.00000018   -0.00000006    0.00013677
     atom   35 type  1   force =     0.00000000    0.00000015    0.00032878
     atom   36 type  1   force =     0.00000001   -0.00000001    0.00043224
     atom   37 type  1   force =     0.00000003   -0.00000005   -0.00043233
     atom   38 type  1   force =     0.00000000   -0.00000008   -0.00032890
     atom   39 type  1   force =     0.00000028   -0.00000016   -0.00013672
     atom   40 type  1   force =     0.00000023   -0.00000017    0.00072225
     atom   41 type  1   force =     0.00000000   -0.00000004    0.00209503
     atom   42 type  1   force =     0.00000020   -0.00000011   -0.00166929
     atom   43 type  1   force =    -0.00000000   -0.00000000    0.00166949
     atom   44 type  1   force =     0.00000000    0.00000001   -0.00209497
     atom   45 type  1   force =     0.00000012   -0.00000007   -0.00072216
     atom   46 type  1   force =     0.00000014   -0.00000012    0.00013677
     atom   47 type  1   force =     0.00000000   -0.00000001    0.00032891
     atom   48 type  1   force =    -0.00000007    0.00000004    0.00043238
     atom   49 type  1   force =    -0.00000000   -0.00000000   -0.00043253
     atom   50 type  1   force =     0.00000007    0.00000004   -0.00032890
     atom   51 type  1   force =     0.00000015    0.00000009   -0.00013674
     atom   52 type  1   force =     0.00000000    0.00000000    0.00072220
     atom   53 type  1   force =     0.00000004    0.00000002    0.00209503
     atom   54 type  1   force =     0.00000018    0.00000010   -0.00166937
     atom   55 type  1   force =    -0.00000003    0.00000024    0.00166928
     atom   56 type  1   force =    -0.00000001   -0.00000001   -0.00209497
     atom   57 type  1   force =     0.00000006    0.00000003   -0.00072225
     atom   58 type  1   force =     0.00000000    0.00000000    0.00013678
     atom   59 type  1   force =     0.00000001    0.00000001    0.00032891
     atom   60 type  1   force =    -0.00000005   -0.00000003    0.00043229
     atom   61 type  1   force =     0.00000006   -0.00000000   -0.00043233
     atom   62 type  1   force =     0.00000002   -0.00000001   -0.00032883
     atom   63 type  1   force =     0.00000000   -0.00000018   -0.00013674
     atom   64 type  1   force =     0.00000026   -0.00000011    0.00072225
     atom   65 type  1   force =    -0.00000003    0.00000002    0.00209503
     atom   66 type  1   force =     0.00000000   -0.00000020   -0.00166937
     atom   67 type  1   force =    -0.00000022   -0.00000009    0.00166928
     atom   68 type  1   force =    -0.00000006    0.00000003   -0.00209528
     atom   69 type  1   force =     0.00000000   -0.00000007   -0.00072225
     atom   70 type  1   force =     0.00000018   -0.00000006    0.00013677
     atom   71 type  1   force =    -0.00000005    0.00000003    0.00032890
     atom   72 type  1   force =     0.00000000    0.00000006    0.00043229
     atom   73 type  1   force =    -0.00000003   -0.00000005   -0.00043233
     atom   74 type  1   force =     0.00000019   -0.00000011   -0.00032859
     atom   75 type  1   force =     0.00000000   -0.00000027   -0.00013662
     atom   76 type  1   force =    -0.00000023   -0.00000017    0.00072225
     atom   77 type  1   force =     0.00000023   -0.00000013    0.00209499
     atom   78 type  1   force =     0.00000000   -0.00000022   -0.00166937
     atom   79 type  1   force =     0.00000019   -0.00000015    0.00166928
     atom   80 type  1   force =     0.00000023   -0.00000014   -0.00209511
     atom   81 type  1   force =     0.00000000   -0.00000026   -0.00072228
     atom   82 type  1   force =    -0.00000014   -0.00000012    0.00013677
     atom   83 type  1   force =     0.00000013   -0.00000008    0.00032878
     atom   84 type  1   force =     0.00000000    0.00000001    0.00043224
     atom   85 type  1   force =     0.00000002    0.00000005   -0.00043233
     atom   86 type  1   force =     0.00000000    0.00000002   -0.00032883
     atom   87 type  1   force =    -0.00000015    0.00000009   -0.00013674
     atom   88 type  1   force =     0.00000003    0.00000028    0.00072225
     atom   89 type  1   force =     0.00000000   -0.00000003    0.00209503
     atom   90 type  1   force =    -0.00000018    0.00000010   -0.00166937
     atom   91 type  1   force =     0.00000000    0.00000000    0.00166900
     atom   92 type  1   force =     0.00000000   -0.00000006   -0.00209528
     atom   93 type  1   force =    -0.00000006    0.00000003   -0.00072225
     atom   94 type  1   force =     0.00000004    0.00000018    0.00013677
     atom   95 type  1   force =     0.00000000   -0.00000005    0.00032890
     atom   96 type  1   force =     0.00000005   -0.00000003    0.00043229
     atom   97 type  1   force =     0.00000000    0.00000000   -0.00043233
     atom   98 type  1   force =    -0.00000002   -0.00000001   -0.00032883
     atom   99 type  1   force =     0.00000023    0.00000013   -0.00013662
     atom  100 type  1   force =     0.00000000    0.00000000    0.00072220
     atom  101 type  1   force =     0.00000003    0.00000002    0.00209503
     atom  102 type  1   force =     0.00000019    0.00000011   -0.00166937
     atom  103 type  1   force =     0.00000022   -0.00000009    0.00166928
     atom  104 type  1   force =     0.00000006    0.00000003   -0.00209528
     atom  105 type  1   force =     0.00000023    0.00000013   -0.00072228
     atom  106 type  1   force =    -0.00000000   -0.00000000    0.00013660
     atom  107 type  1   force =     0.00000005    0.00000003    0.00032890
     atom  108 type  1   force =    -0.00000001   -0.00000001    0.00043224

     Total force =     0.012008     Total SCF correction =     0.000016


     Computing stress (Cartesian axis) and pressure

          total   stress  (Ry/bohr**3)                   (kbar)     P=       -4.67
  -0.00003512  -0.00000000   0.00000000           -5.17       -0.00        0.00
  -0.00000000  -0.00003512   0.00000000           -0.00       -5.17        0.00
  -0.00000000  -0.00000000  -0.00002496           -0.00       -0.00       -3.67

     Energy error            =      3.4E-04 Ry
     Gradient error          =      2.1E-03 Ry/Bohr

     number of scf cycles    =  12
     number of bfgs steps    =  11

     energy             old  =   -1555.0757406815 Ry
     energy             new  =   -1555.0760765719 Ry

     CASE: energy            _new < energy            _old

     new trust radius        =       0.0090501726 bohr
     new conv_thr            =       0.0000000002 Ry


ATOMIC_POSITIONS (angstrom)
Li              -0.0000000000       -0.0000000000       14.9885983381
Li               2.4319660263        1.4040962399       16.1535204158
Li               4.8639284024        2.8081903725       16.8776456689
Li               7.2958834680        4.2122802843       17.9233321736
Li               2.4319691250        1.4040980290       18.9858868891
Li               4.8639300286        2.8081913114       19.9524785652
Li               2.4319680516        4.2122846419       20.9688071445
Li               2.4319693050        1.4040981329       21.9353995522
Li               4.8639291766        2.8081908195       22.9979529373
Li               7.2958834680        4.2122802843       24.0436380887
Li               2.4319662929        1.4040963939       24.7677622748
Li               4.8639258104        2.8081888760       25.9326739084
Li               2.4319654260        4.2122825295       14.9886077167
Li               4.8639247462        5.6163723069       16.1535269704
Li               7.2958834680        7.0204601078       16.8776456689
Li               9.7278456101        8.4245528298       17.9233292560
Li               4.8639259039        5.6163716385       18.9858883011
Li               7.2958834680        7.0204582300       19.9524785652
Li               4.8639219859        8.4245524180       20.9688071445
Li               4.8639258252        5.6163716840       21.9353962463
Li               7.2958834680        7.0204592138       22.9979529373
Li               9.7278446607        8.4245544798       24.0436394018
Li               4.8639256611        5.6163717787       24.7677565265
Li               7.2958834680        7.0204631009       25.9326739084
Li               4.8639225025        8.4245557480       14.9886077167
Li               7.2958834680        9.8286483729       16.1535204158
Li               9.7278491419       11.2327448163       16.8776415157
Li              12.1598129750       12.6368438682       17.9233292560
Li               7.2958834680        9.8286447948       18.9858868891
Li               9.7278497632       11.2327444576       19.9524790488
Li               7.2958834680       12.6368408528       20.9688072241
Li               7.2958834680        9.8286445869       21.9353995522
Li               9.7278494816       11.2327446202       22.9979568609
Li              12.1598110714       12.6368438655       24.0436394018
Li               7.2958834680        9.8286480651       24.7677622748
Li               9.7278474681       11.2327457827       25.9326786058
Li               4.8639263914        0.0000025753       14.9886077167
Li               7.2958834680        1.4040962388       16.1535269704
Li               9.7278385337        2.8081903725       16.8776456689
Li              12.1597995712        4.2122850076       17.9233292560
Li               7.2958834680        1.4040975757       18.9858883011
Li               9.7278369075        2.8081913114       19.9524785652
Li               7.2958834680        4.2122802843       20.9688068607
Li               7.2958834680        1.4040974848       21.9353962463
Li               9.7278377595        2.8081908195       22.9979529373
Li              12.1598005254        4.2122833603       24.0436394018
Li               7.2958834680        1.4040972954       24.7677565265
Li               9.7278411257        2.8081888760       25.9326739084
Li               7.2958834680        4.2122802843       14.9886112783
Li               9.7278421899        5.6163723069       16.1535269704
Li              12.1598033601        7.0204657432       16.8776421451
Li              14.5917669361        8.4245605685       17.9233285640
Li               9.7278410322        5.6163716385       18.9858883011
Li              12.1598017601        7.0204648194       19.9524767543
Li               9.7278449502        8.4245524180       20.9688071445
Li               9.7278411109        5.6163716840       21.9353962463
Li              12.1598026905        7.0204653566       22.9979539742
Li              14.5917669361        8.4245605685       24.0436374285
Li               9.7278412750        5.6163717787       24.7677565265
Li              12.1598039677        7.0204660940       25.9326760982
Li               9.7278444336        8.4245557480       14.9886077167
Li              12.1598072858        9.8286531273       16.1535227314
Li              14.5917669361       11.2327502191       16.8776421451
Li              17.0237208972       12.6368438682       17.9233292560
Li              12.1598080040        9.8286527127       18.9858856535
Li              14.5917669361       11.2327520666       19.9524767543
Li              12.1598130017       12.6368446457       20.9688071445
Li              12.1598077363        9.8286528672       21.9353987847
Li              14.5917669361       11.2327509923       22.9979539742
Li              17.0237228008       12.6368438655       24.0436394018
Li              12.1598067645        9.8286534283       24.7677588665
Li              14.5917669361       11.2327495175       25.9326760982
Li               9.7278405447        0.0000025753       14.9886077167
Li              12.1598009098        1.4040962399       16.1535204158
Li              14.5917669361        2.8081920729       16.8776415157
Li               2.4319673649        4.2122850076       17.9233292560
Li              12.1597978111        1.4040980290       18.9858868891
Li              14.5917669361        2.8081927903       19.9524790488
Li              12.1597988845        4.2122846419       20.9688071445
Li              12.1597976311        1.4040981329       21.9353995522
Li              14.5917669361        2.8081924652       22.9979568609
Li              17.0237333468        4.2122833603       24.0436394018
Li              12.1598006432        1.4040963939       24.7677622748
Li              14.5917669361        2.8081901402       25.9326786058
Li              12.1598015101        4.2122825295       14.9886077167
Li              14.5917669361        5.6163754509       16.1535227314
Li              17.0237305121        7.0204657432       16.8776421451
Li              19.4556882621        8.4245528298       17.9233292560
Li              14.5917669361        5.6163762802       18.9858856535
Li              17.0237321121        7.0204648194       19.9524767543
Li              14.5917669361        8.4245605685       20.9688085593
Li              14.5917669361        5.6163759712       21.9353987847
Li              17.0237311817        7.0204653566       22.9979539742
Li              19.4556892115        8.4245544798       24.0436394018
Li              14.5917669361        5.6163748490       24.7677588665
Li              17.0237299045        7.0204660940       25.9326760982
Li              14.5917669361        8.4245605685       14.9886076887
Li              17.0237265864        9.8286531273       16.1535227314
Li              19.4556847303       11.2327448163       16.8776415157
Li              21.8876504041       12.6368408528       17.9233262101
Li              17.0237258682        9.8286527127       18.9858856535
Li              19.4556841090       11.2327444576       19.9524790488
Li              17.0237208705       12.6368446457       20.9688071445
Li              17.0237261359        9.8286528672       21.9353987847
Li              19.4556843906       11.2327446202       22.9979568609
Li              21.8876504041       12.6368408528       24.0436453302
Li              17.0237271077        9.8286534283       24.7677588665
Li              19.4556864041       11.2327457827       25.9326786058



     Writing config-only to output data dir /scratch/deepanthpcu/ml/tmp/Lislab/Lislab.save/ :
     XML data file
     NEW-OLD atomic charge density approx. for the potential

     negative rho (up, down):  1.307E-06 0.000E+00

     total cpu time spent up to now is     3034.4 secs

     per-process dynamical memory:   119.1 Mb

     Self-consistent Calculation

     iteration #  1     ecut=    60.00 Ry     beta= 0.30
     Davidson diagonalization with overlap
     ethr =  1.00E-06,  avg # of iterations =  3.0

     Threshold (ethr) on eigenvalues was too large:
     Diagonalizing with lowered threshold

     Davidson diagonalization with overlap
     ethr =  7.69E-09,  avg # of iterations =  5.0

     negative rho (up, down):  3.020E-07 0.000E+00

     total cpu time spent up to now is     3071.0 secs

     total energy              =   -1555.07657744 Ry
     estimated scf accuracy    <       0.00003317 Ry

     iteration #  2     ecut=    60.00 Ry     beta= 0.30
     Davidson diagonalization with overlap
     ethr =  1.02E-08,  avg # of iterations =  5.5

     negative rho (up, down):  3.821E-07 0.000E+00

     total cpu time spent up to now is     3086.7 secs

     total energy              =   -1555.07656861 Ry
     estimated scf accuracy    <       0.00030371 Ry

     iteration #  3     ecut=    60.00 Ry     beta= 0.30
     Davidson diagonalization with overlap
     ethr =  1.02E-08,  avg # of iterations =  4.5

     negative rho (up, down):  9.099E-08 0.000E+00

     total cpu time spent up to now is     3101.4 secs

     total energy              =   -1555.07658743 Ry
     estimated scf accuracy    <       0.00000319 Ry

     iteration #  4     ecut=    60.00 Ry     beta= 0.30
     Davidson diagonalization with overlap
     ethr =  9.86E-10,  avg # of iterations =  4.8

     negative rho (up, down):  4.548E-07 0.000E+00

     total cpu time spent up to now is     3115.6 secs

     total energy              =   -1555.07658695 Ry
     estimated scf accuracy    <       0.00003017 Ry

     iteration #  5     ecut=    60.00 Ry     beta= 0.30
     Davidson diagonalization with overlap
     ethr =  9.86E-10,  avg # of iterations =  2.5

     total cpu time spent up to now is     3128.5 secs

     total energy              =   -1555.07658779 Ry
     estimated scf accuracy    <       0.00000207 Ry

     iteration #  6     ecut=    60.00 Ry     beta= 0.30
     Davidson diagonalization with overlap
     ethr =  6.39E-10,  avg # of iterations =  2.0

     total cpu time spent up to now is     3141.4 secs

     total energy              =   -1555.07658785 Ry
     estimated scf accuracy    <       0.00000047 Ry

     iteration #  7     ecut=    60.00 Ry     beta= 0.30
     Davidson diagonalization with overlap
     ethr =  1.46E-10,  avg # of iterations =  2.0

     total cpu time spent up to now is     3154.5 secs

     total energy              =   -1555.07658788 Ry
     estimated scf accuracy    <       0.00000017 Ry

     iteration #  8     ecut=    60.00 Ry     beta= 0.30
     Davidson diagonalization with overlap
     ethr =  5.37E-11,  avg # of iterations =  2.0

     total cpu time spent up to now is     3167.3 secs

     total energy              =   -1555.07658794 Ry
     estimated scf accuracy    <       0.00000004 Ry

     iteration #  9     ecut=    60.00 Ry     beta= 0.30
     Davidson diagonalization with overlap
     ethr =  1.35E-11,  avg # of iterations =  5.0

     total cpu time spent up to now is     3182.8 secs

     total energy              =   -1555.07658795 Ry
     estimated scf accuracy    <       0.00000016 Ry

     iteration # 10     ecut=    60.00 Ry     beta= 0.30
     Davidson diagonalization with overlap
     ethr =  1.35E-11,  avg # of iterations =  3.0

     total cpu time spent up to now is     3196.7 secs

     total energy              =   -1555.07658796 Ry
     estimated scf accuracy    <          1.1E-09 Ry

     iteration # 11     ecut=    60.00 Ry     beta= 0.30
     Davidson diagonalization with overlap
     ethr =  3.26E-13,  avg # of iterations =  5.2

     total cpu time spent up to now is     3213.6 secs

     total energy              =   -1555.07658797 Ry
     estimated scf accuracy    <          6.1E-09 Ry

     iteration # 12     ecut=    60.00 Ry     beta= 0.30
     Davidson diagonalization with overlap
     ethr =  3.26E-13,  avg # of iterations =  3.2

     total cpu time spent up to now is     3227.5 secs

     total energy              =   -1555.07658797 Ry
     estimated scf accuracy    <          8.6E-10 Ry

     iteration # 13     ecut=    60.00 Ry     beta= 0.30
     Davidson diagonalization with overlap
     ethr =  2.65E-13,  avg # of iterations =  4.2

     total cpu time spent up to now is     3242.0 secs

     total energy              =   -1555.07658798 Ry
     estimated scf accuracy    <          2.4E-10 Ry

     iteration # 14     ecut=    60.00 Ry     beta= 0.30
     Davidson diagonalization with overlap
     ethr =  1.00E-13,  avg # of iterations =  3.0

     total cpu time spent up to now is     3255.5 secs

     total energy              =   -1555.07658798 Ry
     estimated scf accuracy    <          2.3E-10 Ry

     iteration # 15     ecut=    60.00 Ry     beta= 0.30
     Davidson diagonalization with overlap
     ethr =  1.00E-13,  avg # of iterations =  3.2

     total cpu time spent up to now is     3268.9 secs

     total energy              =   -1555.07658798 Ry
     estimated scf accuracy    <          2.0E-09 Ry

     iteration # 16     ecut=    60.00 Ry     beta= 0.30
     Davidson diagonalization with overlap
     ethr =  1.00E-13,  avg # of iterations =  1.8

     total cpu time spent up to now is     3281.3 secs

     End of self-consistent calculation

          k = 0.0000 0.0000 0.0000 (399281 PWs)   bands (ev):

   -49.3112 -49.3112 -49.3112 -49.3112 -49.3112 -49.3111 -49.3111 -49.3111
   -49.3111 -49.3111 -49.3111 -49.3111 -49.3110 -49.3110 -49.3110 -49.3110
   -49.3110 -49.3110 -48.5249 -48.5245 -48.5245 -48.5244 -48.5244 -48.5244
   -48.5244 -48.5244 -48.5244 -48.5244 -48.5244 -48.5244 -48.5244 -48.5244
   -48.5244 -48.5244 -48.5244 -48.5244 -48.2870 -48.2870 -48.2870 -48.2870
   -48.2870 -48.2869 -48.2869 -48.2869 -48.2869 -48.2869 -48.2869 -48.2868
   -48.2868 -48.2868 -48.2868 -48.2868 -48.2868 -48.2867 -48.2689 -48.2647
   -48.2647 -48.2647 -48.2647 -48.2647 -48.2647 -48.2614 -48.2614 -48.2603
   -48.2589 -48.2589 -48.2589 -48.2589 -48.2589 -48.2589 -48.2570 -48.2570
   -48.2568 -48.2568 -48.2568 -48.2568 -48.2563 -48.2563 -48.2563 -48.2563
   -48.2563 -48.2563 -48.2551 -48.2517 -48.2517 -48.2517 -48.2517 -48.2517
   -48.2517 -48.2477 -48.1465 -48.1465 -48.1465 -48.1465 -48.1463 -48.1463
   -48.1463 -48.1463 -48.1463 -48.1463 -48.1462 -48.1461 -48.1461 -48.1461
   -48.1461 -48.1461 -48.1461 -48.1456  -5.1360  -4.7201  -4.4325  -4.4325
    -4.4325  -4.4325  -4.4325  -4.4325  -4.0169  -4.0168  -4.0168  -4.0168
    -4.0168  -4.0168  -3.9738  -3.2652  -3.2652  -3.2652  -3.2652  -3.2652
    -3.2652  -3.0479  -3.0479  -3.0479  -3.0479  -3.0470  -3.0470  -3.0416
    -2.6329  -2.6329  -2.6329  -2.6329  -2.6119  -2.6119  -2.3458  -2.3458
    -2.3458  -2.3458  -2.3458  -2.3458  -2.2970  -2.2970  -2.2970  -2.2970
    -2.2970  -2.2970  -2.0588  -1.9037  -1.9037  -1.9037  -1.9037  -1.9037
    -1.9037  -1.8721  -1.8721  -1.8721  -1.8721  -1.8239  -1.8239  -1.4380
    -1.4380  -1.4380  -1.4380  -1.4380  -1.4380  -1.1391  -1.1391  -1.1391
    -1.1391  -1.1391  -1.1391  -1.0603  -1.0603  -1.0603  -1.0603  -1.0603
    -1.0603  -1.0090  -1.0090  -1.0090  -1.0090  -0.9569  -0.6679  -0.6679
    -0.5686  -0.5686

          k = 0.0000 0.2887 0.0000 (399667 PWs)   bands (ev):

   -49.3113 -49.3113 -49.3113 -49.3113 -49.3112 -49.3112 -49.3112 -49.3112
   -49.3112 -49.3112 -49.3112 -49.3112 -49.3111 -49.3111 -49.3111 -49.3111
   -49.3111 -49.3111 -48.5249 -48.5247 -48.5246 -48.5246 -48.5245 -48.5245
   -48.5245 -48.5245 -48.5245 -48.5245 -48.5245 -48.5245 -48.5245 -48.5245
   -48.5244 -48.5244 -48.5244 -48.5244 -48.2871 -48.2870 -48.2870 -48.2870
   -48.2870 -48.2870 -48.2870 -48.2869 -48.2869 -48.2869 -48.2869 -48.2869
   -48.2869 -48.2869 -48.2869 -48.2869 -48.2868 -48.2868 -48.2688 -48.2663
   -48.2653 -48.2653 -48.2638 -48.2638 -48.2631 -48.2618 -48.2618 -48.2603
   -48.2593 -48.2593 -48.2588 -48.2588 -48.2587 -48.2587 -48.2579 -48.2579
   -48.2569 -48.2569 -48.2565 -48.2565 -48.2563 -48.2562 -48.2562 -48.2561
   -48.2555 -48.2555 -48.2553 -48.2533 -48.2527 -48.2527 -48.2513 -48.2513
   -48.2505 -48.2483 -48.1465 -48.1465 -48.1465 -48.1465 -48.1464 -48.1464
   -48.1464 -48.1464 -48.1463 -48.1463 -48.1463 -48.1462 -48.1462 -48.1461
   -48.1461 -48.1461 -48.1461 -48.1460  -5.0921  -4.7406  -4.6763  -4.5647
    -4.5647  -4.3247  -4.2127  -4.2127  -4.1489  -4.1489  -4.0362  -3.9295
    -3.7973  -3.7973  -3.6216  -3.5744  -3.5158  -3.5158  -3.3974  -3.3974
    -3.1071  -3.1071  -3.0461  -3.0461  -2.9957  -2.9920  -2.9920  -2.9801
    -2.8753  -2.6343  -2.6343  -2.6307  -2.5994  -2.5994  -2.5530  -2.4958
    -2.4958  -2.4510  -2.4510  -2.3367  -2.3367  -2.2201  -2.2201  -2.0895
    -2.0895  -2.0744  -2.0744  -2.0141  -1.9561  -1.9449  -1.9449  -1.8141
    -1.8141  -1.7920  -1.6749  -1.5893  -1.5264  -1.5264  -1.5123  -1.5123
    -1.5108  -1.5108  -1.4215  -1.4215  -1.3788  -1.3788  -1.2774  -1.2774
    -1.2336  -1.1790  -1.1745  -1.1745  -1.1619  -1.1619  -1.1560  -0.9341
    -0.9341  -0.9196  -0.9071  -0.9071  -0.8753  -0.8753  -0.7716  -0.7546
    -0.7409  -0.6987

          k = 0.0000-0.5774 0.0000 (399688 PWs)   bands (ev):

   -49.3113 -49.3113 -49.3113 -49.3113 -49.3112 -49.3112 -49.3112 -49.3112
   -49.3112 -49.3112 -49.3111 -49.3111 -49.3111 -49.3111 -49.3111 -49.3111
   -49.3111 -49.3111 -48.5248 -48.5248 -48.5247 -48.5247 -48.5246 -48.5246
   -48.5245 -48.5245 -48.5245 -48.5245 -48.5245 -48.5245 -48.5244 -48.5244
   -48.5244 -48.5244 -48.5244 -48.5244 -48.2870 -48.2870 -48.2870 -48.2870
   -48.2870 -48.2870 -48.2869 -48.2869 -48.2869 -48.2869 -48.2869 -48.2869
   -48.2869 -48.2869 -48.2869 -48.2869 -48.2869 -48.2869 -48.2679 -48.2679
   -48.2656 -48.2656 -48.2627 -48.2627 -48.2627 -48.2627 -48.2622 -48.2598
   -48.2598 -48.2598 -48.2589 -48.2589 -48.2586 -48.2586 -48.2586 -48.2586
   -48.2566 -48.2566 -48.2566 -48.2566 -48.2562 -48.2562 -48.2558 -48.2555
   -48.2555 -48.2541 -48.2540 -48.2540 -48.2540 -48.2540 -48.2512 -48.2512
   -48.2493 -48.2493 -48.1465 -48.1464 -48.1464 -48.1464 -48.1464 -48.1464
   -48.1463 -48.1463 -48.1463 -48.1463 -48.1463 -48.1463 -48.1463 -48.1462
   -48.1461 -48.1461 -48.1461 -48.1461  -4.9604  -4.9604  -4.6088  -4.6088
    -4.5445  -4.5445  -4.1929  -4.1929  -3.9063  -3.9063  -3.9063  -3.9063
    -3.7962  -3.7962  -3.5539  -3.5522  -3.4915  -3.4915  -3.4915  -3.4915
    -3.4416  -3.4416  -3.1413  -3.1327  -2.8610  -2.8610  -2.8610  -2.8610
    -2.8581  -2.8581  -2.7445  -2.7445  -2.7445  -2.7445  -2.4949  -2.4949
    -2.4316  -2.4316  -2.4316  -2.4316  -2.3929  -2.3720  -1.9272  -1.9272
    -1.9272  -1.9272  -1.8822  -1.8822  -1.8211  -1.8211  -1.8211  -1.8211
    -1.6637  -1.6637  -1.6637  -1.6637  -1.5764  -1.5604  -1.5604  -1.5258
    -1.5257  -1.5174  -1.5174  -1.4707  -1.4707  -1.4707  -1.4707  -1.3279
    -1.2914  -1.1071  -1.1071  -1.0892  -1.0892  -1.0247  -1.0247  -1.0247
    -1.0247  -0.8481  -0.8481  -0.7984  -0.7696  -0.7696  -0.7463  -0.7463
    -0.7463  -0.7463

          k = 0.2500-0.7217 0.0000 (399610 PWs)   bands (ev):

   -49.3113 -49.3113 -49.3112 -49.3112 -49.3112 -49.3112 -49.3112 -49.3112
   -49.3112 -49.3112 -49.3112 -49.3112 -49.3111 -49.3111 -49.3111 -49.3111
   -49.3111 -49.3111 -48.5248 -48.5246 -48.5246 -48.5246 -48.5246 -48.5246
   -48.5245 -48.5245 -48.5245 -48.5245 -48.5245 -48.5245 -48.5245 -48.5245
   -48.5244 -48.5244 -48.5244 -48.5244 -48.2870 -48.2870 -48.2870 -48.2870
   -48.2870 -48.2870 -48.2870 -48.2869 -48.2869 -48.2869 -48.2869 -48.2869
   -48.2869 -48.2869 -48.2869 -48.2869 -48.2868 -48.2868 -48.2682 -48.2669
   -48.2669 -48.2640 -48.2640 -48.2628 -48.2624 -48.2624 -48.2620 -48.2600
   -48.2594 -48.2594 -48.2593 -48.2593 -48.2590 -48.2584 -48.2584 -48.2578
   -48.2572 -48.2567 -48.2567 -48.2562 -48.2561 -48.2561 -48.2557 -48.2557
   -48.2554 -48.2549 -48.2541 -48.2540 -48.2540 -48.2525 -48.2525 -48.2501
   -48.2501 -48.2490 -48.1465 -48.1465 -48.1464 -48.1464 -48.1464 -48.1464
   -48.1463 -48.1463 -48.1463 -48.1463 -48.1462 -48.1462 -48.1462 -48.1462
   -48.1462 -48.1461 -48.1461 -48.1461  -5.0043  -4.8285  -4.8285  -4.5884
    -4.4126  -4.4126  -4.3012  -4.3012  -3.9509  -3.8855  -3.8855  -3.8406
    -3.7731  -3.7731  -3.6631  -3.6631  -3.5355  -3.4273  -3.4257  -3.3639
    -3.3639  -3.2395  -3.2395  -3.1329  -3.1329  -3.0151  -3.0042  -2.9039
    -2.8417  -2.8417  -2.7845  -2.7212  -2.7212  -2.5890  -2.5890  -2.4122
    -2.4095  -2.2680  -2.2388  -2.2330  -2.2330  -2.1730  -2.1730  -2.0890
    -2.0890  -1.9892  -1.9826  -1.9739  -1.9258  -1.8182  -1.8073  -1.8072
    -1.7606  -1.7606  -1.7534  -1.7534  -1.6686  -1.6686  -1.5270  -1.4874
    -1.4874  -1.4296  -1.3414  -1.3414  -1.3044  -1.3044  -1.2481  -1.2355
    -1.1966  -1.1966  -1.1951  -1.1941  -1.1941  -1.0321  -1.0320  -1.0123
    -1.0123  -0.9361  -0.8519  -0.8485  -0.8485  -0.7912  -0.7912  -0.7704
    -0.7142  -0.7142

     the Fermi energy is    -1.7206 ev

!    total energy              =   -1555.07658799 Ry
     estimated scf accuracy    <          4.8E-11 Ry
     smearing contrib. (-TS)   =      -0.01252654 Ry
     internal energy E=F+TS    =   -1555.06406145 Ry

     The total energy is F=E-TS. E is the sum of the following terms:
     one-electron contribution =  -14024.60720297 Ry
     hartree contribution      =    6846.34768278 Ry
     xc contribution           =    -359.08218056 Ry
     ewald contribution        =    5982.27763930 Ry

     convergence has been achieved in  16 iterations

     Forces acting on atoms (cartesian axes, Ry/au):

     atom    1 type  1   force =    -0.00000000   -0.00000000   -0.00040892
     atom    2 type  1   force =    -0.00000015   -0.00000009   -0.00033092
     atom    3 type  1   force =    -0.00000022   -0.00000013   -0.00010161
     atom    4 type  1   force =     0.00000000    0.00000000    0.00079416
     atom    5 type  1   force =    -0.00000021   -0.00000012    0.00177839
     atom    6 type  1   force =    -0.00000019   -0.00000011   -0.00153293
     atom    7 type  1   force =    -0.00000021   -0.00000012    0.00153289
     atom    8 type  1   force =    -0.00000024   -0.00000014   -0.00177845
     atom    9 type  1   force =    -0.00000017   -0.00000010   -0.00079407
     atom   10 type  1   force =     0.00000000    0.00000000    0.00010170
     atom   11 type  1   force =    -0.00000015   -0.00000009    0.00033107
     atom   12 type  1   force =     0.00000006    0.00000003    0.00040934
     atom   13 type  1   force =    -0.00000002    0.00000005   -0.00040929
     atom   14 type  1   force =    -0.00000005    0.00000003   -0.00033116
     atom   15 type  1   force =     0.00000000    0.00000025   -0.00010161
     atom   16 type  1   force =    -0.00000002    0.00000025    0.00079416
     atom   17 type  1   force =    -0.00000005    0.00000003    0.00177838
     atom   18 type  1   force =     0.00000000    0.00000022   -0.00153293
     atom   19 type  1   force =     0.00000000    0.00000024    0.00153289
     atom   20 type  1   force =    -0.00000005    0.00000003   -0.00177838
     atom   21 type  1   force =     0.00000000    0.00000020   -0.00079407
     atom   22 type  1   force =    -0.00000001    0.00000021    0.00010164
     atom   23 type  1   force =    -0.00000005    0.00000003    0.00033121
     atom   24 type  1   force =     0.00000000   -0.00000006    0.00040934
     atom   25 type  1   force =    -0.00000005   -0.00000001   -0.00040929
     atom   26 type  1   force =     0.00000000    0.00000017   -0.00033092
     atom   27 type  1   force =    -0.00000018    0.00000011   -0.00010151
     atom   28 type  1   force =    -0.00000022   -0.00000011    0.00079416
     atom   29 type  1   force =     0.00000000    0.00000024    0.00177839
     atom   30 type  1   force =    -0.00000016    0.00000009   -0.00153292
     atom   31 type  1   force =     0.00000000    0.00000000    0.00153295
     atom   32 type  1   force =     0.00000000    0.00000028   -0.00177845
     atom   33 type  1   force =    -0.00000022    0.00000013   -0.00079417
     atom   34 type  1   force =    -0.00000019   -0.00000009    0.00010164
     atom   35 type  1   force =     0.00000000    0.00000017    0.00033107
     atom   36 type  1   force =    -0.00000002    0.00000001    0.00040915
     atom   37 type  1   force =     0.00000003   -0.00000004   -0.00040929
     atom   38 type  1   force =     0.00000000   -0.00000005   -0.00033116
     atom   39 type  1   force =     0.00000022   -0.00000013   -0.00010161
     atom   40 type  1   force =     0.00000021   -0.00000014    0.00079416
     atom   41 type  1   force =     0.00000000   -0.00000006    0.00177838
     atom   42 type  1   force =     0.00000019   -0.00000011   -0.00153293
     atom   43 type  1   force =     0.00000000    0.00000000    0.00153303
     atom   44 type  1   force =     0.00000000   -0.00000005   -0.00177838
     atom   45 type  1   force =     0.00000017   -0.00000010   -0.00079407
     atom   46 type  1   force =     0.00000017   -0.00000012    0.00010164
     atom   47 type  1   force =     0.00000000   -0.00000006    0.00033121
     atom   48 type  1   force =    -0.00000006    0.00000003    0.00040934
     atom   49 type  1   force =    -0.00000000   -0.00000000   -0.00040941
     atom   50 type  1   force =     0.00000005    0.00000003   -0.00033116
     atom   51 type  1   force =     0.00000013    0.00000007   -0.00010161
     atom   52 type  1   force =     0.00000000    0.00000000    0.00079413
     atom   53 type  1   force =     0.00000005    0.00000003    0.00177838
     atom   54 type  1   force =     0.00000018    0.00000010   -0.00153294
     atom   55 type  1   force =    -0.00000000    0.00000024    0.00153289
     atom   56 type  1   force =     0.00000005    0.00000003   -0.00177838
     atom   57 type  1   force =     0.00000008    0.00000005   -0.00079416
     atom   58 type  1   force =    -0.00000000   -0.00000000    0.00010165
     atom   59 type  1   force =     0.00000005    0.00000003    0.00033121
     atom   60 type  1   force =    -0.00000004   -0.00000002    0.00040921
     atom   61 type  1   force =     0.00000005   -0.00000001   -0.00040929
     atom   62 type  1   force =     0.00000001   -0.00000001   -0.00033112
     atom   63 type  1   force =     0.00000000   -0.00000015   -0.00010161
     atom   64 type  1   force =     0.00000022   -0.00000011    0.00079416
     atom   65 type  1   force =    -0.00000002    0.00000001    0.00177843
     atom   66 type  1   force =     0.00000000   -0.00000021   -0.00153294
     atom   67 type  1   force =    -0.00000021   -0.00000012    0.00153289
     atom   68 type  1   force =    -0.00000005    0.00000003   -0.00177861
     atom   69 type  1   force =     0.00000000   -0.00000009   -0.00079416
     atom   70 type  1   force =     0.00000019   -0.00000009    0.00010164
     atom   71 type  1   force =    -0.00000004    0.00000002    0.00033113
     atom   72 type  1   force =     0.00000000    0.00000005    0.00040921
     atom   73 type  1   force =    -0.00000003   -0.00000004   -0.00040929
     atom   74 type  1   force =     0.00000015   -0.00000009   -0.00033092
     atom   75 type  1   force =     0.00000000   -0.00000021   -0.00010151
     atom   76 type  1   force =    -0.00000021   -0.00000014    0.00079416
     atom   77 type  1   force =     0.00000021   -0.00000012    0.00177839
     atom   78 type  1   force =     0.00000000   -0.00000019   -0.00153292
     atom   79 type  1   force =     0.00000021   -0.00000012    0.00153289
     atom   80 type  1   force =     0.00000024   -0.00000014   -0.00177845
     atom   81 type  1   force =     0.00000000   -0.00000025   -0.00079417
     atom   82 type  1   force =    -0.00000017   -0.00000012    0.00010164
     atom   83 type  1   force =     0.00000015   -0.00000009    0.00033107
     atom   84 type  1   force =     0.00000000   -0.00000002    0.00040915
     atom   85 type  1   force =     0.00000002    0.00000005   -0.00040929
     atom   86 type  1   force =     0.00000000    0.00000001   -0.00033112
     atom   87 type  1   force =    -0.00000013    0.00000007   -0.00010161
     atom   88 type  1   force =     0.00000002    0.00000025    0.00079416
     atom   89 type  1   force =     0.00000000   -0.00000002    0.00177843
     atom   90 type  1   force =    -0.00000018    0.00000010   -0.00153294
     atom   91 type  1   force =     0.00000000    0.00000000    0.00153269
     atom   92 type  1   force =     0.00000000   -0.00000006   -0.00177861
     atom   93 type  1   force =    -0.00000008    0.00000005   -0.00079416
     atom   94 type  1   force =     0.00000001    0.00000021    0.00010164
     atom   95 type  1   force =     0.00000000   -0.00000004    0.00033113
     atom   96 type  1   force =     0.00000004   -0.00000002    0.00040921
     atom   97 type  1   force =     0.00000000    0.00000000   -0.00040933
     atom   98 type  1   force =    -0.00000001   -0.00000001   -0.00033112
     atom   99 type  1   force =     0.00000018    0.00000011   -0.00010151
     atom  100 type  1   force =    -0.00000000   -0.00000000    0.00079416
     atom  101 type  1   force =     0.00000002    0.00000001    0.00177843
     atom  102 type  1   force =     0.00000016    0.00000009   -0.00153292
     atom  103 type  1   force =     0.00000021   -0.00000012    0.00153289
     atom  104 type  1   force =     0.00000005    0.00000003   -0.00177861
     atom  105 type  1   force =     0.00000022    0.00000013   -0.00079417
     atom  106 type  1   force =     0.00000000    0.00000000    0.00010150
     atom  107 type  1   force =     0.00000004    0.00000002    0.00033113
     atom  108 type  1   force =     0.00000002    0.00000001    0.00040915

     Total force =     0.010759     Total SCF correction =     0.000012


     Computing stress (Cartesian axis) and pressure

          total   stress  (Ry/bohr**3)                   (kbar)     P=       -4.67
  -0.00003514  -0.00000000  -0.00000000           -5.17       -0.00       -0.00
  -0.00000000  -0.00003514  -0.00000000           -0.00       -5.17       -0.00
  -0.00000000  -0.00000000  -0.00002496           -0.00       -0.00       -3.67

     Energy error            =      5.1E-04 Ry
     Gradient error          =      1.8E-03 Ry/Bohr

     number of scf cycles    =  13
     number of bfgs steps    =  12

     energy             old  =   -1555.0760765719 Ry
     energy             new  =   -1555.0765879853 Ry

     CASE: energy            _new < energy            _old

     new trust radius        =       0.0135752589 bohr
     new conv_thr            =       0.0000000002 Ry


ATOMIC_POSITIONS (angstrom)
Li              -0.0000000000       -0.0000000000       14.9869236665
Li               2.4319655983        1.4040959928       16.1567973593
Li               4.8639277361        2.8081899878       16.8743352145
Li               7.2958834680        4.2122802843       17.9240415530
Li               2.4319686400        1.4040977490       18.9930695944
Li               4.8639295983        2.8081910629       19.9468231220
Li               2.4319674751        4.2122844528       20.9744623588
Li               2.4319687273        1.4040977994       21.9282165429
Li               4.8639288691        2.8081906419       22.9972440327
Li               7.2958834680        4.2122802843       24.0469489504
Li               2.4319659815        1.4040962141       24.7644859759
Li               4.8639261313        2.8081890613       25.9343497632
Li               2.4319654414        4.2122828351       14.9869320156
Li               4.8639245317        5.6163724308       16.1568031981
Li               7.2958834680        7.0204608772       16.8743352145
Li               9.7278457106        8.4245534875       17.9240384261
Li               4.8639257735        5.6163717138       18.9930711122
Li               7.2958834680        7.0204587269       19.9468231220
Li               4.8639218615        8.4245530117       20.9744623588
Li               4.8639257501        5.6163717273       21.9282134492
Li               7.2958834680        7.0204595689       22.9972440327
Li               9.7278446695        8.4245550001       24.0469501202
Li               4.8639256261        5.6163717989       24.7644805619
Li               7.2958834680        7.0204627302       25.9343497632
Li               4.8639222457        8.4245555819       14.9869320156
Li               7.2958834680        9.8286488671       16.1567973593
Li               9.7278486300       11.2327451119       16.8743313100
Li              12.1598124557       12.6368434523       17.9240384261
Li               7.2958834680        9.8286453548       18.9930695944
Li               9.7278494424       11.2327446429       19.9468235565
Li               7.2958834680       12.6368408528       20.9744626172
Li               7.2958834680        9.8286452540       21.9282165429
Li               9.7278489201       11.2327449444       22.9972477047
Li              12.1598106252       12.6368435977       24.0469501202
Li               7.2958834680        9.8286484246       24.7644859759
Li               9.7278475558       11.2327457321       25.9343540297
Li               4.8639266637        0.0000024358       14.9869320156
Li               7.2958834680        1.4040959912       16.1568031981
Li               9.7278392000        2.8081899878       16.8743352145
Li              12.1598001911        4.2122847658       17.9240384261
Li               7.2958834680        1.4040974250       18.9930711122
Li               9.7278373378        2.8081910629       19.9468231220
Li               7.2958834680        4.2122802843       20.9744626413
Li               7.2958834680        1.4040973981       21.9282134492
Li               9.7278380670        2.8081906419       22.9972440327
Li              12.1598009804        4.2122831078       24.0469501202
Li               7.2958834680        1.4040972549       24.7644805619
Li               9.7278408048        2.8081890613       25.9343497632
Li               7.2958834680        4.2122802843       14.9869351239
Li               9.7278424044        5.6163724308       16.1568031981
Li              12.1598038909        7.0204660497       16.8743316514
Li              14.5917669361        8.4245605685       17.9240376892
Li               9.7278411626        5.6163717138       18.9930711122
Li              12.1598024425        7.0204652134       19.9468211350
Li               9.7278450746        8.4245530117       20.9744623588
Li               9.7278411860        5.6163717273       21.9282134492
Li              12.1598029687        7.0204655172       22.9972447165
Li              14.5917669361        8.4245605685       24.0469480642
Li               9.7278413100        5.6163717989       24.7644805619
Li              12.1598038213        7.0204660095       25.9343515366
Li               9.7278446904        8.4245555819       14.9869320156
Li              12.1598075251        9.8286529891       16.1567991676
Li              14.5917669361       11.2327496062       16.8743316514
Li              17.0237214165       12.6368434523       17.9240384261
Li              12.1598081833        9.8286526091       18.9930685137
Li              14.5917669361       11.2327512786       19.9468211350
Li              12.1598125497       12.6368442411       20.9744623588
Li              12.1598077748        9.8286528450       21.9282150671
Li              14.5917669361       11.2327506710       22.9972447165
Li              17.0237232470       12.6368435977       24.0469501202
Li              12.1598067376        9.8286534438       24.7644826931
Li              14.5917669361       11.2327496866       25.9343515366
Li               9.7278402724        0.0000024358       14.9869320156
Li              12.1598013378        1.4040959928       16.1567973593
Li              14.5917669361        2.8081914819       16.8743313100
Li               2.4319667450        4.2122847658       17.9240384261
Li              12.1597982961        1.4040977490       18.9930695944
Li              14.5917669361        2.8081924199       19.9468235565
Li              12.1597994610        4.2122844528       20.9744623588
Li              12.1597982088        1.4040977994       21.9282165429
Li              14.5917669361        2.8081918168       22.9972477047
Li              17.0237328918        4.2122831078       24.0469501202
Li              12.1598009546        1.4040962141       24.7644859759
Li              14.5917669361        2.8081902414       25.9343540297
Li              12.1598014947        4.2122828351       14.9869320156
Li              14.5917669361        5.6163757272       16.1567991676
Li              17.0237299813        7.0204660497       16.8743316514
Li              19.4556881616        8.4245534875       17.9240384261
Li              14.5917669361        5.6163764873       18.9930685137
Li              17.0237314297        7.0204652134       19.9468211350
Li              14.5917669361        8.4245605685       20.9744629547
Li              14.5917669361        5.6163760156       21.9282150671
Li              17.0237309035        7.0204655172       22.9972447165
Li              19.4556892027        8.4245550001       24.0469501202
Li              14.5917669361        5.6163748179       24.7644826931
Li              17.0237300509        7.0204660095       25.9343515366
Li              14.5917669361        8.4245605685       14.9869321028
Li              17.0237263471        9.8286529891       16.1567991676
Li              19.4556852422       11.2327451119       16.8743313100
Li              21.8876504041       12.6368408528       17.9240351402
Li              17.0237256889        9.8286526091       18.9930685137
Li              19.4556844298       11.2327446429       19.9468235565
Li              17.0237213225       12.6368442411       20.9744623588
Li              17.0237260974        9.8286528450       21.9282150671
Li              19.4556849521       11.2327449444       22.9972477047
Li              21.8876504041       12.6368408528       24.0469556919
Li              17.0237271346        9.8286534438       24.7644826931
Li              19.4556863164       11.2327457321       25.9343540297



     Writing config-only to output data dir /scratch/deepanthpcu/ml/tmp/Lislab/Lislab.save/ :
     XML data file
     NEW-OLD atomic charge density approx. for the potential

     negative rho (up, down):  3.446E-06 0.000E+00

     total cpu time spent up to now is     3296.6 secs

     per-process dynamical memory:   119.1 Mb

     Self-consistent Calculation

     iteration #  1     ecut=    60.00 Ry     beta= 0.30
     Davidson diagonalization with overlap
     ethr =  1.00E-06,  avg # of iterations =  3.0

     Threshold (ethr) on eigenvalues was too large:
     Diagonalizing with lowered threshold

     Davidson diagonalization with overlap
     ethr =  2.52E-08,  avg # of iterations =  5.0

     negative rho (up, down):  1.165E-06 0.000E+00

     total cpu time spent up to now is     3332.6 secs

     total energy              =   -1555.07722004 Ry
     estimated scf accuracy    <       0.00010080 Ry

     iteration #  2     ecut=    60.00 Ry     beta= 0.30
     Davidson diagonalization with overlap
     ethr =  3.11E-08,  avg # of iterations =  5.2

     negative rho (up, down):  1.367E-06 0.000E+00

     total cpu time spent up to now is     3348.6 secs

     total energy              =   -1555.07719296 Ry
     estimated scf accuracy    <       0.00092869 Ry

     iteration #  3     ecut=    60.00 Ry     beta= 0.30
     Davidson diagonalization with overlap
     ethr =  3.11E-08,  avg # of iterations =  4.5

     negative rho (up, down):  5.059E-07 0.000E+00

     total cpu time spent up to now is     3363.3 secs

     total energy              =   -1555.07725152 Ry
     estimated scf accuracy    <       0.00000963 Ry

     iteration #  4     ecut=    60.00 Ry     beta= 0.30
     Davidson diagonalization with overlap
     ethr =  2.97E-09,  avg # of iterations =  3.0

     negative rho (up, down):  1.657E-06 0.000E+00

     total cpu time spent up to now is     3377.2 secs

     total energy              =   -1555.07725116 Ry
     estimated scf accuracy    <       0.00003837 Ry

     iteration #  5     ecut=    60.00 Ry     beta= 0.30
     Davidson diagonalization with overlap
     ethr =  2.97E-09,  avg # of iterations =  1.2

     total cpu time spent up to now is     3389.4 secs

     total energy              =   -1555.07725220 Ry
     estimated scf accuracy    <       0.00000423 Ry

     iteration #  6     ecut=    60.00 Ry     beta= 0.30
     Davidson diagonalization with overlap
     ethr =  1.30E-09,  avg # of iterations =  2.5

     total cpu time spent up to now is     3402.6 secs

     total energy              =   -1555.07725243 Ry
     estimated scf accuracy    <       0.00000071 Ry

     iteration #  7     ecut=    60.00 Ry     beta= 0.30
     Davidson diagonalization with overlap
     ethr =  2.18E-10,  avg # of iterations =  3.0

     total cpu time spent up to now is     3416.0 secs

     total energy              =   -1555.07725250 Ry
     estimated scf accuracy    <       0.00000022 Ry

     iteration #  8     ecut=    60.00 Ry     beta= 0.30
     Davidson diagonalization with overlap
     ethr =  6.65E-11,  avg # of iterations =  4.5

     total cpu time spent up to now is     3430.8 secs

     total energy              =   -1555.07725256 Ry
     estimated scf accuracy    <       0.00000053 Ry

     iteration #  9     ecut=    60.00 Ry     beta= 0.30
     Davidson diagonalization with overlap
     ethr =  6.65E-11,  avg # of iterations =  1.0

     total cpu time spent up to now is     3442.7 secs

     total energy              =   -1555.07725255 Ry
     estimated scf accuracy    <       0.00000021 Ry

     iteration # 10     ecut=    60.00 Ry     beta= 0.30
     Davidson diagonalization with overlap
     ethr =  6.56E-11,  avg # of iterations =  2.8

     total cpu time spent up to now is     3456.1 secs

     total energy              =   -1555.07725259 Ry
     estimated scf accuracy    <          1.5E-09 Ry

     iteration # 11     ecut=    60.00 Ry     beta= 0.30
     Davidson diagonalization with overlap
     ethr =  4.57E-13,  avg # of iterations =  6.2

     total cpu time spent up to now is     3475.0 secs

     total energy              =   -1555.07725260 Ry
     estimated scf accuracy    <       0.00000004 Ry

     iteration # 12     ecut=    60.00 Ry     beta= 0.30
     Davidson diagonalization with overlap
     ethr =  4.57E-13,  avg # of iterations =  5.0

     total cpu time spent up to now is     3490.6 secs

     total energy              =   -1555.07725260 Ry
     estimated scf accuracy    <          1.6E-09 Ry

     iteration # 13     ecut=    60.00 Ry     beta= 0.30
     Davidson diagonalization with overlap
     ethr =  4.57E-13,  avg # of iterations =  3.5

     total cpu time spent up to now is     3504.9 secs

     total energy              =   -1555.07725261 Ry
     estimated scf accuracy    <          1.2E-09 Ry

     iteration # 14     ecut=    60.00 Ry     beta= 0.30
     Davidson diagonalization with overlap
     ethr =  3.79E-13,  avg # of iterations =  2.0

     total cpu time spent up to now is     3518.1 secs

     total energy              =   -1555.07725262 Ry
     estimated scf accuracy    <          5.5E-10 Ry

     iteration # 15     ecut=    60.00 Ry     beta= 0.30
     Davidson diagonalization with overlap
     ethr =  1.68E-13,  avg # of iterations =  3.2

     total cpu time spent up to now is     3531.3 secs

     total energy              =   -1555.07725262 Ry
     estimated scf accuracy    <          4.3E-09 Ry

     iteration # 16     ecut=    60.00 Ry     beta= 0.30
     Davidson diagonalization with overlap
     ethr =  1.68E-13,  avg # of iterations =  2.0

     total cpu time spent up to now is     3543.8 secs

     End of self-consistent calculation

          k = 0.0000 0.0000 0.0000 (399281 PWs)   bands (ev):

   -49.3110 -49.3110 -49.3110 -49.3110 -49.3110 -49.3110 -49.3109 -49.3109
   -49.3109 -49.3109 -49.3109 -49.3109 -49.3109 -49.3109 -49.3109 -49.3109
   -49.3109 -49.3109 -48.5238 -48.5234 -48.5234 -48.5233 -48.5233 -48.5233
   -48.5233 -48.5233 -48.5233 -48.5233 -48.5233 -48.5233 -48.5233 -48.5233
   -48.5233 -48.5233 -48.5233 -48.5233 -48.2887 -48.2886 -48.2886 -48.2886
   -48.2886 -48.2886 -48.2886 -48.2886 -48.2886 -48.2886 -48.2886 -48.2885
   -48.2885 -48.2885 -48.2885 -48.2885 -48.2885 -48.2884 -48.2675 -48.2636
   -48.2636 -48.2636 -48.2636 -48.2636 -48.2636 -48.2612 -48.2612 -48.2594
   -48.2579 -48.2579 -48.2579 -48.2579 -48.2579 -48.2579 -48.2564 -48.2564
   -48.2544 -48.2544 -48.2544 -48.2544 -48.2544 -48.2544 -48.2539 -48.2539
   -48.2539 -48.2539 -48.2534 -48.2493 -48.2493 -48.2493 -48.2493 -48.2493
   -48.2493 -48.2454 -48.1460 -48.1460 -48.1460 -48.1460 -48.1458 -48.1458
   -48.1458 -48.1458 -48.1458 -48.1458 -48.1457 -48.1457 -48.1457 -48.1457
   -48.1457 -48.1457 -48.1457 -48.1452  -5.1354  -4.7188  -4.4320  -4.4320
    -4.4320  -4.4320  -4.4320  -4.4320  -4.0154  -4.0154  -4.0154  -4.0154
    -4.0154  -4.0154  -3.9734  -3.2649  -3.2649  -3.2649  -3.2649  -3.2649
    -3.2649  -3.0476  -3.0476  -3.0476  -3.0476  -3.0463  -3.0463  -3.0412
    -2.6314  -2.6314  -2.6314  -2.6314  -2.6098  -2.6098  -2.3452  -2.3452
    -2.3452  -2.3452  -2.3452  -2.3452  -2.2966  -2.2966  -2.2966  -2.2966
    -2.2966  -2.2966  -2.0600  -1.9018  -1.9018  -1.9018  -1.9018  -1.9018
    -1.9018  -1.8730  -1.8730  -1.8730  -1.8730  -1.8224  -1.8224  -1.4383
    -1.4383  -1.4383  -1.4383  -1.4383  -1.4383  -1.1401  -1.1401  -1.1401
    -1.1401  -1.1401  -1.1401  -1.0599  -1.0599  -1.0599  -1.0599  -1.0599
    -1.0599  -1.0070  -1.0070  -1.0070  -1.0070  -0.9521  -0.6692  -0.6692
    -0.5663  -0.5662

          k = 0.0000 0.2887 0.0000 (399667 PWs)   bands (ev):

   -49.3111 -49.3111 -49.3111 -49.3111 -49.3111 -49.3111 -49.3110 -49.3110
   -49.3110 -49.3110 -49.3110 -49.3110 -49.3109 -49.3109 -49.3109 -49.3109
   -49.3109 -49.3109 -48.5238 -48.5236 -48.5235 -48.5235 -48.5234 -48.5234
   -48.5234 -48.5234 -48.5234 -48.5234 -48.5234 -48.5234 -48.5234 -48.5234
   -48.5233 -48.5233 -48.5233 -48.5233 -48.2888 -48.2887 -48.2887 -48.2887
   -48.2887 -48.2887 -48.2887 -48.2886 -48.2886 -48.2886 -48.2886 -48.2886
   -48.2886 -48.2885 -48.2885 -48.2885 -48.2885 -48.2885 -48.2674 -48.2651
   -48.2642 -48.2642 -48.2629 -48.2629 -48.2624 -48.2615 -48.2615 -48.2594
   -48.2584 -48.2579 -48.2579 -48.2579 -48.2576 -48.2576 -48.2567 -48.2567
   -48.2546 -48.2546 -48.2546 -48.2546 -48.2545 -48.2543 -48.2543 -48.2542
   -48.2535 -48.2529 -48.2529 -48.2508 -48.2503 -48.2503 -48.2489 -48.2489
   -48.2481 -48.2459 -48.1461 -48.1461 -48.1460 -48.1460 -48.1460 -48.1459
   -48.1459 -48.1459 -48.1459 -48.1458 -48.1458 -48.1458 -48.1458 -48.1457
   -48.1457 -48.1456 -48.1456 -48.1456  -5.0916  -4.7400  -4.6750  -4.5642
    -4.5642  -4.3233  -4.2122  -4.2122  -4.1474  -4.1474  -4.0357  -3.9291
    -3.7958  -3.7958  -3.6201  -3.5741  -3.5153  -3.5153  -3.3971  -3.3971
    -3.1055  -3.1055  -3.0459  -3.0459  -2.9952  -2.9914  -2.9914  -2.9797
    -2.8750  -2.6338  -2.6338  -2.6301  -2.5978  -2.5978  -2.5514  -2.4952
    -2.4952  -2.4504  -2.4504  -2.3366  -2.3366  -2.2187  -2.2187  -2.0884
    -2.0884  -2.0727  -2.0727  -2.0153  -1.9559  -1.9444  -1.9444  -1.8142
    -1.8142  -1.7911  -1.6758  -1.5890  -1.5241  -1.5241  -1.5133  -1.5133
    -1.5104  -1.5104  -1.4206  -1.4206  -1.3785  -1.3785  -1.2766  -1.2766
    -1.2333  -1.1769  -1.1762  -1.1762  -1.1615  -1.1615  -1.1574  -0.9341
    -0.9341  -0.9149  -0.9049  -0.9049  -0.8753  -0.8753  -0.7712  -0.7526
    -0.7386  -0.6962

          k = 0.0000-0.5774 0.0000 (399688 PWs)   bands (ev):

   -49.3111 -49.3111 -49.3111 -49.3111 -49.3110 -49.3110 -49.3110 -49.3110
   -49.3110 -49.3110 -49.3110 -49.3110 -49.3110 -49.3110 -49.3109 -49.3109
   -49.3109 -49.3109 -48.5237 -48.5237 -48.5236 -48.5236 -48.5235 -48.5235
   -48.5234 -48.5234 -48.5234 -48.5234 -48.5234 -48.5234 -48.5233 -48.5233
   -48.5233 -48.5233 -48.5233 -48.5233 -48.2887 -48.2887 -48.2887 -48.2887
   -48.2887 -48.2886 -48.2886 -48.2886 -48.2886 -48.2886 -48.2886 -48.2886
   -48.2886 -48.2886 -48.2886 -48.2886 -48.2885 -48.2885 -48.2666 -48.2666
   -48.2644 -48.2644 -48.2621 -48.2621 -48.2621 -48.2621 -48.2619 -48.2589
   -48.2589 -48.2580 -48.2580 -48.2580 -48.2572 -48.2572 -48.2572 -48.2572
   -48.2547 -48.2547 -48.2547 -48.2546 -48.2543 -48.2542 -48.2542 -48.2537
   -48.2537 -48.2515 -48.2515 -48.2515 -48.2515 -48.2515 -48.2488 -48.2488
   -48.2469 -48.2469 -48.1460 -48.1460 -48.1460 -48.1460 -48.1460 -48.1459
   -48.1459 -48.1459 -48.1459 -48.1459 -48.1458 -48.1458 -48.1458 -48.1458
   -48.1457 -48.1457 -48.1457 -48.1457  -4.9599  -4.9599  -4.6083  -4.6083
    -4.5432  -4.5432  -4.1915  -4.1915  -3.9058  -3.9058  -3.9058  -3.9058
    -3.7959  -3.7959  -3.5533  -3.5519  -3.4899  -3.4899  -3.4899  -3.4899
    -3.4413  -3.4413  -3.1397  -3.1310  -2.8605  -2.8605  -2.8605  -2.8605
    -2.8576  -2.8576  -2.7443  -2.7443  -2.7443  -2.7443  -2.4943  -2.4943
    -2.4300  -2.4300  -2.4300  -2.4300  -2.3935  -2.3713  -1.9267  -1.9267
    -1.9267  -1.9267  -1.8833  -1.8833  -1.8211  -1.8211  -1.8211  -1.8211
    -1.6627  -1.6627  -1.6627  -1.6627  -1.5741  -1.5606  -1.5606  -1.5253
    -1.5253  -1.5177  -1.5177  -1.4687  -1.4687  -1.4687  -1.4687  -1.3294
    -1.2911  -1.1057  -1.1057  -1.0864  -1.0864  -1.0258  -1.0258  -1.0258
    -1.0258  -0.8450  -0.8450  -0.7961  -0.7678  -0.7678  -0.7462  -0.7462
    -0.7462  -0.7462

          k = 0.2500-0.7217 0.0000 (399610 PWs)   bands (ev):

   -49.3111 -49.3111 -49.3110 -49.3110 -49.3110 -49.3110 -49.3110 -49.3110
   -49.3110 -49.3110 -49.3110 -49.3110 -49.3110 -49.3110 -49.3109 -49.3109
   -49.3109 -49.3109 -48.5237 -48.5235 -48.5235 -48.5235 -48.5235 -48.5235
   -48.5234 -48.5234 -48.5234 -48.5234 -48.5234 -48.5234 -48.5234 -48.5234
   -48.5233 -48.5233 -48.5233 -48.5233 -48.2887 -48.2887 -48.2887 -48.2887
   -48.2886 -48.2886 -48.2886 -48.2886 -48.2886 -48.2886 -48.2886 -48.2886
   -48.2886 -48.2886 -48.2885 -48.2885 -48.2885 -48.2885 -48.2668 -48.2656
   -48.2656 -48.2631 -48.2631 -48.2621 -48.2620 -48.2620 -48.2616 -48.2591
   -48.2585 -48.2585 -48.2576 -48.2576 -48.2575 -48.2575 -48.2573 -48.2570
   -48.2548 -48.2546 -48.2546 -48.2545 -48.2544 -48.2544 -48.2539 -48.2539
   -48.2536 -48.2522 -48.2516 -48.2514 -48.2514 -48.2501 -48.2501 -48.2477
   -48.2477 -48.2466 -48.1460 -48.1460 -48.1460 -48.1460 -48.1460 -48.1459
   -48.1459 -48.1459 -48.1458 -48.1458 -48.1458 -48.1458 -48.1458 -48.1457
   -48.1457 -48.1457 -48.1456 -48.1456  -5.0038  -4.8280  -4.8280  -4.5871
    -4.4112  -4.4112  -4.3007  -4.3007  -3.9504  -3.8840  -3.8840  -3.8402
    -3.7726  -3.7726  -3.6627  -3.6627  -3.5339  -3.4267  -3.4254  -3.3624
    -3.3624  -3.2389  -3.2389  -3.1327  -3.1327  -3.0135  -3.0025  -2.9033
    -2.8400  -2.8400  -2.7844  -2.7206  -2.7206  -2.5890  -2.5889  -2.4117
    -2.4092  -2.2687  -2.2382  -2.2325  -2.2325  -2.1725  -2.1725  -2.0891
    -2.0891  -1.9876  -1.9811  -1.9735  -1.9269  -1.8169  -1.8057  -1.8057
    -1.7598  -1.7598  -1.7544  -1.7544  -1.6670  -1.6670  -1.5250  -1.4871
    -1.4871  -1.4275  -1.3397  -1.3397  -1.3043  -1.3043  -1.2487  -1.2343
    -1.1962  -1.1962  -1.1961  -1.1951  -1.1951  -1.0329  -1.0329  -1.0102
    -1.0102  -0.9379  -0.8480  -0.8480  -0.8473  -0.7878  -0.7878  -0.7703
    -0.7123  -0.7123

     the Fermi energy is    -1.7201 ev

!    total energy              =   -1555.07725262 Ry
     estimated scf accuracy    <          3.8E-11 Ry
     smearing contrib. (-TS)   =      -0.01243456 Ry
     internal energy E=F+TS    =   -1555.06481806 Ry

     The total energy is F=E-TS. E is the sum of the following terms:
     one-electron contribution =  -14025.04656336 Ry
     hartree contribution      =    6846.57331493 Ry
     xc contribution           =    -359.08054369 Ry
     ewald contribution        =    5982.48897406 Ry

     convergence has been achieved in  16 iterations

     Forces acting on atoms (cartesian axes, Ry/au):

     atom    1 type  1   force =     0.00000000    0.00000000   -0.00037007
     atom    2 type  1   force =    -0.00000012   -0.00000007   -0.00026378
     atom    3 type  1   force =    -0.00000019   -0.00000011   -0.00008365
     atom    4 type  1   force =    -0.00000000   -0.00000000    0.00086409
     atom    5 type  1   force =    -0.00000020   -0.00000011    0.00126393
     atom    6 type  1   force =    -0.00000019   -0.00000011   -0.00130713
     atom    7 type  1   force =    -0.00000019   -0.00000012    0.00130716
     atom    8 type  1   force =    -0.00000022   -0.00000013   -0.00126392
     atom    9 type  1   force =    -0.00000018   -0.00000010   -0.00086403
     atom   10 type  1   force =     0.00000000    0.00000000    0.00008369
     atom   11 type  1   force =    -0.00000014   -0.00000008    0.00026384
     atom   12 type  1   force =     0.00000004    0.00000002    0.00037044
     atom   13 type  1   force =    -0.00000002    0.00000004   -0.00037040
     atom   14 type  1   force =    -0.00000004    0.00000002   -0.00026397
     atom   15 type  1   force =     0.00000000    0.00000022   -0.00008365
     atom   16 type  1   force =    -0.00000001    0.00000022    0.00086411
     atom   17 type  1   force =    -0.00000007    0.00000004    0.00126389
     atom   18 type  1   force =     0.00000000    0.00000022   -0.00130713
     atom   19 type  1   force =     0.00000001    0.00000022    0.00130716
     atom   20 type  1   force =    -0.00000005    0.00000003   -0.00126385
     atom   21 type  1   force =     0.00000000    0.00000020   -0.00086403
     atom   22 type  1   force =    -0.00000002    0.00000019    0.00008364
     atom   23 type  1   force =    -0.00000005    0.00000003    0.00026398
     atom   24 type  1   force =     0.00000000   -0.00000004    0.00037044
     atom   25 type  1   force =    -0.00000005    0.00000000   -0.00037040
     atom   26 type  1   force =     0.00000000    0.00000014   -0.00026378
     atom   27 type  1   force =    -0.00000014    0.00000008   -0.00008355
     atom   28 type  1   force =    -0.00000020   -0.00000010    0.00086411
     atom   29 type  1   force =     0.00000000    0.00000023    0.00126393
     atom   30 type  1   force =    -0.00000016    0.00000009   -0.00130713
     atom   31 type  1   force =     0.00000000    0.00000000    0.00130722
     atom   32 type  1   force =     0.00000000    0.00000026   -0.00126392
     atom   33 type  1   force =    -0.00000020    0.00000012   -0.00086412
     atom   34 type  1   force =    -0.00000018   -0.00000008    0.00008364
     atom   35 type  1   force =     0.00000000    0.00000016    0.00026384
     atom   36 type  1   force =    -0.00000003    0.00000002    0.00037026
     atom   37 type  1   force =     0.00000002   -0.00000004   -0.00037040
     atom   38 type  1   force =     0.00000000   -0.00000005   -0.00026397
     atom   39 type  1   force =     0.00000019   -0.00000011   -0.00008365
     atom   40 type  1   force =     0.00000019   -0.00000012    0.00086411
     atom   41 type  1   force =     0.00000000   -0.00000009    0.00126389
     atom   42 type  1   force =     0.00000019   -0.00000011   -0.00130713
     atom   43 type  1   force =     0.00000000    0.00000000    0.00130727
     atom   44 type  1   force =     0.00000000   -0.00000006   -0.00126385
     atom   45 type  1   force =     0.00000018   -0.00000010   -0.00086403
     atom   46 type  1   force =     0.00000015   -0.00000011    0.00008364
     atom   47 type  1   force =     0.00000000   -0.00000006    0.00026398
     atom   48 type  1   force =    -0.00000004    0.00000002    0.00037044
     atom   49 type  1   force =     0.00000000    0.00000000   -0.00037050
     atom   50 type  1   force =     0.00000004    0.00000002   -0.00026397
     atom   51 type  1   force =     0.00000009    0.00000005   -0.00008365
     atom   52 type  1   force =     0.00000000    0.00000000    0.00086407
     atom   53 type  1   force =     0.00000007    0.00000004    0.00126389
     atom   54 type  1   force =     0.00000013    0.00000008   -0.00130714
     atom   55 type  1   force =    -0.00000001    0.00000022    0.00130716
     atom   56 type  1   force =     0.00000005    0.00000003   -0.00126385
     atom   57 type  1   force =     0.00000006    0.00000004   -0.00086412
     atom   58 type  1   force =    -0.00000000   -0.00000000    0.00008365
     atom   59 type  1   force =     0.00000005    0.00000003    0.00026398
     atom   60 type  1   force =    -0.00000004   -0.00000002    0.00037032
     atom   61 type  1   force =     0.00000005    0.00000000   -0.00037040
     atom   62 type  1   force =    -0.00000001    0.00000001   -0.00026395
     atom   63 type  1   force =     0.00000000   -0.00000011   -0.00008365
     atom   64 type  1   force =     0.00000020   -0.00000010    0.00086411
     atom   65 type  1   force =    -0.00000003    0.00000002    0.00126392
     atom   66 type  1   force =     0.00000000   -0.00000015   -0.00130714
     atom   67 type  1   force =    -0.00000020   -0.00000010    0.00130716
     atom   68 type  1   force =    -0.00000007    0.00000004   -0.00126403
     atom   69 type  1   force =     0.00000000   -0.00000007   -0.00086412
     atom   70 type  1   force =     0.00000018   -0.00000008    0.00008364
     atom   71 type  1   force =    -0.00000004    0.00000002    0.00026389
     atom   72 type  1   force =     0.00000000    0.00000004    0.00037032
     atom   73 type  1   force =    -0.00000002   -0.00000004   -0.00037040
     atom   74 type  1   force =     0.00000012   -0.00000007   -0.00026378
     atom   75 type  1   force =     0.00000000   -0.00000017   -0.00008355
     atom   76 type  1   force =    -0.00000019   -0.00000012    0.00086411
     atom   77 type  1   force =     0.00000020   -0.00000011    0.00126393
     atom   78 type  1   force =     0.00000000   -0.00000018   -0.00130713
     atom   79 type  1   force =     0.00000019   -0.00000012    0.00130716
     atom   80 type  1   force =     0.00000022   -0.00000013   -0.00126392
     atom   81 type  1   force =     0.00000000   -0.00000023   -0.00086412
     atom   82 type  1   force =    -0.00000015   -0.00000011    0.00008364
     atom   83 type  1   force =     0.00000014   -0.00000008    0.00026384
     atom   84 type  1   force =     0.00000000   -0.00000004    0.00037026
     atom   85 type  1   force =     0.00000002    0.00000004   -0.00037040
     atom   86 type  1   force =     0.00000000   -0.00000001   -0.00026395
     atom   87 type  1   force =    -0.00000009    0.00000005   -0.00008365
     atom   88 type  1   force =     0.00000001    0.00000022    0.00086411
     atom   89 type  1   force =     0.00000000   -0.00000004    0.00126392
     atom   90 type  1   force =    -0.00000013    0.00000008   -0.00130714
     atom   91 type  1   force =     0.00000000    0.00000000    0.00130698
     atom   92 type  1   force =     0.00000000   -0.00000008   -0.00126403
     atom   93 type  1   force =    -0.00000006    0.00000004   -0.00086412
     atom   94 type  1   force =     0.00000002    0.00000019    0.00008364
     atom   95 type  1   force =     0.00000000   -0.00000004    0.00026389
     atom   96 type  1   force =     0.00000004   -0.00000002    0.00037032
     atom   97 type  1   force =     0.00000000    0.00000000   -0.00037044
     atom   98 type  1   force =     0.00000001    0.00000001   -0.00026395
     atom   99 type  1   force =     0.00000014    0.00000008   -0.00008355
     atom  100 type  1   force =     0.00000000    0.00000000    0.00086416
     atom  101 type  1   force =     0.00000003    0.00000002    0.00126392
     atom  102 type  1   force =     0.00000016    0.00000009   -0.00130713
     atom  103 type  1   force =     0.00000020   -0.00000010    0.00130716
     atom  104 type  1   force =     0.00000007    0.00000004   -0.00126403
     atom  105 type  1   force =     0.00000020    0.00000012   -0.00086412
     atom  106 type  1   force =    -0.00000000   -0.00000000    0.00008351
     atom  107 type  1   force =     0.00000004    0.00000002    0.00026389
     atom  108 type  1   force =     0.00000003    0.00000002    0.00037026

     Total force =     0.008764     Total SCF correction =     0.000011


     Computing stress (Cartesian axis) and pressure

          total   stress  (Ry/bohr**3)                   (kbar)     P=       -4.68
  -0.00003518  -0.00000000   0.00000000           -5.18       -0.00        0.00
  -0.00000000  -0.00003518   0.00000000           -0.00       -5.18        0.00
   0.00000000  -0.00000000  -0.00002502            0.00       -0.00       -3.68

     Energy error            =      6.6E-04 Ry
     Gradient error          =      1.3E-03 Ry/Bohr

     number of scf cycles    =  14
     number of bfgs steps    =  13

     energy             old  =   -1555.0765879853 Ry
     energy             new  =   -1555.0772526223 Ry

     CASE: energy            _new < energy            _old

     new trust radius        =       0.0203628884 bohr
     new conv_thr            =       0.0000000001 Ry


ATOMIC_POSITIONS (angstrom)
Li              -0.0000000000       -0.0000000000       14.9843993472
Li               2.4319648941        1.4040955863       16.1605363927
Li               4.8639266426        2.8081893565       16.8701163776
Li               7.2958834680        4.2122802843       17.9258009275
Li               2.4319677956        1.4040972615       19.0038436624
Li               4.8639288364        2.8081906231       19.9381429211
Li               2.4319665084        4.2122841063       20.9831422455
Li               2.4319677385        1.4040972285       21.9174420374
Li               4.8639282974        2.8081903119       22.9954853626
Li               7.2958834680        4.2122802843       24.0511683984
Li               2.4319654391        1.4040959009       24.7607478875
Li               4.8639265874        2.8081893246       25.9368760314
Li               2.4319654202        4.2122832843       14.9844060081
Li               4.8639241746        5.6163726369       16.1605410728
Li               7.2958834680        7.0204621399       16.8701163776
Li               9.7278458613        8.4245545867       17.9257975287
Li               4.8639255102        5.6163718658       19.0038452988
Li               7.2958834680        7.0204596067       19.9381429211
Li               4.8639216783        8.4245540222       20.9831422455
Li               4.8639255883        5.6163718207       21.9174393036
Li               7.2958834680        7.0204602290       22.9954853626
Li               9.7278446733        8.4245558751       24.0511693233
Li               4.8639255297        5.6163718546       24.7607430646
Li               7.2958834680        7.0204622036       25.9368760314
Li               4.8639218460        8.4245553756       14.9844060081
Li               7.2958834680        9.8286496802       16.1605363927
Li               9.7278478066       11.2327455873       16.8701129019
Li              12.1598115791       12.6368427723       17.9257975287
Li               7.2958834680        9.8286463298       19.0038436624
Li               9.7278488805       11.2327449673       19.9381432710
Li               7.2958834680       12.6368408528       20.9831427922
Li               7.2958834680        9.8286463957       21.9174420374
Li               9.7278479897       11.2327454816       22.9954885994
Li              12.1598098693       12.6368431568       24.0511693233
Li               7.2958834680        9.8286490509       24.7607478875
Li               9.7278476511       11.2327456771       25.9368795637
Li               4.8639270422        0.0000021929       14.9844060081
Li               7.2958834680        1.4040955788       16.1605410728
Li               9.7278402935        2.8081893565       16.8701163776
Li              12.1598012183        4.2122843466       17.9257975287
Li               7.2958834680        1.4040971211       19.0038452988
Li               9.7278380997        2.8081906231       19.9381429211
Li               7.2958834680        4.2122802843       20.9831434019
Li               7.2958834680        1.4040972113       21.9174393036
Li               9.7278386387        2.8081903119       22.9954853626
Li              12.1598017402        4.2122826736       24.0511693233
Li               7.2958834680        1.4040971436       24.7607430646
Li               9.7278403487        2.8081893246       25.9368760314
Li               7.2958834680        4.2122802843       14.9844083848
Li               9.7278427615        5.6163726369       16.1605410728
Li              12.1598047215        7.0204665292       16.8701127805
Li              14.5917669361        8.4245605685       17.9257967075
Li               9.7278414259        5.6163718658       19.0038452988
Li              12.1598035178        7.0204658343       19.9381406746
Li               9.7278452578        8.4245540222       20.9831422455
Li               9.7278413478        5.6163718207       21.9174393036
Li              12.1598034238        7.0204657800       22.9954854825
Li              14.5917669361        8.4245605685       24.0511671596
Li               9.7278414064        5.6163718546       24.7607430646
Li              12.1598036071        7.0204658858       25.9368771181
Li               9.7278450901        8.4245553756       14.9844060081
Li              12.1598078617        9.8286527948       16.1605373941
Li              14.5917669361       11.2327486471       16.8701127805
Li              17.0237222931       12.6368427723       17.9257975287
Li              12.1598084276        9.8286524681       19.0038427945
Li              14.5917669361       11.2327500370       19.9381406746
Li              12.1598117662       12.6368435771       20.9831422455
Li              12.1598077918        9.8286528351       21.9174394906
Li              14.5917669361       11.2327501455       22.9954854825
Li              17.0237240029       12.6368431568       24.0511693233
Li              12.1598066801        9.8286534770       24.7607448306
Li              14.5917669361       11.2327499339       25.9368771181
Li               9.7278398939        0.0000021929       14.9844060081
Li              12.1598020420        1.4040955863       16.1605363927
Li              14.5917669361        2.8081905310       16.8701129019
Li               2.4319657178        4.2122843466       17.9257975287
Li              12.1597991405        1.4040972615       19.0038436624
Li              14.5917669361        2.8081917711       19.9381432710
Li              12.1598004277        4.2122841063       20.9831422455
Li              12.1597991976        1.4040972285       21.9174420374
Li              14.5917669361        2.8081907425       22.9954885994
Li              17.0237321320        4.2122826736       24.0511693233
Li              12.1598014970        1.4040959009       24.7607478875
Li              14.5917669361        2.8081903514       25.9368795637
Li              12.1598015159        4.2122832843       14.9844060081
Li              14.5917669361        5.6163761159       16.1605373941
Li              17.0237291507        7.0204665292       16.8701127805
Li              19.4556880109        8.4245545867       17.9257975287
Li              14.5917669361        5.6163767693       19.0038427945
Li              17.0237303544        7.0204658343       19.9381406746
Li              14.5917669361        8.4245605685       20.9831415603
Li              14.5917669361        5.6163760353       21.9174394906
Li              17.0237304484        7.0204657800       22.9954854825
Li              19.4556891989        8.4245558751       24.0511693233
Li              14.5917669361        5.6163747515       24.7607448306
Li              17.0237302651        7.0204658858       25.9368771181
Li              14.5917669361        8.4245605685       14.9844062567
Li              17.0237260105        9.8286527948       16.1605373941
Li              19.4556860656       11.2327455873       16.8701129019
Li              21.8876504041       12.6368408528       17.9257939463
Li              17.0237254446        9.8286524681       19.0038427945
Li              19.4556849917       11.2327449673       19.9381432710
Li              17.0237221060       12.6368435771       20.9831422455
Li              17.0237260804        9.8286528351       21.9174394906
Li              19.4556858825       11.2327454816       22.9954885994
Li              21.8876504041       12.6368408528       24.0511742859
Li              17.0237271921        9.8286534770       24.7607448306
Li              19.4556862211       11.2327456771       25.9368795637



     Writing config-only to output data dir /scratch/deepanthpcu/ml/tmp/Lislab/Lislab.save/ :
     XML data file
     NEW-OLD atomic charge density approx. for the potential

     negative rho (up, down):  8.244E-06 0.000E+00

     total cpu time spent up to now is     3559.0 secs

     per-process dynamical memory:   119.1 Mb

     Self-consistent Calculation

     iteration #  1     ecut=    60.00 Ry     beta= 0.30
     Davidson diagonalization with overlap
     ethr =  1.00E-06,  avg # of iterations =  4.0

     Threshold (ethr) on eigenvalues was too large:
     Diagonalizing with lowered threshold

     Davidson diagonalization with overlap
     ethr =  7.18E-08,  avg # of iterations =  4.2

     negative rho (up, down):  3.619E-06 0.000E+00

     total cpu time spent up to now is     3595.3 secs

     total energy              =   -1555.07788079 Ry
     estimated scf accuracy    <       0.00027628 Ry

     iteration #  2     ecut=    60.00 Ry     beta= 0.30
     Davidson diagonalization with overlap
     ethr =  8.53E-08,  avg # of iterations =  5.5

     negative rho (up, down):  4.031E-06 0.000E+00

     total cpu time spent up to now is     3611.1 secs

     total energy              =   -1555.07780566 Ry
     estimated scf accuracy    <       0.00262027 Ry

     iteration #  3     ecut=    60.00 Ry     beta= 0.30
     Davidson diagonalization with overlap
     ethr =  8.53E-08,  avg # of iterations =  4.5

     negative rho (up, down):  1.985E-06 0.000E+00

     total cpu time spent up to now is     3625.9 secs

     total energy              =   -1555.07796979 Ry
     estimated scf accuracy    <       0.00002336 Ry

     iteration #  4     ecut=    60.00 Ry     beta= 0.30
     Davidson diagonalization with overlap
     ethr =  7.21E-09,  avg # of iterations =  3.2

     negative rho (up, down):  4.532E-06 0.000E+00

     total cpu time spent up to now is     3639.5 secs

     total energy              =   -1555.07797007 Ry
     estimated scf accuracy    <       0.00002902 Ry

     iteration #  5     ecut=    60.00 Ry     beta= 0.30
     Davidson diagonalization with overlap
     ethr =  7.21E-09,  avg # of iterations =  1.5

     negative rho (up, down):  6.361E-08 0.000E+00

     total cpu time spent up to now is     3652.1 secs

     total energy              =   -1555.07797097 Ry
     estimated scf accuracy    <       0.00001756 Ry

     iteration #  6     ecut=    60.00 Ry     beta= 0.30
     Davidson diagonalization with overlap
     ethr =  5.42E-09,  avg # of iterations =  2.0

     total cpu time spent up to now is     3664.8 secs

     total energy              =   -1555.07797167 Ry
     estimated scf accuracy    <       0.00000189 Ry

     iteration #  7     ecut=    60.00 Ry     beta= 0.30
     Davidson diagonalization with overlap
     ethr =  5.83E-10,  avg # of iterations =  3.8

     total cpu time spent up to now is     3678.6 secs

     total energy              =   -1555.07797186 Ry
     estimated scf accuracy    <       0.00000042 Ry

     iteration #  8     ecut=    60.00 Ry     beta= 0.30
     Davidson diagonalization with overlap
     ethr =  1.29E-10,  avg # of iterations =  5.0

     total cpu time spent up to now is     3694.2 secs

     total energy              =   -1555.07797189 Ry
     estimated scf accuracy    <       0.00000171 Ry

     iteration #  9     ecut=    60.00 Ry     beta= 0.30
     Davidson diagonalization with overlap
     ethr =  1.29E-10,  avg # of iterations =  2.2

     total cpu time spent up to now is     3707.5 secs

     total energy              =   -1555.07797191 Ry
     estimated scf accuracy    <       0.00000028 Ry

     iteration # 10     ecut=    60.00 Ry     beta= 0.30
     Davidson diagonalization with overlap
     ethr =  8.64E-11,  avg # of iterations =  3.8

     total cpu time spent up to now is     3721.5 secs

     total energy              =   -1555.07797196 Ry
     estimated scf accuracy    <       0.00000001 Ry

     iteration # 11     ecut=    60.00 Ry     beta= 0.30
     Davidson diagonalization with overlap
     ethr =  3.64E-12,  avg # of iterations =  5.0

     total cpu time spent up to now is     3737.5 secs

     total energy              =   -1555.07797197 Ry
     estimated scf accuracy    <       0.00000004 Ry

     iteration # 12     ecut=    60.00 Ry     beta= 0.30
     Davidson diagonalization with overlap
     ethr =  3.64E-12,  avg # of iterations =  3.0

     total cpu time spent up to now is     3751.2 secs

     total energy              =   -1555.07797199 Ry
     estimated scf accuracy    <          1.1E-09 Ry

     iteration # 13     ecut=    60.00 Ry     beta= 0.30
     Davidson diagonalization with overlap
     ethr =  3.50E-13,  avg # of iterations =  5.0

     total cpu time spent up to now is     3767.9 secs

     total energy              =   -1555.07797200 Ry
     estimated scf accuracy    <          2.6E-09 Ry

     iteration # 14     ecut=    60.00 Ry     beta= 0.30
     Davidson diagonalization with overlap
     ethr =  3.50E-13,  avg # of iterations =  2.0

     total cpu time spent up to now is     3781.1 secs

     total energy              =   -1555.07797200 Ry
     estimated scf accuracy    <          1.6E-09 Ry

     iteration # 15     ecut=    60.00 Ry     beta= 0.30
     Davidson diagonalization with overlap
     ethr =  3.50E-13,  avg # of iterations =  2.8

     total cpu time spent up to now is     3794.2 secs

     total energy              =   -1555.07797201 Ry
     estimated scf accuracy    <          5.7E-09 Ry

     iteration # 16     ecut=    60.00 Ry     beta= 0.30
     Davidson diagonalization with overlap
     ethr =  3.50E-13,  avg # of iterations =  1.0

     total cpu time spent up to now is     3806.2 secs

     total energy              =   -1555.07797201 Ry
     estimated scf accuracy    <          3.2E-10 Ry

     iteration # 17     ecut=    60.00 Ry     beta= 0.30
     Davidson diagonalization with overlap
     ethr =  1.00E-13,  avg # of iterations =  4.0

     total cpu time spent up to now is     3819.9 secs

     End of self-consistent calculation

          k = 0.0000 0.0000 0.0000 (399281 PWs)   bands (ev):

   -49.3112 -49.3112 -49.3112 -49.3112 -49.3112 -49.3111 -49.3111 -49.3111
   -49.3111 -49.3111 -49.3111 -49.3111 -49.3110 -49.3110 -49.3110 -49.3110
   -49.3110 -49.3110 -48.5233 -48.5229 -48.5229 -48.5228 -48.5228 -48.5228
   -48.5228 -48.5228 -48.5228 -48.5228 -48.5228 -48.5228 -48.5228 -48.5228
   -48.5228 -48.5228 -48.5228 -48.5228 -48.2916 -48.2916 -48.2916 -48.2916
   -48.2916 -48.2915 -48.2915 -48.2915 -48.2915 -48.2915 -48.2915 -48.2914
   -48.2914 -48.2914 -48.2914 -48.2914 -48.2914 -48.2913 -48.2661 -48.2629
   -48.2629 -48.2629 -48.2629 -48.2629 -48.2629 -48.2612 -48.2612 -48.2585
   -48.2570 -48.2570 -48.2570 -48.2570 -48.2570 -48.2570 -48.2560 -48.2560
   -48.2510 -48.2509 -48.2509 -48.2509 -48.2509 -48.2509 -48.2505 -48.2497
   -48.2497 -48.2497 -48.2497 -48.2456 -48.2456 -48.2456 -48.2455 -48.2455
   -48.2455 -48.2418 -48.1460 -48.1460 -48.1460 -48.1460 -48.1459 -48.1458
   -48.1458 -48.1458 -48.1458 -48.1458 -48.1457 -48.1457 -48.1457 -48.1457
   -48.1457 -48.1457 -48.1457 -48.1452  -5.1350  -4.7172  -4.4316  -4.4316
    -4.4316  -4.4316  -4.4316  -4.4316  -4.0134  -4.0134  -4.0134  -4.0134
    -4.0134  -4.0134  -3.9732  -3.2649  -3.2649  -3.2649  -3.2649  -3.2649
    -3.2649  -3.0474  -3.0474  -3.0474  -3.0474  -3.0455  -3.0455  -3.0408
    -2.6292  -2.6292  -2.6292  -2.6292  -2.6069  -2.6069  -2.3447  -2.3447
    -2.3447  -2.3447  -2.3447  -2.3447  -2.2964  -2.2964  -2.2964  -2.2964
    -2.2964  -2.2964  -2.0622  -1.8989  -1.8989  -1.8989  -1.8989  -1.8989
    -1.8989  -1.8748  -1.8748  -1.8748  -1.8748  -1.8201  -1.8201  -1.4391
    -1.4391  -1.4391  -1.4391  -1.4391  -1.4391  -1.1420  -1.1420  -1.1420
    -1.1420  -1.1420  -1.1420  -1.0598  -1.0598  -1.0598  -1.0598  -1.0598
    -1.0598  -1.0049  -1.0049  -1.0049  -1.0049  -0.9459  -0.6716  -0.6716
    -0.5626  -0.5626

          k = 0.0000 0.2887 0.0000 (399667 PWs)   bands (ev):

   -49.3113 -49.3113 -49.3113 -49.3113 -49.3112 -49.3112 -49.3112 -49.3112
   -49.3112 -49.3112 -49.3112 -49.3112 -49.3111 -49.3111 -49.3111 -49.3111
   -49.3111 -49.3111 -48.5233 -48.5231 -48.5231 -48.5230 -48.5229 -48.5229
   -48.5229 -48.5229 -48.5229 -48.5229 -48.5229 -48.5229 -48.5229 -48.5229
   -48.5229 -48.5229 -48.5228 -48.5228 -48.2917 -48.2916 -48.2916 -48.2916
   -48.2916 -48.2916 -48.2916 -48.2915 -48.2915 -48.2915 -48.2915 -48.2915
   -48.2915 -48.2915 -48.2915 -48.2915 -48.2915 -48.2915 -48.2660 -48.2640
   -48.2633 -48.2633 -48.2624 -48.2624 -48.2621 -48.2614 -48.2614 -48.2585
   -48.2575 -48.2571 -48.2571 -48.2568 -48.2567 -48.2567 -48.2561 -48.2561
   -48.2510 -48.2510 -48.2510 -48.2509 -48.2509 -48.2509 -48.2506 -48.2505
   -48.2505 -48.2488 -48.2488 -48.2469 -48.2464 -48.2464 -48.2451 -48.2451
   -48.2445 -48.2423 -48.1461 -48.1461 -48.1460 -48.1460 -48.1460 -48.1459
   -48.1459 -48.1459 -48.1459 -48.1458 -48.1458 -48.1458 -48.1458 -48.1457
   -48.1457 -48.1457 -48.1457 -48.1456  -5.0911  -4.7396  -4.6733  -4.5638
    -4.5638  -4.3214  -4.2118  -4.2118  -4.1455  -4.1455  -4.0354  -3.9289
    -3.7938  -3.7938  -3.6180  -3.5740  -3.5150  -3.5150  -3.3971  -3.3971
    -3.1034  -3.1034  -3.0459  -3.0459  -2.9948  -2.9909  -2.9909  -2.9793
    -2.8750  -2.6335  -2.6335  -2.6297  -2.5957  -2.5957  -2.5492  -2.4947
    -2.4947  -2.4499  -2.4499  -2.3368  -2.3368  -2.2168  -2.2168  -2.0871
    -2.0871  -2.0703  -2.0703  -2.0176  -1.9558  -1.9441  -1.9441  -1.8147
    -1.8147  -1.7902  -1.6775  -1.5889  -1.5210  -1.5210  -1.5153  -1.5153
    -1.5100  -1.5100  -1.4198  -1.4198  -1.3783  -1.3783  -1.2759  -1.2759
    -1.2332  -1.1790  -1.1790  -1.1738  -1.1613  -1.1613  -1.1600  -0.9346
    -0.9346  -0.9087  -0.9016  -0.9016  -0.8756  -0.8756  -0.7711  -0.7501
    -0.7350  -0.6925

          k = 0.0000-0.5774 0.0000 (399688 PWs)   bands (ev):

   -49.3113 -49.3113 -49.3113 -49.3113 -49.3112 -49.3112 -49.3112 -49.3112
   -49.3112 -49.3112 -49.3111 -49.3111 -49.3111 -49.3111 -49.3111 -49.3111
   -49.3111 -49.3111 -48.5232 -48.5232 -48.5231 -48.5231 -48.5230 -48.5230
   -48.5230 -48.5229 -48.5229 -48.5229 -48.5229 -48.5229 -48.5229 -48.5229
   -48.5228 -48.5228 -48.5228 -48.5228 -48.2916 -48.2916 -48.2916 -48.2916
   -48.2916 -48.2916 -48.2916 -48.2916 -48.2916 -48.2916 -48.2915 -48.2915
   -48.2915 -48.2915 -48.2915 -48.2915 -48.2915 -48.2915 -48.2653 -48.2653
   -48.2635 -48.2635 -48.2618 -48.2618 -48.2618 -48.2618 -48.2617 -48.2580
   -48.2580 -48.2572 -48.2572 -48.2567 -48.2564 -48.2564 -48.2564 -48.2564
   -48.2509 -48.2509 -48.2509 -48.2509 -48.2509 -48.2509 -48.2509 -48.2507
   -48.2507 -48.2475 -48.2475 -48.2475 -48.2475 -48.2475 -48.2450 -48.2450
   -48.2433 -48.2433 -48.1460 -48.1460 -48.1460 -48.1460 -48.1460 -48.1459
   -48.1459 -48.1459 -48.1459 -48.1459 -48.1458 -48.1458 -48.1458 -48.1458
   -48.1457 -48.1457 -48.1457 -48.1457  -4.9595  -4.9595  -4.6079  -4.6079
    -4.5414  -4.5414  -4.1896  -4.1896  -3.9055  -3.9055  -3.9055  -3.9055
    -3.7957  -3.7957  -3.5527  -3.5518  -3.4878  -3.4878  -3.4878  -3.4878
    -3.4412  -3.4412  -3.1374  -3.1287  -2.8602  -2.8602  -2.8602  -2.8602
    -2.8571  -2.8571  -2.7443  -2.7443  -2.7443  -2.7443  -2.4938  -2.4938
    -2.4277  -2.4277  -2.4277  -2.4277  -2.3949  -2.3705  -1.9264  -1.9264
    -1.9264  -1.9264  -1.8855  -1.8855  -1.8213  -1.8213  -1.8213  -1.8213
    -1.6616  -1.6616  -1.6616  -1.6616  -1.5713  -1.5615  -1.5615  -1.5250
    -1.5250  -1.5184  -1.5184  -1.4656  -1.4656  -1.4656  -1.4656  -1.3321
    -1.2910  -1.1037  -1.1037  -1.0823  -1.0823  -1.0279  -1.0279  -1.0279
    -1.0279  -0.8411  -0.8411  -0.7925  -0.7655  -0.7655  -0.7462  -0.7462
    -0.7462  -0.7462

          k = 0.2500-0.7217 0.0000 (399610 PWs)   bands (ev):

   -49.3113 -49.3113 -49.3112 -49.3112 -49.3112 -49.3112 -49.3112 -49.3112
   -49.3112 -49.3111 -49.3111 -49.3111 -49.3111 -49.3111 -49.3111 -49.3111
   -49.3110 -49.3110 -48.5233 -48.5231 -48.5230 -48.5230 -48.5230 -48.5230
   -48.5229 -48.5229 -48.5229 -48.5229 -48.5229 -48.5229 -48.5229 -48.5229
   -48.5228 -48.5228 -48.5228 -48.5228 -48.2916 -48.2916 -48.2916 -48.2916
   -48.2916 -48.2916 -48.2916 -48.2916 -48.2916 -48.2916 -48.2916 -48.2915
   -48.2915 -48.2915 -48.2915 -48.2915 -48.2915 -48.2915 -48.2655 -48.2644
   -48.2644 -48.2624 -48.2624 -48.2618 -48.2618 -48.2618 -48.2615 -48.2582
   -48.2577 -48.2577 -48.2567 -48.2567 -48.2565 -48.2565 -48.2563 -48.2563
   -48.2510 -48.2510 -48.2509 -48.2509 -48.2509 -48.2508 -48.2507 -48.2507
   -48.2506 -48.2482 -48.2477 -48.2475 -48.2475 -48.2463 -48.2463 -48.2440
   -48.2440 -48.2430 -48.1461 -48.1460 -48.1460 -48.1460 -48.1460 -48.1459
   -48.1459 -48.1459 -48.1459 -48.1459 -48.1458 -48.1458 -48.1458 -48.1458
   -48.1457 -48.1457 -48.1457 -48.1457  -5.0034  -4.8276  -4.8276  -4.5854
    -4.4094  -4.4094  -4.3003  -4.3003  -3.9500  -3.8820  -3.8820  -3.8401
    -3.7723  -3.7723  -3.6626  -3.6626  -3.5318  -3.4261  -3.4253  -3.3603
    -3.3603  -3.2384  -3.2384  -3.1327  -3.1327  -3.0113  -3.0001  -2.9029
    -2.8377  -2.8377  -2.7845  -2.7202  -2.7202  -2.5891  -2.5891  -2.4113
    -2.4089  -2.2702  -2.2374  -2.2321  -2.2321  -2.1722  -2.1722  -2.0895
    -2.0895  -1.9852  -1.9790  -1.9732  -1.9291  -1.8154  -1.8035  -1.8035
    -1.7588  -1.7588  -1.7565  -1.7565  -1.6653  -1.6653  -1.5221  -1.4869
    -1.4869  -1.4249  -1.3372  -1.3372  -1.3045  -1.3045  -1.2499  -1.2326
    -1.1981  -1.1969  -1.1969  -1.1959  -1.1959  -1.0344  -1.0344  -1.0069
    -1.0069  -0.9410  -0.8475  -0.8475  -0.8412  -0.7829  -0.7829  -0.7702
    -0.7098  -0.7098

     the Fermi energy is    -1.7198 ev

!    total energy              =   -1555.07797202 Ry
     estimated scf accuracy    <          3.3E-11 Ry
     smearing contrib. (-TS)   =      -0.01230624 Ry
     internal energy E=F+TS    =   -1555.06566578 Ry

     The total energy is F=E-TS. E is the sum of the following terms:
     one-electron contribution =  -14025.55035904 Ry
     hartree contribution      =    6846.82812934 Ry
     xc contribution           =    -359.07708881 Ry
     ewald contribution        =    5982.73365274 Ry

     convergence has been achieved in  17 iterations

     Forces acting on atoms (cartesian axes, Ry/au):

     atom    1 type  1   force =     0.00000000    0.00000000   -0.00030423
     atom    2 type  1   force =    -0.00000010   -0.00000006   -0.00010494
     atom    3 type  1   force =    -0.00000016   -0.00000009   -0.00008746
     atom    4 type  1   force =    -0.00000000   -0.00000000    0.00092850
     atom    5 type  1   force =    -0.00000019   -0.00000011    0.00045180
     atom    6 type  1   force =    -0.00000018   -0.00000010   -0.00094698
     atom    7 type  1   force =    -0.00000017   -0.00000009    0.00094696
     atom    8 type  1   force =    -0.00000018   -0.00000011   -0.00045180
     atom    9 type  1   force =    -0.00000017   -0.00000010   -0.00092849
     atom   10 type  1   force =    -0.00000000   -0.00000000    0.00008751
     atom   11 type  1   force =    -0.00000011   -0.00000006    0.00010500
     atom   12 type  1   force =     0.00000002    0.00000001    0.00030458
     atom   13 type  1   force =    -0.00000004    0.00000003   -0.00030448
     atom   14 type  1   force =    -0.00000005    0.00000003   -0.00010505
     atom   15 type  1   force =     0.00000000    0.00000018   -0.00008746
     atom   16 type  1   force =     0.00000001    0.00000019    0.00092855
     atom   17 type  1   force =    -0.00000011    0.00000007    0.00045174
     atom   18 type  1   force =     0.00000000    0.00000021   -0.00094698
     atom   19 type  1   force =    -0.00000001    0.00000019    0.00094696
     atom   20 type  1   force =    -0.00000008    0.00000005   -0.00045172
     atom   21 type  1   force =     0.00000000    0.00000019   -0.00092849
     atom   22 type  1   force =    -0.00000000    0.00000015    0.00008745
     atom   23 type  1   force =    -0.00000007    0.00000004    0.00010509
     atom   24 type  1   force =     0.00000000   -0.00000002    0.00030458
     atom   25 type  1   force =    -0.00000004    0.00000003   -0.00030448
     atom   26 type  1   force =     0.00000000    0.00000011   -0.00010494
     atom   27 type  1   force =    -0.00000008    0.00000005   -0.00008737
     atom   28 type  1   force =    -0.00000016   -0.00000011    0.00092855
     atom   29 type  1   force =     0.00000000    0.00000021    0.00045180
     atom   30 type  1   force =    -0.00000013    0.00000007   -0.00094701
     atom   31 type  1   force =     0.00000000    0.00000000    0.00094697
     atom   32 type  1   force =     0.00000000    0.00000021   -0.00045180
     atom   33 type  1   force =    -0.00000014    0.00000008   -0.00092858
     atom   34 type  1   force =    -0.00000013   -0.00000007    0.00008745
     atom   35 type  1   force =     0.00000000    0.00000012    0.00010500
     atom   36 type  1   force =    -0.00000002    0.00000001    0.00030443
     atom   37 type  1   force =    -0.00000000   -0.00000005   -0.00030448
     atom   38 type  1   force =     0.00000000   -0.00000005   -0.00010505
     atom   39 type  1   force =     0.00000016   -0.00000009   -0.00008746
     atom   40 type  1   force =     0.00000017   -0.00000008    0.00092855
     atom   41 type  1   force =     0.00000000   -0.00000013    0.00045174
     atom   42 type  1   force =     0.00000018   -0.00000010   -0.00094698
     atom   43 type  1   force =     0.00000000    0.00000000    0.00094703
     atom   44 type  1   force =     0.00000000   -0.00000009   -0.00045172
     atom   45 type  1   force =     0.00000017   -0.00000010   -0.00092849
     atom   46 type  1   force =     0.00000013   -0.00000008    0.00008745
     atom   47 type  1   force =     0.00000000   -0.00000008    0.00010509
     atom   48 type  1   force =    -0.00000002    0.00000001    0.00030458
     atom   49 type  1   force =     0.00000000    0.00000000   -0.00030455
     atom   50 type  1   force =     0.00000005    0.00000003   -0.00010505
     atom   51 type  1   force =     0.00000006    0.00000004   -0.00008743
     atom   52 type  1   force =     0.00000000    0.00000000    0.00092852
     atom   53 type  1   force =     0.00000011    0.00000007    0.00045174
     atom   54 type  1   force =     0.00000009    0.00000005   -0.00094702
     atom   55 type  1   force =     0.00000001    0.00000019    0.00094696
     atom   56 type  1   force =     0.00000008    0.00000005   -0.00045172
     atom   57 type  1   force =     0.00000006    0.00000003   -0.00092857
     atom   58 type  1   force =     0.00000000    0.00000000    0.00008744
     atom   59 type  1   force =     0.00000007    0.00000004    0.00010509
     atom   60 type  1   force =    -0.00000001   -0.00000001    0.00030446
     atom   61 type  1   force =     0.00000004    0.00000003   -0.00030448
     atom   62 type  1   force =    -0.00000004    0.00000003   -0.00010503
     atom   63 type  1   force =     0.00000000   -0.00000007   -0.00008743
     atom   64 type  1   force =     0.00000016   -0.00000011    0.00092855
     atom   65 type  1   force =    -0.00000004    0.00000002    0.00045174
     atom   66 type  1   force =     0.00000000   -0.00000010   -0.00094702
     atom   67 type  1   force =    -0.00000016   -0.00000010    0.00094696
     atom   68 type  1   force =    -0.00000006    0.00000003   -0.00045182
     atom   69 type  1   force =     0.00000000   -0.00000007   -0.00092857
     atom   70 type  1   force =     0.00000013   -0.00000007    0.00008745
     atom   71 type  1   force =    -0.00000001    0.00000001    0.00010499
     atom   72 type  1   force =     0.00000000    0.00000002    0.00030446
     atom   73 type  1   force =     0.00000000   -0.00000005   -0.00030448
     atom   74 type  1   force =     0.00000010   -0.00000006   -0.00010494
     atom   75 type  1   force =     0.00000000   -0.00000010   -0.00008737
     atom   76 type  1   force =    -0.00000017   -0.00000008    0.00092855
     atom   77 type  1   force =     0.00000019   -0.00000011    0.00045180
     atom   78 type  1   force =     0.00000000   -0.00000015   -0.00094701
     atom   79 type  1   force =     0.00000017   -0.00000009    0.00094696
     atom   80 type  1   force =     0.00000018   -0.00000011   -0.00045180
     atom   81 type  1   force =     0.00000000   -0.00000016   -0.00092858
     atom   82 type  1   force =    -0.00000013   -0.00000008    0.00008745
     atom   83 type  1   force =     0.00000011   -0.00000006    0.00010500
     atom   84 type  1   force =     0.00000000   -0.00000002    0.00030443
     atom   85 type  1   force =     0.00000004    0.00000003   -0.00030448
     atom   86 type  1   force =     0.00000000   -0.00000005   -0.00010503
     atom   87 type  1   force =    -0.00000006    0.00000004   -0.00008743
     atom   88 type  1   force =    -0.00000001    0.00000019    0.00092855
     atom   89 type  1   force =     0.00000000   -0.00000004    0.00045174
     atom   90 type  1   force =    -0.00000009    0.00000005   -0.00094702
     atom   91 type  1   force =     0.00000000    0.00000000    0.00094686
     atom   92 type  1   force =     0.00000000   -0.00000006   -0.00045182
     atom   93 type  1   force =    -0.00000006    0.00000003   -0.00092857
     atom   94 type  1   force =     0.00000000    0.00000015    0.00008745
     atom   95 type  1   force =     0.00000000   -0.00000001    0.00010499
     atom   96 type  1   force =     0.00000001   -0.00000001    0.00030446
     atom   97 type  1   force =     0.00000000    0.00000000   -0.00030453
     atom   98 type  1   force =     0.00000004    0.00000003   -0.00010503
     atom   99 type  1   force =     0.00000008    0.00000005   -0.00008737
     atom  100 type  1   force =    -0.00000000   -0.00000000    0.00092865
     atom  101 type  1   force =     0.00000004    0.00000002    0.00045174
     atom  102 type  1   force =     0.00000013    0.00000007   -0.00094701
     atom  103 type  1   force =     0.00000016   -0.00000010    0.00094696
     atom  104 type  1   force =     0.00000006    0.00000003   -0.00045182
     atom  105 type  1   force =     0.00000014    0.00000008   -0.00092858
     atom  106 type  1   force =    -0.00000000   -0.00000000    0.00008735
     atom  107 type  1   force =     0.00000001    0.00000001    0.00010499
     atom  108 type  1   force =     0.00000002    0.00000001    0.00030443

     Total force =     0.006111     Total SCF correction =     0.000010


     Computing stress (Cartesian axis) and pressure

          total   stress  (Ry/bohr**3)                   (kbar)     P=       -4.69
  -0.00003524  -0.00000000   0.00000000           -5.18       -0.00        0.00
  -0.00000000  -0.00003524   0.00000000           -0.00       -5.18        0.00
  -0.00000000  -0.00000000  -0.00002513           -0.00       -0.00       -3.70

     Energy error            =      7.2E-04 Ry
     Gradient error          =      9.5E-04 Ry/Bohr

     number of scf cycles    =  15
     number of bfgs steps    =  14

     energy             old  =   -1555.0772526223 Ry
     energy             new  =   -1555.0779720169 Ry

     CASE: energy            _new < energy            _old

     new trust radius        =       0.0272719034 bohr
     new conv_thr            =            1.0E-10 Ry


ATOMIC_POSITIONS (angstrom)
Li              -0.0000000000       -0.0000000000       14.9809002648
Li               2.4319638423        1.4040949790       16.1643897513
Li               4.8639250200        2.8081884197       16.8651609026
Li               7.2958834680        4.2122802843       17.9292174015
Li               2.4319664713        1.4040964969       19.0182732647
Li               4.8639276279        2.8081899253       19.9260173882
Li               2.4319650403        4.2122835708       20.9952672643
Li               2.4319662359        1.4040963610       21.9030117852
Li               4.8639273692        2.8081897760       22.9920698142
Li               7.2958834680        4.2122802843       24.0561247665
Li               2.4319646154        1.4040954254       24.7568958870
Li               4.8639271830        2.8081896685       25.9403780877
Li               2.4319653130        4.2122838893       14.9809044312
Li               4.8639236321        5.6163729501       16.1643927697
Li               7.2958834680        7.0204640134       16.8651609026
Li               9.7278460876        8.4245562523       17.9292137004
Li               4.8639250266        5.6163721450       19.0182750118
Li               7.2958834680        7.0204610021       19.9260173882
Li               4.8639214080        8.4245555613       20.9952672643
Li               4.8639252665        5.6163720065       21.9030096298
Li               7.2958834680        7.0204613009       22.9920698142
Li               9.7278446941        8.4245571866       24.0561252951
Li               4.8639253166        5.6163719776       24.7568919410
Li               7.2958834680        7.0204615158       25.9403780877
Li               4.8639212685        8.4245551660       14.9809044312
Li               7.2958834680        9.8286508948       16.1643897513
Li               9.7278466284       11.2327462675       16.8651580939
Li              12.1598102498       12.6368417434       17.9292137004
Li               7.2958834680        9.8286478591       19.0182732647
Li               9.7278480174       11.2327454656       19.9260175843
Li               7.2958834680       12.6368408528       20.9952681852
Li               7.2958834680        9.8286481308       21.9030117852
Li               9.7278466393       11.2327462612       22.9920723671
Li              12.1598087439       12.6368424831       24.0561252951
Li               7.2958834680        9.8286500020       24.7568958870
Li               9.7278477564       11.2327456162       25.9403805003
Li               4.8639275125        0.0000017976       14.9809044312
Li               7.2958834680        1.4040949524       16.1643927697
Li               9.7278419161        2.8081884197       16.8651609026
Li              12.1598027739        4.2122837099       17.9292137004
Li               7.2958834680        1.4040965626       19.0182750118
Li               9.7278393082        2.8081899253       19.9260173882
Li               7.2958834680        4.2122802843       20.9952696443
Li               7.2958834680        1.4040968396       21.9030096298
Li               9.7278395669        2.8081897760       22.9920698142
Li              12.1598028863        4.2122820358       24.0561252951
Li               7.2958834680        1.4040968975       24.7568919410
Li               9.7278397531        2.8081896685       25.9403780877
Li               7.2958834680        4.2122802843       14.9809057440
Li               9.7278433040        5.6163729501       16.1643927697
Li              12.1598059030        7.0204672113       16.8651573251
Li              14.5917669361        8.4245605685       17.9292127681
Li               9.7278419095        5.6163721450       19.0182750118
Li              12.1598050601        7.0204667247       19.9260147724
Li               9.7278455281        8.4245555613       20.9952672643
Li               9.7278416696        5.6163720065       21.9030096298
Li              12.1598041100        7.0204661762       22.9920691103
Li              14.5917669361        8.4245605685       24.0561229811
Li               9.7278416195        5.6163719776       24.7568919410
Li              12.1598033378        7.0204657303       25.9403781442
Li               9.7278456676        8.4245551660       14.9809044312
Li              12.1598082688        9.8286525597       16.1643896325
Li              14.5917669361       11.2327472828       16.8651573251
Li              17.0237236224       12.6368417434       17.9292137004
Li              12.1598087284        9.8286522944       19.0182726391
Li              14.5917669361       11.2327482561       19.9260147724
Li              12.1598105685       12.6368425735       20.9952672643
Li              12.1598077847        9.8286528392       21.9030078209
Li              14.5917669361       11.2327493531       22.9920691103
Li              17.0237251283       12.6368424831       24.0561252951
Li              12.1598066066        9.8286535194       24.7568931116
Li              14.5917669361       11.2327502449       25.9403781442
Li               9.7278394236        0.0000017976       14.9809044312
Li              12.1598030938        1.4040949790       16.1643897513
Li              14.5917669361        2.8081891706       16.8651580939
Li               2.4319641622        4.2122837099       17.9292137004
Li              12.1598004648        1.4040964969       19.0182732647
Li              14.5917669361        2.8081907744       19.9260175843
Li              12.1598018958        4.2122835708       20.9952672643
Li              12.1598007002        1.4040963610       21.9030117852
Li              14.5917669361        2.8081891832       22.9920723671
Li              17.0237309859        4.2122820358       24.0561252951
Li              12.1598023207        1.4040954254       24.7568958870
Li              14.5917669361        2.8081904731       25.9403805003
Li              12.1598016231        4.2122838893       14.9809044312
Li              14.5917669361        5.6163765860       16.1643896325
Li              17.0237279692        7.0204672113       16.8651573251
Li              19.4556877846        8.4245562523       17.9292137004
Li              14.5917669361        5.6163771166       19.0182726391
Li              17.0237288121        7.0204667247       19.9260147724
Li              14.5917669361        8.4245605685       20.9952648010
Li              14.5917669361        5.6163760270       21.9030078209
Li              17.0237297622        7.0204661762       22.9920691103
Li              19.4556891781        8.4245571866       24.0561252951
Li              14.5917669361        5.6163746667       24.7568931116
Li              17.0237305344        7.0204657303       25.9403781442
Li              14.5917669361        8.4245605685       14.9809048767
Li              17.0237256034        9.8286525597       16.1643896325
Li              19.4556872438       11.2327462675       16.8651580939
Li              21.8876504041       12.6368408528       17.9292098188
Li              17.0237251438        9.8286522944       19.0182726391
Li              19.4556858548       11.2327454656       19.9260175843
Li              17.0237233037       12.6368425735       20.9952672643
Li              17.0237260875        9.8286528392       21.9030078209
Li              19.4556872329       11.2327462612       22.9920723671
Li              21.8876504041       12.6368408528       24.0561293421
Li              17.0237272656        9.8286535194       24.7568931116
Li              19.4556861158       11.2327456162       25.9403805003



     Writing config-only to output data dir /scratch/deepanthpcu/ml/tmp/Lislab/Lislab.save/ :
     XML data file
     NEW-OLD atomic charge density approx. for the potential

     negative rho (up, down):  1.455E-05 0.000E+00

     total cpu time spent up to now is     3835.0 secs

     per-process dynamical memory:   119.1 Mb

     Self-consistent Calculation

     iteration #  1     ecut=    60.00 Ry     beta= 0.30
     Davidson diagonalization with overlap
     ethr =  1.00E-06,  avg # of iterations =  5.0

     negative rho (up, down):  7.285E-06 0.000E+00

     total cpu time spent up to now is     3859.0 secs

     total energy              =   -1555.07817722 Ry
     estimated scf accuracy    <       0.00052066 Ry

     iteration #  2     ecut=    60.00 Ry     beta= 0.30
     Davidson diagonalization with overlap
     ethr =  1.61E-07,  avg # of iterations =  6.0

     negative rho (up, down):  7.812E-06 0.000E+00

     total cpu time spent up to now is     3875.6 secs

     total energy              =   -1555.07802575 Ry
     estimated scf accuracy    <       0.00546713 Ry

     iteration #  3     ecut=    60.00 Ry     beta= 0.30
     Davidson diagonalization with overlap
     ethr =  1.61E-07,  avg # of iterations =  4.0

     negative rho (up, down):  3.569E-06 0.000E+00

     total cpu time spent up to now is     3891.3 secs

     total energy              =   -1555.07835775 Ry
     estimated scf accuracy    <       0.00003075 Ry

     iteration #  4     ecut=    60.00 Ry     beta= 0.30
     Davidson diagonalization with overlap
     ethr =  9.49E-09,  avg # of iterations =  4.5

     negative rho (up, down):  7.576E-06 0.000E+00

     total cpu time spent up to now is     3906.1 secs

     total energy              =   -1555.07835176 Ry
     estimated scf accuracy    <       0.00042036 Ry

     iteration #  5     ecut=    60.00 Ry     beta= 0.30
     Davidson diagonalization with overlap
     ethr =  9.49E-09,  avg # of iterations =  2.5

     negative rho (up, down):  4.896E-07 0.000E+00

     total cpu time spent up to now is     3940.8 secs

     total energy              =   -1555.07836046 Ry
     estimated scf accuracy    <       0.00000886 Ry

     iteration #  6     ecut=    60.00 Ry     beta= 0.30
     Davidson diagonalization with overlap
     ethr =  2.73E-09,  avg # of iterations =  5.0

     negative rho (up, down):  5.627E-08 0.000E+00

     total cpu time spent up to now is     3956.4 secs

     total energy              =   -1555.07836182 Ry
     estimated scf accuracy    <       0.00001260 Ry

     iteration #  7     ecut=    60.00 Ry     beta= 0.30
     Davidson diagonalization with overlap
     ethr =  2.73E-09,  avg # of iterations =  1.8

     negative rho (up, down):  2.430E-08 0.000E+00

     total cpu time spent up to now is     3969.4 secs

     total energy              =   -1555.07836157 Ry
     estimated scf accuracy    <       0.00000382 Ry

     iteration #  8     ecut=    60.00 Ry     beta= 0.30
     Davidson diagonalization with overlap
     ethr =  1.18E-09,  avg # of iterations =  4.2

     negative rho (up, down):  1.127E-08 0.000E+00

     total cpu time spent up to now is     3984.1 secs

     total energy              =   -1555.07836205 Ry
     estimated scf accuracy    <       0.00000176 Ry

     iteration #  9     ecut=    60.00 Ry     beta= 0.30
     Davidson diagonalization with overlap
     ethr =  5.44E-10,  avg # of iterations =  2.0

     total cpu time spent up to now is     3997.1 secs

     total energy              =   -1555.07836209 Ry
     estimated scf accuracy    <       0.00000013 Ry

     iteration # 10     ecut=    60.00 Ry     beta= 0.30
     Davidson diagonalization with overlap
     ethr =  4.02E-11,  avg # of iterations =  4.8

     total cpu time spent up to now is     4012.1 secs

     total energy              =   -1555.07836208 Ry
     estimated scf accuracy    <       0.00000002 Ry

     iteration # 11     ecut=    60.00 Ry     beta= 0.30
     Davidson diagonalization with overlap
     ethr =  6.65E-12,  avg # of iterations =  3.0

     total cpu time spent up to now is     4025.8 secs

     total energy              =   -1555.07836207 Ry
     estimated scf accuracy    <       0.00000002 Ry

     iteration # 12     ecut=    60.00 Ry     beta= 0.30
     Davidson diagonalization with overlap
     ethr =  5.61E-12,  avg # of iterations =  2.0

     total cpu time spent up to now is     4038.6 secs

     total energy              =   -1555.07836207 Ry
     estimated scf accuracy    <       0.00000003 Ry

     iteration # 13     ecut=    60.00 Ry     beta= 0.30
     Davidson diagonalization with overlap
     ethr =  5.61E-12,  avg # of iterations =  2.0

     total cpu time spent up to now is     4051.7 secs

     total energy              =   -1555.07836207 Ry
     estimated scf accuracy    <          1.0E-09 Ry

     iteration # 14     ecut=    60.00 Ry     beta= 0.30
     Davidson diagonalization with overlap
     ethr =  3.08E-13,  avg # of iterations =  5.0

     total cpu time spent up to now is     4067.4 secs

     total energy              =   -1555.07836207 Ry
     estimated scf accuracy    <          1.8E-09 Ry

     iteration # 15     ecut=    60.00 Ry     beta= 0.30
     Davidson diagonalization with overlap
     ethr =  3.08E-13,  avg # of iterations =  3.0

     total cpu time spent up to now is     4080.5 secs

     total energy              =   -1555.07836207 Ry
     estimated scf accuracy    <          4.0E-09 Ry

     iteration # 16     ecut=    60.00 Ry     beta= 0.30
     Davidson diagonalization with overlap
     ethr =  3.08E-13,  avg # of iterations =  2.0

     total cpu time spent up to now is     4093.2 secs

     total energy              =   -1555.07836206 Ry
     estimated scf accuracy    <          1.4E-10 Ry

     iteration # 17     ecut=    60.00 Ry     beta= 0.30
     Davidson diagonalization with overlap
     ethr =  1.00E-13,  avg # of iterations =  2.5

     total cpu time spent up to now is     4106.4 secs

     total energy              =   -1555.07836206 Ry
     estimated scf accuracy    <          1.6E-10 Ry

     iteration # 18     ecut=    60.00 Ry     beta= 0.30
     Davidson diagonalization with overlap
     ethr =  1.00E-13,  avg # of iterations =  2.0

     total cpu time spent up to now is     4119.5 secs

     End of self-consistent calculation

          k = 0.0000 0.0000 0.0000 (399281 PWs)   bands (ev):

   -49.3121 -49.3120 -49.3120 -49.3120 -49.3120 -49.3120 -49.3120 -49.3120
   -49.3120 -49.3120 -49.3120 -49.3119 -49.3119 -49.3119 -49.3119 -49.3119
   -49.3119 -49.3119 -48.5240 -48.5236 -48.5236 -48.5235 -48.5235 -48.5235
   -48.5235 -48.5235 -48.5235 -48.5235 -48.5235 -48.5235 -48.5235 -48.5235
   -48.5235 -48.5235 -48.5235 -48.5235 -48.2960 -48.2960 -48.2960 -48.2960
   -48.2960 -48.2959 -48.2959 -48.2959 -48.2959 -48.2959 -48.2959 -48.2959
   -48.2959 -48.2959 -48.2959 -48.2959 -48.2959 -48.2957 -48.2653 -48.2628
   -48.2628 -48.2628 -48.2628 -48.2628 -48.2628 -48.2618 -48.2618 -48.2579
   -48.2565 -48.2565 -48.2565 -48.2565 -48.2565 -48.2565 -48.2558 -48.2558
   -48.2460 -48.2459 -48.2459 -48.2459 -48.2459 -48.2459 -48.2459 -48.2443
   -48.2443 -48.2443 -48.2443 -48.2404 -48.2404 -48.2404 -48.2404 -48.2404
   -48.2404 -48.2369 -48.1468 -48.1468 -48.1468 -48.1468 -48.1466 -48.1466
   -48.1466 -48.1466 -48.1466 -48.1466 -48.1465 -48.1464 -48.1464 -48.1464
   -48.1464 -48.1464 -48.1464 -48.1460  -5.1349  -4.7152  -4.4315  -4.4315
    -4.4315  -4.4315  -4.4315  -4.4315  -4.0110  -4.0110  -4.0110  -4.0110
    -4.0110  -4.0110  -3.9733  -3.2652  -3.2652  -3.2652  -3.2652  -3.2652
    -3.2652  -3.0477  -3.0477  -3.0477  -3.0477  -3.0449  -3.0449  -3.0406
    -2.6263  -2.6263  -2.6263  -2.6263  -2.6031  -2.6031  -2.3445  -2.3445
    -2.3445  -2.3445  -2.3445  -2.3445  -2.2965  -2.2965  -2.2965  -2.2965
    -2.2965  -2.2965  -2.0660  -1.8951  -1.8951  -1.8951  -1.8951  -1.8951
    -1.8951  -1.8775  -1.8775  -1.8775  -1.8775  -1.8170  -1.8170  -1.4407
    -1.4407  -1.4407  -1.4407  -1.4407  -1.4407  -1.1449  -1.1449  -1.1449
    -1.1449  -1.1449  -1.1449  -1.0601  -1.0601  -1.0601  -1.0601  -1.0601
    -1.0601  -1.0029  -1.0029  -1.0029  -1.0029  -0.9384  -0.6755  -0.6755
    -0.5577  -0.5577

          k = 0.0000 0.2887 0.0000 (399667 PWs)   bands (ev):

   -49.3121 -49.3121 -49.3121 -49.3121 -49.3121 -49.3121 -49.3120 -49.3120
   -49.3120 -49.3120 -49.3120 -49.3120 -49.3120 -49.3120 -49.3120 -49.3120
   -49.3119 -49.3119 -48.5240 -48.5238 -48.5238 -48.5237 -48.5236 -48.5236
   -48.5236 -48.5236 -48.5236 -48.5236 -48.5236 -48.5236 -48.5236 -48.5236
   -48.5236 -48.5236 -48.5235 -48.5235 -48.2961 -48.2961 -48.2961 -48.2961
   -48.2961 -48.2961 -48.2960 -48.2960 -48.2960 -48.2960 -48.2960 -48.2960
   -48.2960 -48.2959 -48.2959 -48.2959 -48.2959 -48.2959 -48.2653 -48.2637
   -48.2632 -48.2632 -48.2625 -48.2625 -48.2624 -48.2619 -48.2619 -48.2579
   -48.2570 -48.2567 -48.2567 -48.2563 -48.2563 -48.2563 -48.2559 -48.2559
   -48.2461 -48.2461 -48.2459 -48.2459 -48.2458 -48.2458 -48.2458 -48.2451
   -48.2451 -48.2434 -48.2434 -48.2417 -48.2412 -48.2412 -48.2400 -48.2400
   -48.2394 -48.2374 -48.1469 -48.1469 -48.1468 -48.1468 -48.1468 -48.1467
   -48.1467 -48.1467 -48.1467 -48.1466 -48.1466 -48.1466 -48.1466 -48.1465
   -48.1465 -48.1464 -48.1464 -48.1464  -5.0910  -4.7395  -4.6712  -4.5637
    -4.5637  -4.3192  -4.2118  -4.2118  -4.1432  -4.1432  -4.0353  -3.9290
    -3.7913  -3.7913  -3.6154  -3.5742  -3.5150  -3.5150  -3.3973  -3.3973
    -3.1007  -3.1007  -3.0462  -3.0462  -2.9946  -2.9907  -2.9907  -2.9793
    -2.8752  -2.6335  -2.6335  -2.6295  -2.5929  -2.5929  -2.5464  -2.4945
    -2.4945  -2.4497  -2.4497  -2.3372  -2.3372  -2.2144  -2.2144  -2.0859
    -2.0859  -2.0671  -2.0671  -2.0213  -1.9560  -1.9442  -1.9442  -1.8155
    -1.8155  -1.7893  -1.6805  -1.5893  -1.5192  -1.5192  -1.5161  -1.5161
    -1.5098  -1.5098  -1.4192  -1.4192  -1.3785  -1.3785  -1.2753  -1.2753
    -1.2334  -1.1835  -1.1835  -1.1697  -1.1641  -1.1615  -1.1615  -0.9361
    -0.9361  -0.9012  -0.8971  -0.8971  -0.8763  -0.8763  -0.7714  -0.7473
    -0.7300  -0.6875

          k = 0.0000-0.5774 0.0000 (399688 PWs)   bands (ev):

   -49.3122 -49.3122 -49.3121 -49.3121 -49.3121 -49.3120 -49.3120 -49.3120
   -49.3120 -49.3120 -49.3120 -49.3120 -49.3120 -49.3120 -49.3120 -49.3120
   -49.3120 -49.3120 -48.5239 -48.5239 -48.5238 -48.5238 -48.5237 -48.5237
   -48.5236 -48.5236 -48.5236 -48.5236 -48.5236 -48.5236 -48.5236 -48.5236
   -48.5235 -48.5235 -48.5235 -48.5235 -48.2961 -48.2961 -48.2961 -48.2960
   -48.2960 -48.2960 -48.2960 -48.2960 -48.2960 -48.2960 -48.2960 -48.2960
   -48.2960 -48.2960 -48.2959 -48.2959 -48.2959 -48.2959 -48.2647 -48.2647
   -48.2633 -48.2633 -48.2622 -48.2622 -48.2622 -48.2622 -48.2621 -48.2575
   -48.2575 -48.2568 -48.2568 -48.2562 -48.2560 -48.2560 -48.2560 -48.2560
   -48.2461 -48.2461 -48.2460 -48.2460 -48.2457 -48.2456 -48.2456 -48.2456
   -48.2456 -48.2422 -48.2422 -48.2422 -48.2422 -48.2422 -48.2399 -48.2399
   -48.2383 -48.2383 -48.1468 -48.1467 -48.1467 -48.1467 -48.1467 -48.1467
   -48.1467 -48.1467 -48.1467 -48.1467 -48.1466 -48.1466 -48.1466 -48.1466
   -48.1465 -48.1465 -48.1465 -48.1465  -4.9594  -4.9594  -4.6078  -4.6078
    -4.5393  -4.5393  -4.1873  -4.1873  -3.9054  -3.9054  -3.9054  -3.9054
    -3.7958  -3.7958  -3.5523  -3.5521  -3.4851  -3.4851  -3.4851  -3.4851
    -3.4414  -3.4414  -3.1345  -3.1259  -2.8602  -2.8602  -2.8602  -2.8602
    -2.8570  -2.8570  -2.7446  -2.7446  -2.7446  -2.7446  -2.4936  -2.4936
    -2.4247  -2.4247  -2.4247  -2.4247  -2.3972  -2.3694  -1.9265  -1.9265
    -1.9264  -1.9264  -1.8891  -1.8891  -1.8220  -1.8220  -1.8220  -1.8220
    -1.6605  -1.6605  -1.6605  -1.6605  -1.5684  -1.5634  -1.5634  -1.5251
    -1.5251  -1.5197  -1.5197  -1.4615  -1.4615  -1.4615  -1.4615  -1.3363
    -1.2913  -1.1010  -1.1010  -1.0768  -1.0768  -1.0313  -1.0313  -1.0313
    -1.0313  -0.8369  -0.8369  -0.7875  -0.7628  -0.7628  -0.7463  -0.7463
    -0.7463  -0.7463

          k = 0.2500-0.7217 0.0000 (399610 PWs)   bands (ev):

   -49.3122 -49.3121 -49.3121 -49.3121 -49.3121 -49.3121 -49.3121 -49.3120
   -49.3120 -49.3120 -49.3120 -49.3120 -49.3120 -49.3120 -49.3120 -49.3120
   -49.3119 -49.3119 -48.5240 -48.5238 -48.5237 -48.5237 -48.5237 -48.5237
   -48.5236 -48.5236 -48.5236 -48.5236 -48.5236 -48.5236 -48.5236 -48.5236
   -48.5235 -48.5235 -48.5235 -48.5235 -48.2961 -48.2961 -48.2961 -48.2960
   -48.2960 -48.2960 -48.2960 -48.2960 -48.2960 -48.2960 -48.2960 -48.2960
   -48.2959 -48.2959 -48.2959 -48.2959 -48.2959 -48.2959 -48.2649 -48.2640
   -48.2640 -48.2625 -48.2625 -48.2622 -48.2622 -48.2622 -48.2620 -48.2577
   -48.2572 -48.2572 -48.2563 -48.2563 -48.2561 -48.2561 -48.2560 -48.2560
   -48.2461 -48.2460 -48.2460 -48.2458 -48.2458 -48.2456 -48.2456 -48.2455
   -48.2454 -48.2428 -48.2423 -48.2422 -48.2422 -48.2411 -48.2411 -48.2390
   -48.2390 -48.2380 -48.1468 -48.1468 -48.1468 -48.1468 -48.1468 -48.1467
   -48.1466 -48.1466 -48.1466 -48.1466 -48.1466 -48.1466 -48.1465 -48.1465
   -48.1465 -48.1465 -48.1464 -48.1464  -5.0033  -4.8275  -4.8275  -4.5833
    -4.4073  -4.4073  -4.3002  -4.3002  -3.9500  -3.8795  -3.8795  -3.8402
    -3.7722  -3.7722  -3.6628  -3.6628  -3.5291  -3.4257  -3.4256  -3.3578
    -3.3577  -3.2382  -3.2382  -3.1330  -3.1330  -3.0084  -2.9971  -2.9028
    -2.8348  -2.8348  -2.7849  -2.7200  -2.7200  -2.5897  -2.5897  -2.4112
    -2.4091  -2.2725  -2.2364  -2.2319  -2.2319  -2.1723  -2.1723  -2.0901
    -2.0901  -1.9823  -1.9761  -1.9733  -1.9327  -1.8138  -1.8009  -1.8009
    -1.7599  -1.7599  -1.7578  -1.7578  -1.6637  -1.6637  -1.5183  -1.4872
    -1.4872  -1.4223  -1.3342  -1.3342  -1.3049  -1.3049  -1.2520  -1.2304
    -1.2014  -1.1999  -1.1999  -1.1960  -1.1960  -1.0367  -1.0367  -1.0024
    -1.0024  -0.9458  -0.8474  -0.8474  -0.8339  -0.7769  -0.7769  -0.7700
    -0.7069  -0.7069

     the Fermi energy is    -1.7197 ev

!    total energy              =   -1555.07836206 Ry
     estimated scf accuracy    <          4.3E-11 Ry
     smearing contrib. (-TS)   =      -0.01214107 Ry
     internal energy E=F+TS    =   -1555.06622099 Ry

     The total energy is F=E-TS. E is the sum of the following terms:
     one-electron contribution =  -14026.06890689 Ry
     hartree contribution      =    6847.08374269 Ry
     xc contribution           =    -359.07126469 Ry
     ewald contribution        =    5982.99020790 Ry

     convergence has been achieved in  18 iterations

     Forces acting on atoms (cartesian axes, Ry/au):

     atom    1 type  1   force =     0.00000000    0.00000000   -0.00019987
     atom    2 type  1   force =    -0.00000004   -0.00000002    0.00016471
     atom    3 type  1   force =    -0.00000007   -0.00000004   -0.00012643
     atom    4 type  1   force =     0.00000000    0.00000000    0.00095426
     atom    5 type  1   force =    -0.00000015   -0.00000008   -0.00068556
     atom    6 type  1   force =    -0.00000014   -0.00000008   -0.00043202
     atom    7 type  1   force =    -0.00000009   -0.00000009    0.00043204
     atom    8 type  1   force =    -0.00000012   -0.00000007    0.00068562
     atom    9 type  1   force =    -0.00000015   -0.00000009   -0.00095434
     atom   10 type  1   force =     0.00000000    0.00000000    0.00012645
     atom   11 type  1   force =    -0.00000008   -0.00000004   -0.00016475
     atom   12 type  1   force =    -0.00000001   -0.00000001    0.00020013
     atom   13 type  1   force =    -0.00000003   -0.00000003   -0.00020001
     atom   14 type  1   force =     0.00000001   -0.00000001    0.00016474
     atom   15 type  1   force =     0.00000000    0.00000008   -0.00012643
     atom   16 type  1   force =    -0.00000003    0.00000011    0.00095436
     atom   17 type  1   force =    -0.00000010    0.00000006   -0.00068566
     atom   18 type  1   force =     0.00000000    0.00000017   -0.00043202
     atom   19 type  1   force =     0.00000004    0.00000012    0.00043204
     atom   20 type  1   force =    -0.00000007    0.00000004    0.00068568
     atom   21 type  1   force =     0.00000000    0.00000018   -0.00095434
     atom   22 type  1   force =    -0.00000002    0.00000009    0.00012639
     atom   23 type  1   force =    -0.00000007    0.00000004   -0.00016473
     atom   24 type  1   force =     0.00000000    0.00000001    0.00020013
     atom   25 type  1   force =     0.00000001    0.00000004   -0.00020001
     atom   26 type  1   force =     0.00000000    0.00000004    0.00016471
     atom   27 type  1   force =    -0.00000002    0.00000001   -0.00012639
     atom   28 type  1   force =    -0.00000011   -0.00000003    0.00095436
     atom   29 type  1   force =     0.00000000    0.00000017   -0.00068556
     atom   30 type  1   force =    -0.00000012    0.00000007   -0.00043205
     atom   31 type  1   force =     0.00000000    0.00000000    0.00043202
     atom   32 type  1   force =     0.00000000    0.00000014    0.00068562
     atom   33 type  1   force =    -0.00000009    0.00000005   -0.00095441
     atom   34 type  1   force =    -0.00000009   -0.00000003    0.00012639
     atom   35 type  1   force =     0.00000000    0.00000009   -0.00016475
     atom   36 type  1   force =    -0.00000003    0.00000002    0.00020000
     atom   37 type  1   force =    -0.00000004   -0.00000001   -0.00020001
     atom   38 type  1   force =     0.00000000    0.00000002    0.00016474
     atom   39 type  1   force =     0.00000007   -0.00000004   -0.00012643
     atom   40 type  1   force =     0.00000009   -0.00000008    0.00095436
     atom   41 type  1   force =     0.00000000   -0.00000011   -0.00068566
     atom   42 type  1   force =     0.00000014   -0.00000008   -0.00043202
     atom   43 type  1   force =     0.00000000    0.00000000    0.00043205
     atom   44 type  1   force =     0.00000000   -0.00000008    0.00068568
     atom   45 type  1   force =     0.00000015   -0.00000009   -0.00095434
     atom   46 type  1   force =     0.00000007   -0.00000006    0.00012639
     atom   47 type  1   force =     0.00000000   -0.00000008   -0.00016473
     atom   48 type  1   force =     0.00000001   -0.00000001    0.00020013
     atom   49 type  1   force =     0.00000000    0.00000000   -0.00020000
     atom   50 type  1   force =    -0.00000001   -0.00000001    0.00016474
     atom   51 type  1   force =    -0.00000005   -0.00000003   -0.00012643
     atom   52 type  1   force =     0.00000000    0.00000000    0.00095431
     atom   53 type  1   force =     0.00000010    0.00000006   -0.00068566
     atom   54 type  1   force =    -0.00000004   -0.00000002   -0.00043204
     atom   55 type  1   force =    -0.00000004    0.00000012    0.00043204
     atom   56 type  1   force =     0.00000007    0.00000004    0.00068568
     atom   57 type  1   force =     0.00000000    0.00000000   -0.00095438
     atom   58 type  1   force =     0.00000000    0.00000000    0.00012639
     atom   59 type  1   force =     0.00000007    0.00000004   -0.00016473
     atom   60 type  1   force =    -0.00000002   -0.00000001    0.00020005
     atom   61 type  1   force =    -0.00000001    0.00000004   -0.00020001
     atom   62 type  1   force =    -0.00000013    0.00000007    0.00016468
     atom   63 type  1   force =     0.00000000    0.00000006   -0.00012643
     atom   64 type  1   force =     0.00000011   -0.00000003    0.00095436
     atom   65 type  1   force =    -0.00000010    0.00000006   -0.00068568
     atom   66 type  1   force =     0.00000000    0.00000005   -0.00043204
     atom   67 type  1   force =    -0.00000012   -0.00000003    0.00043204
     atom   68 type  1   force =    -0.00000009    0.00000005    0.00068572
     atom   69 type  1   force =     0.00000000   -0.00000000   -0.00095438
     atom   70 type  1   force =     0.00000009   -0.00000003    0.00012639
     atom   71 type  1   force =    -0.00000002    0.00000001   -0.00016481
     atom   72 type  1   force =     0.00000000    0.00000002    0.00020005
     atom   73 type  1   force =     0.00000004   -0.00000001   -0.00020001
     atom   74 type  1   force =     0.00000004   -0.00000002    0.00016471
     atom   75 type  1   force =     0.00000000   -0.00000003   -0.00012639
     atom   76 type  1   force =    -0.00000009   -0.00000008    0.00095436
     atom   77 type  1   force =     0.00000015   -0.00000008   -0.00068556
     atom   78 type  1   force =     0.00000000   -0.00000013   -0.00043205
     atom   79 type  1   force =     0.00000009   -0.00000009    0.00043204
     atom   80 type  1   force =     0.00000012   -0.00000007    0.00068562
     atom   81 type  1   force =     0.00000000   -0.00000010   -0.00095441
     atom   82 type  1   force =    -0.00000007   -0.00000006    0.00012639
     atom   83 type  1   force =     0.00000008   -0.00000004   -0.00016475
     atom   84 type  1   force =     0.00000000   -0.00000004    0.00020000
     atom   85 type  1   force =     0.00000003   -0.00000003   -0.00020001
     atom   86 type  1   force =     0.00000000   -0.00000015    0.00016468
     atom   87 type  1   force =     0.00000005   -0.00000003   -0.00012643
     atom   88 type  1   force =     0.00000003    0.00000011    0.00095436
     atom   89 type  1   force =     0.00000000   -0.00000012   -0.00068568
     atom   90 type  1   force =     0.00000004   -0.00000002   -0.00043204
     atom   91 type  1   force =    -0.00000000   -0.00000000    0.00043205
     atom   92 type  1   force =     0.00000000   -0.00000011    0.00068572
     atom   93 type  1   force =    -0.00000000    0.00000000   -0.00095438
     atom   94 type  1   force =     0.00000002    0.00000009    0.00012639
     atom   95 type  1   force =     0.00000000   -0.00000002   -0.00016481
     atom   96 type  1   force =     0.00000002   -0.00000001    0.00020005
     atom   97 type  1   force =     0.00000000    0.00000000   -0.00020014
     atom   98 type  1   force =     0.00000013    0.00000007    0.00016468
     atom   99 type  1   force =     0.00000002    0.00000001   -0.00012639
     atom  100 type  1   force =     0.00000000    0.00000000    0.00095453
     atom  101 type  1   force =     0.00000010    0.00000006   -0.00068568
     atom  102 type  1   force =     0.00000012    0.00000007   -0.00043205
     atom  103 type  1   force =     0.00000012   -0.00000003    0.00043204
     atom  104 type  1   force =     0.00000009    0.00000005    0.00068572
     atom  105 type  1   force =     0.00000009    0.00000005   -0.00095441
     atom  106 type  1   force =     0.00000000    0.00000000    0.00012634
     atom  107 type  1   force =     0.00000002    0.00000001   -0.00016481
     atom  108 type  1   force =     0.00000003    0.00000002    0.00020000

     Total force =     0.005451     Total SCF correction =     0.000011


     Computing stress (Cartesian axis) and pressure

          total   stress  (Ry/bohr**3)                   (kbar)     P=       -4.71
  -0.00003534  -0.00000000  -0.00000000           -5.20       -0.00       -0.00
  -0.00000000  -0.00003534  -0.00000000           -0.00       -5.20       -0.00
   0.00000000   0.00000000  -0.00002531            0.00        0.00       -3.72

     Energy error            =      3.9E-04 Ry
     Gradient error          =      9.5E-04 Ry/Bohr

     number of scf cycles    =  16
     number of bfgs steps    =  15

     energy             old  =   -1555.0779720169 Ry
     energy             new  =   -1555.0783620643 Ry

     CASE: energy            _new < energy            _old

     new trust radius        =       0.0016180768 bohr
     new conv_thr            =            1.0E-10 Ry


ATOMIC_POSITIONS (angstrom)
Li              -0.0000000000       -0.0000000000       14.9807148084
Li               2.4319637621        1.4040949327       16.1639488520
Li               4.8639248984        2.8081883495       16.8653625722
Li               7.2958834680        4.2122802843       17.9300735045
Li               2.4319663111        1.4040964044       19.0183798800
Li               4.8639274739        2.8081898364       19.9253943953
Li               2.4319649107        4.2122834839       20.9958902379
Li               2.4319660803        1.4040962712       21.9029051614
Li               4.8639272244        2.8081896924       22.9912136946
Li               7.2958834680        4.2122802843       24.0559231407
Li               2.4319645239        1.4040953725       24.7573368251
Li               4.8639271855        2.8081896699       25.9405638427
Li               2.4319652745        4.2122838853       14.9807187649
Li               4.8639236085        5.6163729638       16.1639517968
Li               7.2958834680        7.0204641539       16.8653625722
Li               9.7278460763        8.4245564077       17.9300698588
Li               4.8639249423        5.6163721937       19.0183815747
Li               7.2958834680        7.0204611799       19.9253943953
Li               4.8639214184        8.4245557170       20.9958902379
Li               4.8639251993        5.6163720453       21.9029030763
Li               7.2958834680        7.0204614681       22.9912136946
Li               9.7278446842        8.4245573086       24.0559236180
Li               4.8639252560        5.6163720126       24.7573329465
Li               7.2958834680        7.0204615130       25.9405638427
Li               4.8639212527        8.4245552012       14.9807187649
Li               7.2958834680        9.8286509873       16.1639488520
Li               9.7278465520       11.2327463116       16.8653598270
Li              12.1598101095       12.6368416755       17.9300698588
Li               7.2958834680        9.8286480440       19.0183798800
Li               9.7278479027       11.2327455318       19.9253945714
Li               7.2958834680       12.6368408528       20.9958911568
Li               7.2958834680        9.8286483105       21.9029051614
Li               9.7278465231       11.2327463283       22.9912161673
Li              12.1598086333       12.6368424307       24.0559236180
Li               7.2958834680        9.8286501077       24.7573368251
Li               9.7278477309       11.2327456310       25.9405661257
Li               4.8639274898        0.0000017663       14.9807187649
Li               7.2958834680        1.4040949252       16.1639517968
Li               9.7278420377        2.8081883495       16.8653625722
Li              12.1598029029        4.2122836224       17.9300698588
Li               7.2958834680        1.4040964654       19.0183815747
Li               9.7278394622        2.8081898364       19.9253943953
Li               7.2958834680        4.2122802843       20.9958926645
Li               7.2958834680        1.4040967620       21.9029030763
Li               9.7278397117        2.8081896924       22.9912136946
Li              12.1598029870        4.2122819663       24.0559236180
Li               7.2958834680        1.4040968276       24.7573329465
Li               9.7278397506        2.8081896699       25.9405638427
Li               7.2958834680        4.2122802843       14.9807200296
Li               9.7278433276        5.6163729638       16.1639517968
Li              12.1598059293        7.0204672265       16.8653590129
Li              14.5917669361        8.4245605685       17.9300688993
Li               9.7278419938        5.6163721937       19.0183815747
Li              12.1598051143        7.0204667560       19.9253917659
Li               9.7278455177        8.4245557170       20.9958902379
Li               9.7278417368        5.6163720453       21.9029030763
Li              12.1598041494        7.0204661989       22.9912129339
Li              14.5917669361        8.4245605685       24.0559213060
Li               9.7278416801        5.6163720126       24.7573329465
Li              12.1598033261        7.0204657236       25.9405638082
Li               9.7278456834        8.4245552012       14.9807187649
Li              12.1598082102        9.8286525936       16.1639486672
Li              14.5917669361       11.2327472525       16.8653590129
Li              17.0237237627       12.6368416755       17.9300698588
Li              12.1598086772        9.8286523239       19.0183792077
Li              14.5917669361       11.2327481934       19.9253917659
Li              12.1598104284       12.6368425046       20.9958902379
Li              12.1598077280        9.8286528720       21.9029012043
Li              14.5917669361       11.2327493077       22.9912129339
Li              17.0237252389       12.6368424307       24.0559236180
Li              12.1598065914        9.8286535282       24.7573340414
Li              14.5917669361       11.2327502583       25.9405638082
Li               9.7278394463        0.0000017663       14.9807187649
Li              12.1598031740        1.4040949327       16.1639488520
Li              14.5917669361        2.8081890824       16.8653598270
Li               2.4319640332        4.2122836224       17.9300698588
Li              12.1598006250        1.4040964044       19.0183798800
Li              14.5917669361        2.8081906420       19.9253945714
Li              12.1598020254        4.2122834839       20.9958902379
Li              12.1598008558        1.4040962712       21.9029051614
Li              14.5917669361        2.8081890490       22.9912161673
Li              17.0237308852        4.2122819663       24.0559236180
Li              12.1598024122        1.4040953725       24.7573368251
Li              14.5917669361        2.8081904436       25.9405661257
Li              12.1598016616        4.2122838853       14.9807187649
Li              14.5917669361        5.6163765184       16.1639486672
Li              17.0237279429        7.0204672265       16.8653590129
Li              19.4556877959        8.4245564077       17.9300698588
Li              14.5917669361        5.6163770576       19.0183792077
Li              17.0237287579        7.0204667560       19.9253917659
Li              14.5917669361        8.4245605685       20.9958877093
Li              14.5917669361        5.6163759615       21.9029012043
Li              17.0237297228        7.0204661989       22.9912129339
Li              19.4556891880        8.4245573086       24.0559236180
Li              14.5917669361        5.6163746491       24.7573340414
Li              17.0237305461        7.0204657236       25.9405638082
Li              14.5917669361        8.4245605685       14.9807191492
Li              17.0237256620        9.8286525936       16.1639486672
Li              19.4556873202       11.2327463116       16.8653598270
Li              21.8876504041       12.6368408528       17.9300660681
Li              17.0237251950        9.8286523239       19.0183792077
Li              19.4556859695       11.2327455318       19.9253945714
Li              17.0237234438       12.6368425046       20.9958902379
Li              17.0237261442        9.8286528720       21.9029012043
Li              19.4556873491       11.2327463283       22.9912161673
Li              21.8876504041       12.6368408528       24.0559275781
Li              17.0237272808        9.8286535282       24.7573340414
Li              19.4556861413       11.2327456310       25.9405661257



     Writing config-only to output data dir /scratch/deepanthpcu/ml/tmp/Lislab/Lislab.save/ :
     XML data file
     NEW-OLD atomic charge density approx. for the potential

     total cpu time spent up to now is     4137.1 secs

     per-process dynamical memory:   119.1 Mb

     Self-consistent Calculation

     iteration #  1     ecut=    60.00 Ry     beta= 0.30
     Davidson diagonalization with overlap
     ethr =  1.00E-06,  avg # of iterations =  2.0

     Threshold (ethr) on eigenvalues was too large:
     Diagonalizing with lowered threshold

     Davidson diagonalization with overlap
     ethr =  3.99E-10,  avg # of iterations =  5.2

     total cpu time spent up to now is     4173.4 secs

     total energy              =   -1555.07839240 Ry
     estimated scf accuracy    <       0.00000333 Ry

     iteration #  2     ecut=    60.00 Ry     beta= 0.30
     Davidson diagonalization with overlap
     ethr =  1.03E-09,  avg # of iterations =  4.8

     total cpu time spent up to now is     4189.0 secs

     total energy              =   -1555.07839145 Ry
     estimated scf accuracy    <       0.00003149 Ry

     iteration #  3     ecut=    60.00 Ry     beta= 0.30
     Davidson diagonalization with overlap
     ethr =  1.03E-09,  avg # of iterations =  4.2

     total cpu time spent up to now is     4203.8 secs

     total energy              =   -1555.07839315 Ry
     estimated scf accuracy    <       0.00000130 Ry

     iteration #  4     ecut=    60.00 Ry     beta= 0.30
     Davidson diagonalization with overlap
     ethr =  4.01E-10,  avg # of iterations =  4.0

     total cpu time spent up to now is     4217.5 secs

     total energy              =   -1555.07839269 Ry
     estimated scf accuracy    <       0.00003205 Ry

     iteration #  5     ecut=    60.00 Ry     beta= 0.30
     Davidson diagonalization with overlap
     ethr =  4.01E-10,  avg # of iterations =  3.2

     total cpu time spent up to now is     4231.0 secs

     total energy              =   -1555.07839324 Ry
     estimated scf accuracy    <       0.00000004 Ry

     iteration #  6     ecut=    60.00 Ry     beta= 0.30
     Davidson diagonalization with overlap
     ethr =  1.37E-11,  avg # of iterations =  5.2

     total cpu time spent up to now is     4247.2 secs

     total energy              =   -1555.07839322 Ry
     estimated scf accuracy    <       0.00000004 Ry

     iteration #  7     ecut=    60.00 Ry     beta= 0.30
     Davidson diagonalization with overlap
     ethr =  1.23E-11,  avg # of iterations =  1.2

     total cpu time spent up to now is     4259.4 secs

     total energy              =   -1555.07839320 Ry
     estimated scf accuracy    <          9.9E-09 Ry

     iteration #  8     ecut=    60.00 Ry     beta= 0.30
     Davidson diagonalization with overlap
     ethr =  3.04E-12,  avg # of iterations =  4.2

     total cpu time spent up to now is     4274.4 secs

     total energy              =   -1555.07839318 Ry
     estimated scf accuracy    <          9.3E-09 Ry

     iteration #  9     ecut=    60.00 Ry     beta= 0.30
     Davidson diagonalization with overlap
     ethr =  2.86E-12,  avg # of iterations =  1.0

     total cpu time spent up to now is     4286.7 secs

     total energy              =   -1555.07839317 Ry
     estimated scf accuracy    <       0.00000001 Ry

     iteration # 10     ecut=    60.00 Ry     beta= 0.30
     Davidson diagonalization with overlap
     ethr =  2.86E-12,  avg # of iterations =  1.0

     total cpu time spent up to now is     4298.8 secs

     total energy              =   -1555.07839317 Ry
     estimated scf accuracy    <          2.3E-09 Ry

     iteration # 11     ecut=    60.00 Ry     beta= 0.30
     Davidson diagonalization with overlap
     ethr =  7.04E-13,  avg # of iterations =  4.2

     total cpu time spent up to now is     4313.6 secs

     total energy              =   -1555.07839317 Ry
     estimated scf accuracy    <          1.5E-09 Ry

     iteration # 12     ecut=    60.00 Ry     beta= 0.30
     Davidson diagonalization with overlap
     ethr =  4.66E-13,  avg # of iterations =  1.0

     total cpu time spent up to now is     4325.7 secs

     total energy              =   -1555.07839317 Ry
     estimated scf accuracy    <          1.5E-10 Ry

     iteration # 13     ecut=    60.00 Ry     beta= 0.30
     Davidson diagonalization with overlap
     ethr =  1.00E-13,  avg # of iterations =  2.0

     total cpu time spent up to now is     4338.5 secs

     End of self-consistent calculation

          k = 0.0000 0.0000 0.0000 (399281 PWs)   bands (ev):

   -49.3125 -49.3125 -49.3125 -49.3125 -49.3125 -49.3124 -49.3124 -49.3124
   -49.3124 -49.3124 -49.3124 -49.3124 -49.3124 -49.3124 -49.3124 -49.3124
   -49.3124 -49.3124 -48.5248 -48.5244 -48.5244 -48.5243 -48.5243 -48.5243
   -48.5243 -48.5243 -48.5243 -48.5243 -48.5243 -48.5243 -48.5243 -48.5243
   -48.5243 -48.5243 -48.5243 -48.5243 -48.2964 -48.2964 -48.2964 -48.2964
   -48.2964 -48.2963 -48.2963 -48.2963 -48.2963 -48.2963 -48.2963 -48.2963
   -48.2963 -48.2963 -48.2963 -48.2963 -48.2963 -48.2961 -48.2655 -48.2630
   -48.2630 -48.2630 -48.2630 -48.2630 -48.2630 -48.2620 -48.2620 -48.2581
   -48.2567 -48.2567 -48.2567 -48.2567 -48.2567 -48.2567 -48.2560 -48.2560
   -48.2460 -48.2458 -48.2458 -48.2458 -48.2458 -48.2458 -48.2458 -48.2442
   -48.2442 -48.2442 -48.2442 -48.2404 -48.2404 -48.2404 -48.2404 -48.2404
   -48.2404 -48.2369 -48.1472 -48.1472 -48.1472 -48.1472 -48.1470 -48.1470
   -48.1470 -48.1470 -48.1470 -48.1470 -48.1469 -48.1469 -48.1469 -48.1469
   -48.1469 -48.1469 -48.1469 -48.1464  -5.1352  -4.7153  -4.4318  -4.4318
    -4.4318  -4.4318  -4.4318  -4.4318  -4.0112  -4.0112  -4.0112  -4.0112
    -4.0112  -4.0112  -3.9736  -3.2654  -3.2654  -3.2654  -3.2654  -3.2654
    -3.2654  -3.0480  -3.0480  -3.0480  -3.0480  -3.0452  -3.0452  -3.0409
    -2.6264  -2.6264  -2.6264  -2.6264  -2.6032  -2.6032  -2.3448  -2.3448
    -2.3448  -2.3448  -2.3448  -2.3448  -2.2968  -2.2968  -2.2968  -2.2968
    -2.2968  -2.2968  -2.0665  -1.8952  -1.8952  -1.8952  -1.8952  -1.8952
    -1.8952  -1.8777  -1.8777  -1.8777  -1.8777  -1.8168  -1.8168  -1.4411
    -1.4411  -1.4411  -1.4411  -1.4411  -1.4411  -1.1451  -1.1451  -1.1451
    -1.1451  -1.1451  -1.1451  -1.0603  -1.0603  -1.0603  -1.0603  -1.0603
    -1.0603  -1.0035  -1.0035  -1.0035  -1.0035  -0.9385  -0.6759  -0.6759
    -0.5575  -0.5575

          k = 0.0000 0.2887 0.0000 (399667 PWs)   bands (ev):

   -49.3126 -49.3126 -49.3126 -49.3126 -49.3126 -49.3125 -49.3125 -49.3125
   -49.3125 -49.3125 -49.3125 -49.3125 -49.3124 -49.3124 -49.3124 -49.3124
   -49.3124 -49.3124 -48.5248 -48.5246 -48.5245 -48.5244 -48.5244 -48.5244
   -48.5244 -48.5244 -48.5244 -48.5244 -48.5244 -48.5243 -48.5243 -48.5243
   -48.5243 -48.5243 -48.5243 -48.5243 -48.2965 -48.2965 -48.2965 -48.2965
   -48.2965 -48.2965 -48.2964 -48.2964 -48.2964 -48.2964 -48.2964 -48.2964
   -48.2964 -48.2963 -48.2963 -48.2963 -48.2963 -48.2963 -48.2654 -48.2639
   -48.2634 -48.2634 -48.2627 -48.2627 -48.2625 -48.2621 -48.2621 -48.2581
   -48.2572 -48.2569 -48.2569 -48.2565 -48.2565 -48.2565 -48.2561 -48.2561
   -48.2461 -48.2460 -48.2459 -48.2459 -48.2458 -48.2458 -48.2457 -48.2450
   -48.2450 -48.2433 -48.2433 -48.2416 -48.2412 -48.2412 -48.2400 -48.2400
   -48.2394 -48.2374 -48.1473 -48.1473 -48.1472 -48.1472 -48.1472 -48.1471
   -48.1471 -48.1471 -48.1471 -48.1470 -48.1470 -48.1470 -48.1470 -48.1469
   -48.1469 -48.1468 -48.1468 -48.1468  -5.0913  -4.7398  -4.6714  -4.5640
    -4.5640  -4.3194  -4.2121  -4.2121  -4.1433  -4.1433  -4.0356  -3.9292
    -3.7914  -3.7914  -3.6155  -3.5744  -3.5153  -3.5153  -3.3975  -3.3975
    -3.1008  -3.1008  -3.0464  -3.0464  -2.9948  -2.9910  -2.9910  -2.9796
    -2.8754  -2.6338  -2.6338  -2.6297  -2.5929  -2.5929  -2.5464  -2.4948
    -2.4948  -2.4500  -2.4500  -2.3373  -2.3373  -2.2145  -2.2145  -2.0862
    -2.0862  -2.0672  -2.0672  -2.0218  -1.9562  -1.9445  -1.9445  -1.8156
    -1.8156  -1.7896  -1.6810  -1.5896  -1.5196  -1.5196  -1.5162  -1.5162
    -1.5099  -1.5099  -1.4195  -1.4195  -1.3787  -1.3787  -1.2755  -1.2755
    -1.2337  -1.1840  -1.1840  -1.1697  -1.1647  -1.1618  -1.1618  -0.9367
    -0.9367  -0.9014  -0.8970  -0.8970  -0.8765  -0.8765  -0.7716  -0.7475
    -0.7299  -0.6874

          k = 0.0000-0.5774 0.0000 (399688 PWs)   bands (ev):

   -49.3126 -49.3126 -49.3126 -49.3126 -49.3125 -49.3125 -49.3125 -49.3125
   -49.3125 -49.3125 -49.3125 -49.3125 -49.3125 -49.3125 -49.3125 -49.3124
   -49.3124 -49.3124 -48.5247 -48.5247 -48.5246 -48.5246 -48.5244 -48.5244
   -48.5244 -48.5243 -48.5243 -48.5243 -48.5243 -48.5243 -48.5243 -48.5243
   -48.5243 -48.5243 -48.5243 -48.5243 -48.2965 -48.2965 -48.2965 -48.2964
   -48.2964 -48.2964 -48.2964 -48.2964 -48.2964 -48.2964 -48.2964 -48.2964
   -48.2964 -48.2964 -48.2963 -48.2963 -48.2963 -48.2963 -48.2649 -48.2649
   -48.2635 -48.2635 -48.2624 -48.2624 -48.2624 -48.2624 -48.2623 -48.2577
   -48.2577 -48.2570 -48.2570 -48.2564 -48.2562 -48.2562 -48.2562 -48.2562
   -48.2461 -48.2461 -48.2459 -48.2459 -48.2456 -48.2455 -48.2455 -48.2455
   -48.2455 -48.2421 -48.2421 -48.2421 -48.2421 -48.2421 -48.2399 -48.2399
   -48.2383 -48.2383 -48.1472 -48.1471 -48.1471 -48.1471 -48.1471 -48.1471
   -48.1471 -48.1471 -48.1471 -48.1471 -48.1470 -48.1470 -48.1470 -48.1470
   -48.1469 -48.1469 -48.1469 -48.1469  -4.9597  -4.9597  -4.6081  -4.6081
    -4.5395  -4.5395  -4.1874  -4.1874  -3.9057  -3.9057  -3.9057  -3.9057
    -3.7961  -3.7961  -3.5525  -3.5524  -3.4852  -3.4852  -3.4852  -3.4852
    -3.4416  -3.4416  -3.1346  -3.1260  -2.8604  -2.8604  -2.8604  -2.8604
    -2.8572  -2.8572  -2.7447  -2.7447  -2.7447  -2.7447  -2.4939  -2.4939
    -2.4248  -2.4248  -2.4248  -2.4248  -2.3974  -2.3694  -1.9267  -1.9267
    -1.9267  -1.9267  -1.8896  -1.8896  -1.8222  -1.8222  -1.8222  -1.8222
    -1.6608  -1.6608  -1.6608  -1.6608  -1.5688  -1.5638  -1.5638  -1.5254
    -1.5254  -1.5200  -1.5200  -1.4615  -1.4615  -1.4615  -1.4615  -1.3368
    -1.2915  -1.1010  -1.1010  -1.0768  -1.0768  -1.0319  -1.0319  -1.0319
    -1.0319  -0.8371  -0.8371  -0.7874  -0.7631  -0.7631  -0.7463  -0.7463
    -0.7463  -0.7463

          k = 0.2500-0.7217 0.0000 (399610 PWs)   bands (ev):

   -49.3126 -49.3126 -49.3125 -49.3125 -49.3125 -49.3125 -49.3125 -49.3125
   -49.3125 -49.3125 -49.3125 -49.3125 -49.3125 -49.3125 -49.3124 -49.3124
   -49.3124 -49.3124 -48.5247 -48.5245 -48.5245 -48.5245 -48.5245 -48.5245
   -48.5244 -48.5244 -48.5243 -48.5243 -48.5243 -48.5243 -48.5243 -48.5243
   -48.5243 -48.5243 -48.5242 -48.5242 -48.2965 -48.2965 -48.2964 -48.2964
   -48.2964 -48.2964 -48.2964 -48.2964 -48.2964 -48.2964 -48.2964 -48.2964
   -48.2963 -48.2963 -48.2963 -48.2963 -48.2963 -48.2963 -48.2650 -48.2642
   -48.2642 -48.2627 -48.2627 -48.2624 -48.2624 -48.2624 -48.2622 -48.2579
   -48.2574 -48.2574 -48.2565 -48.2565 -48.2563 -48.2563 -48.2562 -48.2562
   -48.2460 -48.2460 -48.2460 -48.2457 -48.2457 -48.2455 -48.2455 -48.2454
   -48.2453 -48.2427 -48.2423 -48.2421 -48.2421 -48.2410 -48.2410 -48.2389
   -48.2389 -48.2380 -48.1472 -48.1472 -48.1472 -48.1472 -48.1472 -48.1471
   -48.1470 -48.1470 -48.1470 -48.1470 -48.1470 -48.1470 -48.1469 -48.1469
   -48.1469 -48.1469 -48.1468 -48.1468  -5.0036  -4.8278  -4.8278  -4.5835
    -4.4074  -4.4074  -4.3005  -4.3005  -3.9503  -3.8796  -3.8796  -3.8404
    -3.7725  -3.7725  -3.6630  -3.6630  -3.5292  -3.4260  -3.4259  -3.3578
    -3.3578  -3.2385  -3.2385  -3.1332  -3.1332  -3.0084  -2.9972  -2.9030
    -2.8348  -2.8348  -2.7850  -2.7202  -2.7202  -2.5898  -2.5898  -2.4115
    -2.4095  -2.2727  -2.2364  -2.2322  -2.2322  -2.1726  -2.1726  -2.0902
    -2.0902  -1.9824  -1.9762  -1.9736  -1.9332  -1.8141  -1.8009  -1.8009
    -1.7604  -1.7604  -1.7580  -1.7580  -1.6641  -1.6641  -1.5183  -1.4875
    -1.4875  -1.4228  -1.3342  -1.3342  -1.3052  -1.3052  -1.2522  -1.2303
    -1.2019  -1.2004  -1.2004  -1.1962  -1.1962  -1.0370  -1.0370  -1.0024
    -1.0024  -0.9463  -0.8476  -0.8476  -0.8341  -0.7769  -0.7769  -0.7700
    -0.7071  -0.7071

     the Fermi energy is    -1.7199 ev

!    total energy              =   -1555.07839317 Ry
     estimated scf accuracy    <          2.5E-11 Ry
     smearing contrib. (-TS)   =      -0.01213948 Ry
     internal energy E=F+TS    =   -1555.06625369 Ry

     The total energy is F=E-TS. E is the sum of the following terms:
     one-electron contribution =  -14026.03496951 Ry
     hartree contribution      =    6847.06253348 Ry
     xc contribution           =    -359.07031927 Ry
     ewald contribution        =    5982.97650161 Ry

     convergence has been achieved in  13 iterations

     Forces acting on atoms (cartesian axes, Ry/au):

     atom    1 type  1   force =     0.00000000    0.00000000   -0.00018360
     atom    2 type  1   force =    -0.00000005   -0.00000003    0.00019410
     atom    3 type  1   force =    -0.00000008   -0.00000004   -0.00014086
     atom    4 type  1   force =    -0.00000000   -0.00000000    0.00090892
     atom    5 type  1   force =    -0.00000015   -0.00000009   -0.00069801
     atom    6 type  1   force =    -0.00000015   -0.00000009   -0.00040221
     atom    7 type  1   force =    -0.00000010   -0.00000008    0.00040224
     atom    8 type  1   force =    -0.00000013   -0.00000008    0.00069807
     atom    9 type  1   force =    -0.00000016   -0.00000009   -0.00090899
     atom   10 type  1   force =    -0.00000000   -0.00000000    0.00014088
     atom   11 type  1   force =    -0.00000008   -0.00000005   -0.00019413
     atom   12 type  1   force =    -0.00000002   -0.00000001    0.00018384
     atom   13 type  1   force =    -0.00000005   -0.00000002   -0.00018374
     atom   14 type  1   force =    -0.00000001    0.00000000    0.00019412
     atom   15 type  1   force =     0.00000000    0.00000009   -0.00014086
     atom   16 type  1   force =    -0.00000000    0.00000012    0.00090901
     atom   17 type  1   force =    -0.00000011    0.00000006   -0.00069810
     atom   18 type  1   force =     0.00000000    0.00000018   -0.00040221
     atom   19 type  1   force =     0.00000002    0.00000013    0.00040224
     atom   20 type  1   force =    -0.00000009    0.00000005    0.00069813
     atom   21 type  1   force =     0.00000000    0.00000018   -0.00090899
     atom   22 type  1   force =    -0.00000001    0.00000009    0.00014082
     atom   23 type  1   force =    -0.00000008    0.00000005   -0.00019411
     atom   24 type  1   force =     0.00000000    0.00000002    0.00018384
     atom   25 type  1   force =    -0.00000000    0.00000005   -0.00018374
     atom   26 type  1   force =     0.00000000    0.00000005    0.00019410
     atom   27 type  1   force =    -0.00000002    0.00000001   -0.00014082
     atom   28 type  1   force =    -0.00000011   -0.00000006    0.00090901
     atom   29 type  1   force =     0.00000000    0.00000018   -0.00069801
     atom   30 type  1   force =    -0.00000011    0.00000006   -0.00040224
     atom   31 type  1   force =     0.00000000    0.00000000    0.00040222
     atom   32 type  1   force =     0.00000000    0.00000015    0.00069807
     atom   33 type  1   force =    -0.00000008    0.00000005   -0.00090907
     atom   34 type  1   force =    -0.00000008   -0.00000004    0.00014082
     atom   35 type  1   force =     0.00000000    0.00000009   -0.00019413
     atom   36 type  1   force =    -0.00000003    0.00000001    0.00018372
     atom   37 type  1   force =    -0.00000004   -0.00000003   -0.00018374
     atom   38 type  1   force =     0.00000000   -0.00000001    0.00019412
     atom   39 type  1   force =     0.00000008   -0.00000004   -0.00014086
     atom   40 type  1   force =     0.00000010   -0.00000007    0.00090901
     atom   41 type  1   force =     0.00000000   -0.00000013   -0.00069810
     atom   42 type  1   force =     0.00000015   -0.00000009   -0.00040221
     atom   43 type  1   force =    -0.00000000   -0.00000000    0.00040225
     atom   44 type  1   force =     0.00000000   -0.00000010    0.00069813
     atom   45 type  1   force =     0.00000016   -0.00000009   -0.00090899
     atom   46 type  1   force =     0.00000007   -0.00000005    0.00014082
     atom   47 type  1   force =     0.00000000   -0.00000009   -0.00019411
     atom   48 type  1   force =     0.00000002   -0.00000001    0.00018384
     atom   49 type  1   force =     0.00000000    0.00000000   -0.00018375
     atom   50 type  1   force =     0.00000001    0.00000000    0.00019412
     atom   51 type  1   force =    -0.00000003   -0.00000002   -0.00014084
     atom   52 type  1   force =     0.00000000    0.00000000    0.00090898
     atom   53 type  1   force =     0.00000011    0.00000006   -0.00069810
     atom   54 type  1   force =    -0.00000002   -0.00000001   -0.00040223
     atom   55 type  1   force =    -0.00000002    0.00000013    0.00040224
     atom   56 type  1   force =     0.00000009    0.00000005    0.00069813
     atom   57 type  1   force =     0.00000002    0.00000001   -0.00090905
     atom   58 type  1   force =     0.00000000    0.00000000    0.00014081
     atom   59 type  1   force =     0.00000008    0.00000005   -0.00019411
     atom   60 type  1   force =    -0.00000001   -0.00000000    0.00018375
     atom   61 type  1   force =     0.00000000    0.00000005   -0.00018374
     atom   62 type  1   force =    -0.00000011    0.00000007    0.00019408
     atom   63 type  1   force =     0.00000000    0.00000003   -0.00014084
     atom   64 type  1   force =     0.00000011   -0.00000006    0.00090901
     atom   65 type  1   force =    -0.00000009    0.00000005   -0.00069813
     atom   66 type  1   force =     0.00000000    0.00000002   -0.00040223
     atom   67 type  1   force =    -0.00000012   -0.00000004    0.00040224
     atom   68 type  1   force =    -0.00000008    0.00000005    0.00069817
     atom   69 type  1   force =     0.00000000   -0.00000003   -0.00090905
     atom   70 type  1   force =     0.00000008   -0.00000004    0.00014082
     atom   71 type  1   force =    -0.00000001    0.00000001   -0.00019419
     atom   72 type  1   force =    -0.00000000    0.00000001    0.00018375
     atom   73 type  1   force =     0.00000004   -0.00000003   -0.00018374
     atom   74 type  1   force =     0.00000005   -0.00000003    0.00019410
     atom   75 type  1   force =     0.00000000   -0.00000002   -0.00014082
     atom   76 type  1   force =    -0.00000010   -0.00000007    0.00090901
     atom   77 type  1   force =     0.00000015   -0.00000009   -0.00069801
     atom   78 type  1   force =     0.00000000   -0.00000013   -0.00040224
     atom   79 type  1   force =     0.00000010   -0.00000008    0.00040224
     atom   80 type  1   force =     0.00000013   -0.00000008    0.00069807
     atom   81 type  1   force =     0.00000000   -0.00000009   -0.00090907
     atom   82 type  1   force =    -0.00000007   -0.00000005    0.00014082
     atom   83 type  1   force =     0.00000008   -0.00000005   -0.00019413
     atom   84 type  1   force =     0.00000000   -0.00000003    0.00018372
     atom   85 type  1   force =     0.00000005   -0.00000002   -0.00018374
     atom   86 type  1   force =     0.00000000   -0.00000013    0.00019408
     atom   87 type  1   force =     0.00000003   -0.00000002   -0.00014084
     atom   88 type  1   force =     0.00000000    0.00000012    0.00090901
     atom   89 type  1   force =     0.00000000   -0.00000010   -0.00069813
     atom   90 type  1   force =     0.00000002   -0.00000001   -0.00040223
     atom   91 type  1   force =     0.00000000    0.00000000    0.00040225
     atom   92 type  1   force =     0.00000000   -0.00000009    0.00069817
     atom   93 type  1   force =    -0.00000002    0.00000001   -0.00090905
     atom   94 type  1   force =     0.00000001    0.00000009    0.00014082
     atom   95 type  1   force =     0.00000000   -0.00000001   -0.00019419
     atom   96 type  1   force =     0.00000001   -0.00000000    0.00018375
     atom   97 type  1   force =     0.00000000    0.00000000   -0.00018385
     atom   98 type  1   force =     0.00000011    0.00000007    0.00019408
     atom   99 type  1   force =     0.00000002    0.00000001   -0.00014082
     atom  100 type  1   force =    -0.00000000   -0.00000000    0.00090918
     atom  101 type  1   force =     0.00000009    0.00000005   -0.00069813
     atom  102 type  1   force =     0.00000011    0.00000006   -0.00040224
     atom  103 type  1   force =     0.00000012   -0.00000004    0.00040224
     atom  104 type  1   force =     0.00000008    0.00000005    0.00069817
     atom  105 type  1   force =     0.00000008    0.00000005   -0.00090907
     atom  106 type  1   force =    -0.00000000   -0.00000000    0.00014077
     atom  107 type  1   force =     0.00000001    0.00000001   -0.00019419
     atom  108 type  1   force =     0.00000003    0.00000001    0.00018372

     Total force =     0.005311     Total SCF correction =     0.000008


     Computing stress (Cartesian axis) and pressure

          total   stress  (Ry/bohr**3)                   (kbar)     P=       -4.71
  -0.00003535  -0.00000000   0.00000000           -5.20       -0.00        0.00
  -0.00000000  -0.00003535   0.00000000           -0.00       -5.20        0.00
   0.00000000   0.00000000  -0.00002534            0.00        0.00       -3.73

     Energy error            =      3.1E-05 Ry
     Gradient error          =      9.1E-04 Ry/Bohr

     bfgs converged in  17 scf cycles and  16 bfgs steps
     (criteria: energy <  1.0E-04 Ry, force <  1.0E-03 Ry/Bohr)

     End of BFGS Geometry Optimization

     Final energy             =   -1555.0783931706 Ry

     File /scratch/deepanthpcu/ml/tmp/Lislab/Lislab.bfgs deleted, as requested
Begin final coordinates

ATOMIC_POSITIONS (angstrom)
Li              -0.0000000000       -0.0000000000       14.9807148084
Li               2.4319637621        1.4040949327       16.1639488520
Li               4.8639248984        2.8081883495       16.8653625722
Li               7.2958834680        4.2122802843       17.9300735045
Li               2.4319663111        1.4040964044       19.0183798800
Li               4.8639274739        2.8081898364       19.9253943953
Li               2.4319649107        4.2122834839       20.9958902379
Li               2.4319660803        1.4040962712       21.9029051614
Li               4.8639272244        2.8081896924       22.9912136946
Li               7.2958834680        4.2122802843       24.0559231407
Li               2.4319645239        1.4040953725       24.7573368251
Li               4.8639271855        2.8081896699       25.9405638427
Li               2.4319652745        4.2122838853       14.9807187649
Li               4.8639236085        5.6163729638       16.1639517968
Li               7.2958834680        7.0204641539       16.8653625722
Li               9.7278460763        8.4245564077       17.9300698588
Li               4.8639249423        5.6163721937       19.0183815747
Li               7.2958834680        7.0204611799       19.9253943953
Li               4.8639214184        8.4245557170       20.9958902379
Li               4.8639251993        5.6163720453       21.9029030763
Li               7.2958834680        7.0204614681       22.9912136946
Li               9.7278446842        8.4245573086       24.0559236180
Li               4.8639252560        5.6163720126       24.7573329465
Li               7.2958834680        7.0204615130       25.9405638427
Li               4.8639212527        8.4245552012       14.9807187649
Li               7.2958834680        9.8286509873       16.1639488520
Li               9.7278465520       11.2327463116       16.8653598270
Li              12.1598101095       12.6368416755       17.9300698588
Li               7.2958834680        9.8286480440       19.0183798800
Li               9.7278479027       11.2327455318       19.9253945714
Li               7.2958834680       12.6368408528       20.9958911568
Li               7.2958834680        9.8286483105       21.9029051614
Li               9.7278465231       11.2327463283       22.9912161673
Li              12.1598086333       12.6368424307       24.0559236180
Li               7.2958834680        9.8286501077       24.7573368251
Li               9.7278477309       11.2327456310       25.9405661257
Li               4.8639274898        0.0000017663       14.9807187649
Li               7.2958834680        1.4040949252       16.1639517968
Li               9.7278420377        2.8081883495       16.8653625722
Li              12.1598029029        4.2122836224       17.9300698588
Li               7.2958834680        1.4040964654       19.0183815747
Li               9.7278394622        2.8081898364       19.9253943953
Li               7.2958834680        4.2122802843       20.9958926645
Li               7.2958834680        1.4040967620       21.9029030763
Li               9.7278397117        2.8081896924       22.9912136946
Li              12.1598029870        4.2122819663       24.0559236180
Li               7.2958834680        1.4040968276       24.7573329465
Li               9.7278397506        2.8081896699       25.9405638427
Li               7.2958834680        4.2122802843       14.9807200296
Li               9.7278433276        5.6163729638       16.1639517968
Li              12.1598059293        7.0204672265       16.8653590129
Li              14.5917669361        8.4245605685       17.9300688993
Li               9.7278419938        5.6163721937       19.0183815747
Li              12.1598051143        7.0204667560       19.9253917659
Li               9.7278455177        8.4245557170       20.9958902379
Li               9.7278417368        5.6163720453       21.9029030763
Li              12.1598041494        7.0204661989       22.9912129339
Li              14.5917669361        8.4245605685       24.0559213060
Li               9.7278416801        5.6163720126       24.7573329465
Li              12.1598033261        7.0204657236       25.9405638082
Li               9.7278456834        8.4245552012       14.9807187649
Li              12.1598082102        9.8286525936       16.1639486672
Li              14.5917669361       11.2327472525       16.8653590129
Li              17.0237237627       12.6368416755       17.9300698588
Li              12.1598086772        9.8286523239       19.0183792077
Li              14.5917669361       11.2327481934       19.9253917659
Li              12.1598104284       12.6368425046       20.9958902379
Li              12.1598077280        9.8286528720       21.9029012043
Li              14.5917669361       11.2327493077       22.9912129339
Li              17.0237252389       12.6368424307       24.0559236180
Li              12.1598065914        9.8286535282       24.7573340414
Li              14.5917669361       11.2327502583       25.9405638082
Li               9.7278394463        0.0000017663       14.9807187649
Li              12.1598031740        1.4040949327       16.1639488520
Li              14.5917669361        2.8081890824       16.8653598270
Li               2.4319640332        4.2122836224       17.9300698588
Li              12.1598006250        1.4040964044       19.0183798800
Li              14.5917669361        2.8081906420       19.9253945714
Li              12.1598020254        4.2122834839       20.9958902379
Li              12.1598008558        1.4040962712       21.9029051614
Li              14.5917669361        2.8081890490       22.9912161673
Li              17.0237308852        4.2122819663       24.0559236180
Li              12.1598024122        1.4040953725       24.7573368251
Li              14.5917669361        2.8081904436       25.9405661257
Li              12.1598016616        4.2122838853       14.9807187649
Li              14.5917669361        5.6163765184       16.1639486672
Li              17.0237279429        7.0204672265       16.8653590129
Li              19.4556877959        8.4245564077       17.9300698588
Li              14.5917669361        5.6163770576       19.0183792077
Li              17.0237287579        7.0204667560       19.9253917659
Li              14.5917669361        8.4245605685       20.9958877093
Li              14.5917669361        5.6163759615       21.9029012043
Li              17.0237297228        7.0204661989       22.9912129339
Li              19.4556891880        8.4245573086       24.0559236180
Li              14.5917669361        5.6163746491       24.7573340414
Li              17.0237305461        7.0204657236       25.9405638082
Li              14.5917669361        8.4245605685       14.9807191492
Li              17.0237256620        9.8286525936       16.1639486672
Li              19.4556873202       11.2327463116       16.8653598270
Li              21.8876504041       12.6368408528       17.9300660681
Li              17.0237251950        9.8286523239       19.0183792077
Li              19.4556859695       11.2327455318       19.9253945714
Li              17.0237234438       12.6368425046       20.9958902379
Li              17.0237261442        9.8286528720       21.9029012043
Li              19.4556873491       11.2327463283       22.9912161673
Li              21.8876504041       12.6368408528       24.0559275781
Li              17.0237272808        9.8286535282       24.7573340414
Li              19.4556861413       11.2327456310       25.9405661257
End final coordinates



     Writing all to output data dir /scratch/deepanthpcu/ml/tmp/Lislab/Lislab.save/ :
     XML data file, charge density, pseudopotentials, collected wavefunctions
 
     init_run     :     13.47s CPU     23.00s WALL (       1 calls)
     electrons    :   3988.60s CPU   4080.22s WALL (      17 calls)
     update_pot   :      5.19s CPU      5.63s WALL (      16 calls)
     forces       :     53.56s CPU     54.51s WALL (      17 calls)
     stress       :    172.73s CPU    175.30s WALL (      17 calls)

     Called by init_run:
     wfcinit      :      7.11s CPU     14.87s WALL (       1 calls)
     potinit      :      0.27s CPU      0.75s WALL (       1 calls)
     hinit0       :      0.08s CPU      0.98s WALL (       1 calls)

     Called by electrons:
     c_bands      :   3512.41s CPU   3583.87s WALL (     277 calls)
     sum_band     :    386.11s CPU    391.48s WALL (     277 calls)
     v_of_rho     :     65.58s CPU     67.82s WALL (     283 calls)
     mix_rho      :     13.87s CPU     14.59s WALL (     277 calls)

     Called by c_bands:
     init_us_2    :    137.04s CPU    138.54s WALL (    2356 calls)
     cegterg      :   3391.90s CPU   3451.66s WALL (    1108 calls)

     Called by *egterg:
     cdiaghg      :    128.03s CPU    150.91s WALL (    4941 calls)
     h_psi        :   2649.21s CPU   2678.59s WALL (    5053 calls)
     g_psi        :      8.20s CPU      8.30s WALL (    3941 calls)

     Called by h_psi:
     h_psi:calbec :    359.81s CPU    362.41s WALL (    5053 calls)
     vloc_psi     :   1896.12s CPU   1917.54s WALL (    5053 calls)
     add_vuspsi   :    374.30s CPU    377.05s WALL (    5053 calls)

     General routines
     calbec       :    510.97s CPU    514.67s WALL (    6209 calls)
     fft          :     56.36s CPU     58.17s WALL (    3508 calls)
     ffts         :      2.11s CPU      2.51s WALL (     560 calls)
     fftw         :   1336.26s CPU   1349.14s WALL ( 1212830 calls)
     interpolate  :      5.75s CPU      6.06s WALL (     283 calls)
 
     Parallel routines
 
     PWSCF        :      1h11m CPU      1h13m WALL

 
   This run was terminated on:  12:16:52  30Aug2026            

=------------------------------------------------------------------------------=
   JOB DONE.
=------------------------------------------------------------------------------=
