
     Program PWSCF v.7.4 starts on 30Aug2026 at 19:32:42 

     This program is part of the open-source Quantum ESPRESSO suite
     for quantum simulation of materials; please cite
         "P. Giannozzi et al., J. Phys.:Condens. Matter 21 395502 (2009);
         "P. Giannozzi et al., J. Phys.:Condens. Matter 29 465901 (2017);
         "P. Giannozzi et al., J. Chem. Phys. 152 154105 (2020);
          URL http://www.quantum-espresso.org", 
     in publications or presentations arising from this work. More details at
     http://www.quantum-espresso.org/quote

     Parallel version (MPI & OpenMP), running on      96 processor cores
     Number of MPI processes:                96
     Threads/MPI process:                     1

     MPI processes distributed on     2 nodes
     180126 MiB available memory on the printing compute node when the environment starts
 
     Reading input from Lislab_scf.in

     Current dimensions of program PWSCF are:
     Max number of different atomic species (ntypx) = 10
     Max number of k-points (npk) =  40000
     Max angular momentum in pseudopotentials (lmaxx) =  4
     Message from routine setup:
     no reason to have ecutrho>4*ecutwfc
     Found identity + (  0.0000  0.3333  0.0000) symmetry
     This is a supercell, fractional translations are disabled
     Message from routine setup:
     using ibrav=0 with symmetry is DISCOURAGED, use correct ibrav instead
 
     R & G space division:  proc/nbgrp/npool/nimage =      96
     Subspace diagonalization in iterative solution of the eigenvalue problem:
     one sub-group per band group will be used
     scalapack distributed-memory algorithm (size of sub-group:  2*  2 procs)

 
     Parallelization info
     --------------------
     sticks:   dense  smooth     PW     G-vecs:    dense   smooth      PW
     Min         262     130     34                94192    33284    4445
     Max         263     131     36                94205    33313    4456
     Sum       25171   12547   3283              9042677  3196635  427113
 
     Using Slab Decomposition
 


     bravais-lattice index     =            0
     lattice parameter (alat)  =      27.5744  a.u.
     unit-cell volume          =   50920.4522 (a.u.)^3
     number of atoms/cell      =          108
     number of atomic types    =            1
     number of electrons       =       324.00
     number of Kohn-Sham states=          194
     kinetic-energy cutoff     =      60.0000  Ry
     charge density cutoff     =     480.0000  Ry
     scf convergence threshold =      1.0E-08
     mixing beta               =       0.3000
     number of iterations used =            8  plain     mixing
     Exchange-correlation= PBE
                           (   1   4   3   4   0   0   0)

     celldm(1)=  27.574443  celldm(2)=   0.000000  celldm(3)=   0.000000
     celldm(4)=   0.000000  celldm(5)=   0.000000  celldm(6)=   0.000000

     crystal axes: (cart. coord. in units of alat)
               a(1) = (   1.000000   0.000000   0.000000 )  
               a(2) = (   0.500000   0.866025   0.000000 )  
               a(3) = (   0.000000   0.000000   2.804409 )  

     reciprocal axes: (cart. coord. in units 2 pi/alat)
               b(1) = (  1.000000 -0.577350  0.000000 )  
               b(2) = (  0.000000  1.154701  0.000000 )  
               b(3) = (  0.000000  0.000000  0.356581 )  


     PseudoPot. # 1 for Li read from file:
     ./pseudo/Li.upf
     MD5 check sum: dbcf0ea72988e720c8c712b432d51b0d
     Pseudo is Norm-conserving, Zval =  3.0
     Generated using ONCVPSP code by D. R. Hamann
     Using radial grid of 1944 points,  4 beta functions with: 
                l(1) =   0
                l(2) =   0
                l(3) =   1
                l(4) =   1

     atomic species   valence    mass     pseudopotential
     Li                3.00     6.94000     Li( 1.00)

      6 Sym. Ops. (no inversion) found



   Cartesian axes

     site n.     atom                  positions (alat units)
         1        Li     tau(   1) = (   0.0000000   0.0000000   1.0266553  )
         2        Li     tau(   2) = (   0.1666668   0.0962251   1.1077445  )
         3        Li     tau(   3) = (   0.3333335   0.1924502   1.1558136  )
         4        Li     tau(   4) = (   0.5000000   0.2886751   1.2287801  )
         5        Li     tau(   5) = (   0.1666670   0.0962252   1.3033637  )
         6        Li     tau(   6) = (   0.3333337   0.1924503   1.3655231  )
         7        Li     tau(   7) = (   0.1666669   0.2886754   1.4388861  )
         8        Li     tau(   8) = (   0.1666670   0.0962252   1.5010454  )
         9        Li     tau(   9) = (   0.3333337   0.1924503   1.5756292  )
        10        Li     tau(  10) = (   0.5000000   0.2886751   1.6485956  )
        11        Li     tau(  11) = (   0.1666669   0.0962252   1.6966648  )
        12        Li     tau(  12) = (   0.3333337   0.1924503   1.7777534  )
        13        Li     tau(  13) = (   0.1666669   0.2886754   1.0266556  )
        14        Li     tau(  14) = (   0.3333334   0.3849001   1.1077447  )
        15        Li     tau(  15) = (   0.5000000   0.4811250   1.1558136  )
        16        Li     tau(  16) = (   0.6666668   0.5773500   1.2287799  )
        17        Li     tau(  17) = (   0.3333335   0.3849001   1.3033639  )
        18        Li     tau(  18) = (   0.5000000   0.4811248   1.3655231  )
        19        Li     tau(  19) = (   0.3333333   0.5773499   1.4388861  )
        20        Li     tau(  20) = (   0.3333335   0.3849001   1.5010453  )
        21        Li     tau(  21) = (   0.5000000   0.4811248   1.5756292  )
        22        Li     tau(  22) = (   0.6666667   0.5773500   1.6485957  )
        23        Li     tau(  23) = (   0.3333335   0.3849001   1.6966645  )
        24        Li     tau(  24) = (   0.5000000   0.4811248   1.7777534  )
        25        Li     tau(  25) = (   0.3333333   0.5773499   1.0266556  )
        26        Li     tau(  26) = (   0.5000000   0.6735751   1.1077445  )
        27        Li     tau(  27) = (   0.6666668   0.7698003   1.1558134  )
        28        Li     tau(  28) = (   0.8333336   0.8660255   1.2287799  )
        29        Li     tau(  29) = (   0.5000000   0.6735749   1.3033637  )
        30        Li     tau(  30) = (   0.6666669   0.7698002   1.3655231  )
        31        Li     tau(  31) = (   0.5000000   0.8660254   1.4388861  )
        32        Li     tau(  32) = (   0.5000000   0.6735749   1.5010454  )
        33        Li     tau(  33) = (   0.6666668   0.7698003   1.5756293  )
        34        Li     tau(  34) = (   0.8333335   0.8660255   1.6485957  )
        35        Li     tau(  35) = (   0.5000000   0.6735750   1.6966648  )
        36        Li     tau(  36) = (   0.6666669   0.7698002   1.7777536  )
        37        Li     tau(  37) = (   0.3333337   0.0000001   1.0266556  )
        38        Li     tau(  38) = (   0.5000000   0.0962251   1.1077447  )
        39        Li     tau(  39) = (   0.6666665   0.1924502   1.1558136  )
        40        Li     tau(  40) = (   0.8333331   0.2886754   1.2287799  )
        41        Li     tau(  41) = (   0.5000000   0.0962253   1.3033639  )
        42        Li     tau(  42) = (   0.6666663   0.1924503   1.3655231  )
        43        Li     tau(  43) = (   0.5000000   0.2886751   1.4388862  )
        44        Li     tau(  44) = (   0.5000000   0.0962253   1.5010453  )
        45        Li     tau(  45) = (   0.6666663   0.1924503   1.5756292  )
        46        Li     tau(  46) = (   0.8333331   0.2886752   1.6485957  )
        47        Li     tau(  47) = (   0.5000000   0.0962253   1.6966645  )
        48        Li     tau(  48) = (   0.6666663   0.1924503   1.7777534  )
        49        Li     tau(  49) = (   0.5000000   0.2886751   1.0266557  )
        50        Li     tau(  50) = (   0.6666666   0.3849001   1.1077447  )
        51        Li     tau(  51) = (   0.8333333   0.4811252   1.1558133  )
        52        Li     tau(  52) = (   1.0000000   0.5773503   1.2287798  )
        53        Li     tau(  53) = (   0.6666665   0.3849001   1.3033639  )
        54        Li     tau(  54) = (   0.8333333   0.4811252   1.3655229  )
        55        Li     tau(  55) = (   0.6666667   0.5773499   1.4388861  )
        56        Li     tau(  56) = (   0.6666665   0.3849001   1.5010453  )
        57        Li     tau(  57) = (   0.8333332   0.4811252   1.5756291  )
        58        Li     tau(  58) = (   1.0000000   0.5773503   1.6485955  )
        59        Li     tau(  59) = (   0.6666665   0.3849001   1.6966645  )
        60        Li     tau(  60) = (   0.8333332   0.4811251   1.7777534  )
        61        Li     tau(  61) = (   0.6666667   0.5773499   1.0266556  )
        62        Li     tau(  62) = (   0.8333335   0.6735752   1.1077444  )
        63        Li     tau(  63) = (   1.0000000   0.7698003   1.1558133  )
        64        Li     tau(  64) = (   1.1666664   0.8660255   1.2287799  )
        65        Li     tau(  65) = (   0.8333335   0.6735752   1.3033637  )
        66        Li     tau(  66) = (   1.0000000   0.7698004   1.3655229  )
        67        Li     tau(  67) = (   0.8333337   0.8660255   1.4388861  )
        68        Li     tau(  68) = (   0.8333335   0.6735752   1.5010452  )
        69        Li     tau(  69) = (   1.0000000   0.7698005   1.5756291  )
        70        Li     tau(  70) = (   1.1666665   0.8660255   1.6485957  )
        71        Li     tau(  71) = (   0.8333334   0.6735753   1.6966646  )
        72        Li     tau(  72) = (   1.0000000   0.7698006   1.7777534  )
        73        Li     tau(  73) = (   0.6666663   0.0000001   1.0266556  )
        74        Li     tau(  74) = (   0.8333332   0.0962251   1.1077445  )
        75        Li     tau(  75) = (   1.0000000   0.1924502   1.1558134  )
        76        Li     tau(  76) = (   0.1666669   0.2886754   1.2287799  )
        77        Li     tau(  77) = (   0.8333330   0.0962252   1.3033637  )
        78        Li     tau(  78) = (   1.0000000   0.1924503   1.3655231  )
        79        Li     tau(  79) = (   0.8333331   0.2886754   1.4388861  )
        80        Li     tau(  80) = (   0.8333330   0.0962252   1.5010454  )
        81        Li     tau(  81) = (   1.0000000   0.1924502   1.5756293  )
        82        Li     tau(  82) = (   1.1666669   0.2886752   1.6485957  )
        83        Li     tau(  83) = (   0.8333331   0.0962252   1.6966648  )
        84        Li     tau(  84) = (   1.0000000   0.1924503   1.7777536  )
        85        Li     tau(  85) = (   0.8333331   0.2886754   1.0266556  )
        86        Li     tau(  86) = (   1.0000000   0.3849004   1.1077444  )
        87        Li     tau(  87) = (   1.1666667   0.4811252   1.1558133  )
        88        Li     tau(  88) = (   1.3333332   0.5773500   1.2287799  )
        89        Li     tau(  89) = (   1.0000000   0.3849004   1.3033637  )
        90        Li     tau(  90) = (   1.1666667   0.4811252   1.3655229  )
        91        Li     tau(  91) = (   1.0000000   0.5773503   1.4388859  )
        92        Li     tau(  92) = (   1.0000000   0.3849003   1.5010452  )
        93        Li     tau(  93) = (   1.1666668   0.4811252   1.5756291  )
        94        Li     tau(  94) = (   1.3333333   0.5773500   1.6485957  )
        95        Li     tau(  95) = (   1.0000000   0.3849002   1.6966646  )
        96        Li     tau(  96) = (   1.1666668   0.4811251   1.7777534  )
        97        Li     tau(  97) = (   1.0000000   0.5773503   1.0266556  )
        98        Li     tau(  98) = (   1.1666665   0.6735752   1.1077444  )
        99        Li     tau(  99) = (   1.3333332   0.7698003   1.1558134  )
       100        Li     tau( 100) = (   1.5000000   0.8660254   1.2287796  )
       101        Li     tau( 101) = (   1.1666665   0.6735752   1.3033637  )
       102        Li     tau( 102) = (   1.3333331   0.7698002   1.3655231  )
       103        Li     tau( 103) = (   1.1666663   0.8660255   1.4388861  )
       104        Li     tau( 104) = (   1.1666665   0.6735752   1.5010452  )
       105        Li     tau( 105) = (   1.3333332   0.7698003   1.5756293  )
       106        Li     tau( 106) = (   1.5000000   0.8660254   1.6485959  )
       107        Li     tau( 107) = (   1.1666666   0.6735753   1.6966646  )
       108        Li     tau( 108) = (   1.3333331   0.7698002   1.7777536  )

     number of k points=     4  Marzari-Vanderbilt smearing, width (Ry)=  0.0200
                       cart. coord. in units 2pi/alat
        k(    1) = (   0.0000000   0.0000000   0.0000000), wk =   0.1250000
        k(    2) = (   0.0000000   0.2886751   0.0000000), wk =   0.7500000
        k(    3) = (   0.0000000  -0.5773503   0.0000000), wk =   0.3750000
        k(    4) = (   0.2500000  -0.7216878   0.0000000), wk =   0.7500000

     Dense  grid:  9042677 G-vectors     FFT dimensions: ( 200, 200, 540)

     Smooth grid:  3196635 G-vectors     FFT dimensions: ( 135, 135, 384)

     Estimated max dynamical RAM per process >     225.72 MB

     Estimated total dynamical RAM >      21.16 GB

     Atomic positions and unit cell read from directory:
     /scratch/deepanthpcu/ml/tmp/Lislab/Lislab.save/
 

     The initial density is read from file :
     /scratch/deepanthpcu/ml/tmp/Lislab/Lislab.save/charge-density

     Starting wfcs from file

     total cpu time spent up to now is       63.4 secs

     per-process dynamical memory:    97.1 Mb

     Self-consistent Calculation

     iteration #  1     ecut=    60.00 Ry     beta= 0.30
     Davidson diagonalization with overlap
     ethr =  1.00E-05,  avg # of iterations =  1.0

     Threshold (ethr) on eigenvalues was too large:
     Diagonalizing with lowered threshold

     Davidson diagonalization with overlap
     ethr =  1.64E-12,  avg # of iterations =  1.0

     total cpu time spent up to now is       98.5 secs

     End of self-consistent calculation

          k = 0.0000 0.0000 0.0000 (399281 PWs)   bands (ev):

   -49.3125 -49.3125 -49.3125 -49.3125 -49.3125 -49.3124 -49.3124 -49.3124
   -49.3124 -49.3124 -49.3124 -49.3124 -49.3124 -49.3124 -49.3124 -49.3124
   -49.3124 -49.3124 -48.5248 -48.5244 -48.5244 -48.5243 -48.5243 -48.5243
   -48.5243 -48.5243 -48.5243 -48.5243 -48.5243 -48.5243 -48.5243 -48.5243
   -48.5243 -48.5243 -48.5243 -48.5243 -48.2965 -48.2965 -48.2965 -48.2965
   -48.2964 -48.2963 -48.2963 -48.2963 -48.2963 -48.2963 -48.2963 -48.2963
   -48.2963 -48.2963 -48.2963 -48.2963 -48.2963 -48.2961 -48.2655 -48.2631
   -48.2631 -48.2631 -48.2631 -48.2631 -48.2631 -48.2620 -48.2620 -48.2581
   -48.2568 -48.2568 -48.2568 -48.2568 -48.2568 -48.2568 -48.2560 -48.2560
   -48.2460 -48.2459 -48.2459 -48.2459 -48.2459 -48.2459 -48.2459 -48.2442
   -48.2442 -48.2442 -48.2442 -48.2404 -48.2404 -48.2404 -48.2404 -48.2404
   -48.2404 -48.2369 -48.1472 -48.1472 -48.1472 -48.1472 -48.1470 -48.1470
   -48.1470 -48.1470 -48.1470 -48.1470 -48.1470 -48.1469 -48.1469 -48.1469
   -48.1469 -48.1469 -48.1469 -48.1464  -5.1352  -4.7153  -4.4319  -4.4319
    -4.4319  -4.4319  -4.4319  -4.4319  -4.0112  -4.0112  -4.0112  -4.0112
    -4.0112  -4.0112  -3.9736  -3.2654  -3.2654  -3.2654  -3.2654  -3.2654
    -3.2654  -3.0481  -3.0481  -3.0481  -3.0481  -3.0452  -3.0452  -3.0409
    -2.6264  -2.6264  -2.6264  -2.6264  -2.6032  -2.6032  -2.3448  -2.3448
    -2.3448  -2.3448  -2.3448  -2.3448  -2.2969  -2.2969  -2.2969  -2.2969
    -2.2969  -2.2969  -2.0665  -1.8952  -1.8952  -1.8952  -1.8952  -1.8952
    -1.8952  -1.8777  -1.8777  -1.8777  -1.8777  -1.8169  -1.8169  -1.4411
    -1.4411  -1.4411  -1.4411  -1.4411  -1.4411  -1.1452  -1.1452  -1.1452
    -1.1452  -1.1452  -1.1452  -1.0604  -1.0604  -1.0604  -1.0604  -1.0604
    -1.0604  -1.0035  -1.0035  -1.0035  -1.0035  -0.9386  -0.6759  -0.6759
    -0.5575  -0.5575

          k = 0.0000 0.2887 0.0000 (399667 PWs)   bands (ev):

   -49.3126 -49.3126 -49.3126 -49.3126 -49.3126 -49.3125 -49.3125 -49.3125
   -49.3125 -49.3125 -49.3125 -49.3125 -49.3124 -49.3124 -49.3124 -49.3124
   -49.3124 -49.3124 -48.5248 -48.5246 -48.5245 -48.5244 -48.5244 -48.5244
   -48.5244 -48.5244 -48.5244 -48.5244 -48.5244 -48.5244 -48.5244 -48.5243
   -48.5243 -48.5243 -48.5243 -48.5243 -48.2966 -48.2965 -48.2965 -48.2965
   -48.2965 -48.2965 -48.2964 -48.2964 -48.2964 -48.2964 -48.2964 -48.2964
   -48.2964 -48.2963 -48.2963 -48.2963 -48.2963 -48.2963 -48.2655 -48.2639
   -48.2634 -48.2634 -48.2627 -48.2627 -48.2626 -48.2621 -48.2621 -48.2581
   -48.2573 -48.2569 -48.2569 -48.2565 -48.2565 -48.2565 -48.2561 -48.2561
   -48.2461 -48.2461 -48.2459 -48.2459 -48.2458 -48.2458 -48.2458 -48.2450
   -48.2450 -48.2433 -48.2433 -48.2416 -48.2412 -48.2412 -48.2400 -48.2400
   -48.2394 -48.2374 -48.1473 -48.1473 -48.1472 -48.1472 -48.1472 -48.1471
   -48.1471 -48.1471 -48.1471 -48.1470 -48.1470 -48.1470 -48.1470 -48.1469
   -48.1469 -48.1469 -48.1469 -48.1468  -5.0913  -4.7399  -4.6714  -4.5640
    -4.5640  -4.3194  -4.2121  -4.2121  -4.1434  -4.1434  -4.0356  -3.9292
    -3.7914  -3.7914  -3.6155  -3.5744  -3.5153  -3.5153  -3.3975  -3.3975
    -3.1008  -3.1008  -3.0464  -3.0464  -2.9949  -2.9910  -2.9910  -2.9796
    -2.8754  -2.6338  -2.6338  -2.6297  -2.5930  -2.5930  -2.5465  -2.4948
    -2.4948  -2.4500  -2.4500  -2.3373  -2.3373  -2.2145  -2.2145  -2.0862
    -2.0862  -2.0672  -2.0672  -2.0218  -1.9563  -1.9445  -1.9445  -1.8156
    -1.8156  -1.7896  -1.6811  -1.5896  -1.5196  -1.5196  -1.5162  -1.5162
    -1.5099  -1.5099  -1.4195  -1.4195  -1.3788  -1.3788  -1.2755  -1.2755
    -1.2337  -1.1840  -1.1840  -1.1697  -1.1647  -1.1618  -1.1618  -0.9367
    -0.9367  -0.9014  -0.8970  -0.8970  -0.8765  -0.8765  -0.7717  -0.7475
    -0.7299  -0.6874

          k = 0.0000-0.5774 0.0000 (399688 PWs)   bands (ev):

   -49.3126 -49.3126 -49.3126 -49.3126 -49.3125 -49.3125 -49.3125 -49.3125
   -49.3125 -49.3125 -49.3125 -49.3125 -49.3125 -49.3125 -49.3124 -49.3124
   -49.3124 -49.3124 -48.5247 -48.5247 -48.5246 -48.5246 -48.5244 -48.5244
   -48.5244 -48.5244 -48.5244 -48.5244 -48.5244 -48.5243 -48.5243 -48.5243
   -48.5243 -48.5243 -48.5243 -48.5243 -48.2965 -48.2965 -48.2965 -48.2964
   -48.2964 -48.2964 -48.2964 -48.2964 -48.2964 -48.2964 -48.2964 -48.2964
   -48.2964 -48.2964 -48.2964 -48.2964 -48.2963 -48.2963 -48.2649 -48.2649
   -48.2635 -48.2635 -48.2624 -48.2624 -48.2624 -48.2624 -48.2624 -48.2577
   -48.2577 -48.2570 -48.2570 -48.2564 -48.2562 -48.2562 -48.2562 -48.2562
   -48.2461 -48.2461 -48.2460 -48.2460 -48.2456 -48.2455 -48.2455 -48.2455
   -48.2455 -48.2422 -48.2422 -48.2422 -48.2422 -48.2421 -48.2399 -48.2399
   -48.2383 -48.2383 -48.1472 -48.1472 -48.1472 -48.1472 -48.1472 -48.1471
   -48.1471 -48.1471 -48.1471 -48.1471 -48.1470 -48.1470 -48.1470 -48.1470
   -48.1469 -48.1469 -48.1469 -48.1469  -4.9597  -4.9597  -4.6081  -4.6081
    -4.5395  -4.5395  -4.1874  -4.1874  -3.9057  -3.9057  -3.9057  -3.9057
    -3.7961  -3.7961  -3.5526  -3.5524  -3.4852  -3.4852  -3.4852  -3.4852
    -3.4416  -3.4416  -3.1346  -3.1260  -2.8605  -2.8605  -2.8605  -2.8605
    -2.8572  -2.8572  -2.7448  -2.7448  -2.7448  -2.7448  -2.4939  -2.4939
    -2.4248  -2.4248  -2.4248  -2.4248  -2.3974  -2.3694  -1.9268  -1.9268
    -1.9268  -1.9268  -1.8896  -1.8896  -1.8222  -1.8222  -1.8222  -1.8222
    -1.6608  -1.6608  -1.6608  -1.6608  -1.5688  -1.5639  -1.5639  -1.5254
    -1.5254  -1.5200  -1.5200  -1.4615  -1.4615  -1.4615  -1.4615  -1.3368
    -1.2915  -1.1010  -1.1010  -1.0768  -1.0768  -1.0319  -1.0319  -1.0319
    -1.0319  -0.8371  -0.8371  -0.7874  -0.7631  -0.7631  -0.7463  -0.7463
    -0.7463  -0.7463

          k = 0.2500-0.7217 0.0000 (399610 PWs)   bands (ev):

   -49.3126 -49.3126 -49.3125 -49.3125 -49.3125 -49.3125 -49.3125 -49.3125
   -49.3125 -49.3125 -49.3125 -49.3125 -49.3125 -49.3125 -49.3124 -49.3124
   -49.3124 -49.3124 -48.5247 -48.5246 -48.5245 -48.5245 -48.5245 -48.5245
   -48.5244 -48.5244 -48.5244 -48.5244 -48.5243 -48.5243 -48.5243 -48.5243
   -48.5243 -48.5243 -48.5242 -48.5242 -48.2965 -48.2965 -48.2965 -48.2965
   -48.2964 -48.2964 -48.2964 -48.2964 -48.2964 -48.2964 -48.2964 -48.2964
   -48.2963 -48.2963 -48.2963 -48.2963 -48.2963 -48.2963 -48.2651 -48.2642
   -48.2642 -48.2628 -48.2628 -48.2624 -48.2624 -48.2624 -48.2622 -48.2579
   -48.2574 -48.2574 -48.2565 -48.2565 -48.2563 -48.2563 -48.2563 -48.2562
   -48.2461 -48.2460 -48.2460 -48.2458 -48.2458 -48.2455 -48.2455 -48.2455
   -48.2453 -48.2428 -48.2423 -48.2421 -48.2421 -48.2410 -48.2410 -48.2389
   -48.2389 -48.2380 -48.1472 -48.1472 -48.1472 -48.1472 -48.1472 -48.1471
   -48.1471 -48.1471 -48.1471 -48.1471 -48.1470 -48.1470 -48.1470 -48.1470
   -48.1469 -48.1469 -48.1469 -48.1469  -5.0036  -4.8278  -4.8278  -4.5835
    -4.4074  -4.4074  -4.3005  -4.3005  -3.9503  -3.8796  -3.8796  -3.8405
    -3.7725  -3.7725  -3.6630  -3.6630  -3.5292  -3.4260  -3.4259  -3.3579
    -3.3579  -3.2385  -3.2385  -3.1332  -3.1332  -3.0084  -2.9972  -2.9030
    -2.8348  -2.8348  -2.7850  -2.7202  -2.7202  -2.5899  -2.5899  -2.4115
    -2.4095  -2.2727  -2.2364  -2.2322  -2.2322  -2.1727  -2.1727  -2.0903
    -2.0903  -1.9824  -1.9762  -1.9736  -1.9333  -1.8141  -1.8010  -1.8009
    -1.7604  -1.7604  -1.7580  -1.7580  -1.6641  -1.6641  -1.5183  -1.4875
    -1.4875  -1.4228  -1.3342  -1.3342  -1.3053  -1.3053  -1.2522  -1.2303
    -1.2019  -1.2005  -1.2005  -1.1963  -1.1963  -1.0370  -1.0370  -1.0024
    -1.0024  -0.9463  -0.8476  -0.8476  -0.8341  -0.7769  -0.7769  -0.7700
    -0.7071  -0.7071

     the Fermi energy is    -1.7199 ev

!    total energy              =   -1555.07839316 Ry
     estimated scf accuracy    <          5.4E-09 Ry
     smearing contrib. (-TS)   =      -0.01213922 Ry
     internal energy E=F+TS    =   -1555.06625394 Ry

     The total energy is F=E-TS. E is the sum of the following terms:
     one-electron contribution =  -14026.04099092 Ry
     hartree contribution      =    6847.06858482 Ry
     xc contribution           =    -359.07034946 Ry
     ewald contribution        =    5982.97650162 Ry

     convergence has been achieved in   1 iterations

     Forces acting on atoms (cartesian axes, Ry/au):

     atom    1 type  1   force =    -0.00000000   -0.00000000   -0.00018350
     atom    2 type  1   force =    -0.00000007   -0.00000004    0.00019461
     atom    3 type  1   force =    -0.00000011   -0.00000006   -0.00014027
     atom    4 type  1   force =     0.00000000    0.00000000    0.00090933
     atom    5 type  1   force =    -0.00000018   -0.00000011   -0.00069780
     atom    6 type  1   force =    -0.00000017   -0.00000010   -0.00040217
     atom    7 type  1   force =    -0.00000009   -0.00000015    0.00040203
     atom    8 type  1   force =    -0.00000016   -0.00000009    0.00069769
     atom    9 type  1   force =    -0.00000018   -0.00000010   -0.00090943
     atom   10 type  1   force =     0.00000000    0.00000000    0.00014038
     atom   11 type  1   force =    -0.00000009   -0.00000005   -0.00019455
     atom   12 type  1   force =    -0.00000002   -0.00000001    0.00018390
     atom   13 type  1   force =    -0.00000005   -0.00000005   -0.00018367
     atom   14 type  1   force =    -0.00000000    0.00000000    0.00019462
     atom   15 type  1   force =     0.00000000    0.00000012   -0.00014027
     atom   16 type  1   force =    -0.00000005    0.00000016    0.00090940
     atom   17 type  1   force =    -0.00000010    0.00000006   -0.00069789
     atom   18 type  1   force =     0.00000000    0.00000020   -0.00040217
     atom   19 type  1   force =     0.00000008    0.00000015    0.00040203
     atom   20 type  1   force =    -0.00000006    0.00000004    0.00069780
     atom   21 type  1   force =     0.00000000    0.00000020   -0.00090943
     atom   22 type  1   force =    -0.00000006    0.00000010    0.00014031
     atom   23 type  1   force =    -0.00000006    0.00000004   -0.00019449
     atom   24 type  1   force =     0.00000000    0.00000002    0.00018390
     atom   25 type  1   force =     0.00000002    0.00000007   -0.00018367
     atom   26 type  1   force =     0.00000000    0.00000008    0.00019461
     atom   27 type  1   force =    -0.00000006    0.00000003   -0.00014023
     atom   28 type  1   force =    -0.00000016   -0.00000004    0.00090940
     atom   29 type  1   force =     0.00000000    0.00000021   -0.00069780
     atom   30 type  1   force =    -0.00000016    0.00000009   -0.00040220
     atom   31 type  1   force =     0.00000000    0.00000000    0.00040203
     atom   32 type  1   force =     0.00000000    0.00000019    0.00069769
     atom   33 type  1   force =    -0.00000014    0.00000008   -0.00090955
     atom   34 type  1   force =    -0.00000011   -0.00000000    0.00014031
     atom   35 type  1   force =     0.00000000    0.00000011   -0.00019455
     atom   36 type  1   force =    -0.00000006    0.00000003    0.00018377
     atom   37 type  1   force =    -0.00000007   -0.00000002   -0.00018367
     atom   38 type  1   force =     0.00000000   -0.00000000    0.00019462
     atom   39 type  1   force =     0.00000011   -0.00000006   -0.00014027
     atom   40 type  1   force =     0.00000011   -0.00000012    0.00090940
     atom   41 type  1   force =     0.00000000   -0.00000011   -0.00069789
     atom   42 type  1   force =     0.00000017   -0.00000010   -0.00040217
     atom   43 type  1   force =     0.00000000    0.00000000    0.00040205
     atom   44 type  1   force =     0.00000000   -0.00000007    0.00069780
     atom   45 type  1   force =     0.00000018   -0.00000010   -0.00090943
     atom   46 type  1   force =     0.00000006   -0.00000010    0.00014031
     atom   47 type  1   force =     0.00000000   -0.00000007   -0.00019449
     atom   48 type  1   force =     0.00000002   -0.00000001    0.00018390
     atom   49 type  1   force =    -0.00000000   -0.00000000   -0.00018369
     atom   50 type  1   force =     0.00000000    0.00000000    0.00019462
     atom   51 type  1   force =    -0.00000004   -0.00000003   -0.00014026
     atom   52 type  1   force =     0.00000000    0.00000000    0.00090936
     atom   53 type  1   force =     0.00000010    0.00000006   -0.00069789
     atom   54 type  1   force =    -0.00000006   -0.00000004   -0.00040221
     atom   55 type  1   force =    -0.00000008    0.00000015    0.00040203
     atom   56 type  1   force =     0.00000006    0.00000004    0.00069780
     atom   57 type  1   force =    -0.00000002   -0.00000001   -0.00090946
     atom   58 type  1   force =     0.00000000    0.00000000    0.00014033
     atom   59 type  1   force =     0.00000006    0.00000004   -0.00019449
     atom   60 type  1   force =    -0.00000003   -0.00000002    0.00018390
     atom   61 type  1   force =    -0.00000002    0.00000007   -0.00018367
     atom   62 type  1   force =    -0.00000015    0.00000008    0.00019458
     atom   63 type  1   force =     0.00000000    0.00000005   -0.00014026
     atom   64 type  1   force =     0.00000016   -0.00000004    0.00090940
     atom   65 type  1   force =    -0.00000014    0.00000008   -0.00069793
     atom   66 type  1   force =     0.00000000    0.00000007   -0.00040221
     atom   67 type  1   force =    -0.00000018   -0.00000000    0.00040203
     atom   68 type  1   force =    -0.00000013    0.00000008    0.00069784
     atom   69 type  1   force =     0.00000000    0.00000002   -0.00090946
     atom   70 type  1   force =     0.00000011   -0.00000000    0.00014031
     atom   71 type  1   force =    -0.00000004    0.00000002   -0.00019454
     atom   72 type  1   force =     0.00000000    0.00000004    0.00018390
     atom   73 type  1   force =     0.00000007   -0.00000002   -0.00018367
     atom   74 type  1   force =     0.00000007   -0.00000004    0.00019461
     atom   75 type  1   force =     0.00000000   -0.00000007   -0.00014023
     atom   76 type  1   force =    -0.00000011   -0.00000012    0.00090940
     atom   77 type  1   force =     0.00000018   -0.00000011   -0.00069780
     atom   78 type  1   force =     0.00000000   -0.00000018   -0.00040220
     atom   79 type  1   force =     0.00000009   -0.00000015    0.00040203
     atom   80 type  1   force =     0.00000016   -0.00000009    0.00069769
     atom   81 type  1   force =     0.00000000   -0.00000016   -0.00090955
     atom   82 type  1   force =    -0.00000006   -0.00000010    0.00014031
     atom   83 type  1   force =     0.00000009   -0.00000005   -0.00019455
     atom   84 type  1   force =     0.00000000   -0.00000007    0.00018377
     atom   85 type  1   force =     0.00000005   -0.00000005   -0.00018367
     atom   86 type  1   force =     0.00000000   -0.00000017    0.00019458
     atom   87 type  1   force =     0.00000004   -0.00000003   -0.00014026
     atom   88 type  1   force =     0.00000005    0.00000016    0.00090940
     atom   89 type  1   force =     0.00000000   -0.00000016   -0.00069793
     atom   90 type  1   force =     0.00000006   -0.00000004   -0.00040221
     atom   91 type  1   force =    -0.00000000   -0.00000000    0.00040204
     atom   92 type  1   force =     0.00000000   -0.00000015    0.00069784
     atom   93 type  1   force =     0.00000002   -0.00000001   -0.00090946
     atom   94 type  1   force =     0.00000006    0.00000010    0.00014031
     atom   95 type  1   force =     0.00000000   -0.00000005   -0.00019454
     atom   96 type  1   force =     0.00000003   -0.00000002    0.00018390
     atom   97 type  1   force =     0.00000000    0.00000000   -0.00018379
     atom   98 type  1   force =     0.00000015    0.00000008    0.00019458
     atom   99 type  1   force =     0.00000006    0.00000003   -0.00014023
     atom  100 type  1   force =    -0.00000000   -0.00000000    0.00090957
     atom  101 type  1   force =     0.00000014    0.00000008   -0.00069793
     atom  102 type  1   force =     0.00000016    0.00000009   -0.00040220
     atom  103 type  1   force =     0.00000018   -0.00000000    0.00040203
     atom  104 type  1   force =     0.00000013    0.00000008    0.00069784
     atom  105 type  1   force =     0.00000014    0.00000008   -0.00090955
     atom  106 type  1   force =     0.00000000    0.00000000    0.00014022
     atom  107 type  1   force =     0.00000004    0.00000002   -0.00019454
     atom  108 type  1   force =     0.00000006    0.00000003    0.00018377

     Total force =     0.005311     Total SCF correction =     0.000124


     Computing stress (Cartesian axis) and pressure

          total   stress  (Ry/bohr**3)                   (kbar)     P=       -4.71
  -0.00003535  -0.00000000   0.00000000           -5.20       -0.00        0.00
  -0.00000000  -0.00003535   0.00000000           -0.00       -5.20        0.00
   0.00000000   0.00000000  -0.00002534            0.00        0.00       -3.73


     Writing all to output data dir /scratch/deepanthpcu/ml/tmp/Lislab/Lislab.save/ :
     XML data file, charge density, pseudopotentials, collected wavefunctions
 
     init_run     :     52.66s CPU     59.45s WALL (       1 calls)
     electrons    :     24.61s CPU     36.09s WALL (       1 calls)
     forces       :      3.10s CPU      3.17s WALL (       1 calls)
     stress       :     10.11s CPU     10.29s WALL (       1 calls)

     Called by init_run:
     wfcinit      :     45.07s CPU     48.90s WALL (       1 calls)
     potinit      :      1.29s CPU      2.49s WALL (       1 calls)
     hinit0       :      0.36s CPU      1.66s WALL (       1 calls)

     Called by electrons:
     c_bands      :     21.13s CPU     31.48s WALL (       2 calls)
     sum_band     :      2.86s CPU      3.08s WALL (       2 calls)
     v_of_rho     :      0.43s CPU      0.69s WALL (       2 calls)
     mix_rho      :      0.00s CPU      0.00s WALL (       2 calls)

     Called by c_bands:
     init_us_2    :      1.29s CPU      1.34s WALL (      24 calls)
     cegterg      :     20.32s CPU     30.35s WALL (       8 calls)

     Called by *egterg:
     cdiaghg      :      1.29s CPU     10.16s WALL (       8 calls)
     h_psi        :     15.88s CPU     16.33s WALL (      16 calls)
     g_psi        :      0.04s CPU      0.04s WALL (       8 calls)

     Called by h_psi:
     h_psi:calbec :      2.05s CPU      2.15s WALL (      16 calls)
     vloc_psi     :     11.62s CPU     11.89s WALL (      16 calls)
     add_vuspsi   :      2.10s CPU      2.13s WALL (      16 calls)

     General routines
     calbec       :     10.91s CPU     11.08s WALL (      84 calls)
     fft          :      0.45s CPU      1.34s WALL (      30 calls)
     ffts         :      0.07s CPU      0.49s WALL (       4 calls)
     fftw         :      8.78s CPU      8.99s WALL (    7760 calls)
     interpolate  :      0.10s CPU      0.49s WALL (       2 calls)
 
     Parallel routines
 
     PWSCF        :   1m34.80s CPU   2m14.72s WALL

 
   This run was terminated on:  19:34:56  30Aug2026            

=------------------------------------------------------------------------------=
   JOB DONE.
=------------------------------------------------------------------------------=
