80
Lattice="11.455100087583526 0.0 0.0 5.727550043791763 9.920838347152852 0.0 0.0 0.0 39.35310285308637" Properties=species:S:1:pos:R:3:forces:R:3 energy=-42985.15221875696 stress="0.006013014221941209 -0.0 -0.0 -0.0 0.006015768694786807 -0.0 -0.0 -0.0 -0.0009255028761210473" free_energy=-42985.15221875696 pbc="T T T"
Al      11.45515728       1.65343434      14.99982760      -0.00003137      -0.00071477      -0.06849110
Al       2.86383228       1.65343434      14.99982760      -0.00003137      -0.00071477      -0.06849110
Al       5.72760728       1.65343434      14.99982760      -0.00003137      -0.00071451      -0.06849136
Al       8.59138228       1.65343434      14.99982760      -0.00003111      -0.00071477      -0.06849110
Al      12.88704478       4.13353624      14.99982760      -0.00003111      -0.00003111      -0.06844457
Al       4.29571978       4.13353624      14.99982760      -0.00003137      -0.00003111      -0.06844457
Al       7.15949478       4.13353624      14.99982760      -0.00003137      -0.00003111      -0.06844457
Al      10.02326978       4.13353624      14.99982760      -0.00003137      -0.00003111      -0.06844482
Al      14.31893228       6.61363814      14.99982760      -0.00003111      -0.00001363      -0.06843505
Al       5.72760728       6.61363814      14.99982760      -0.00003137      -0.00001363      -0.06843505
Al       8.59138228       6.61363814      14.99982760      -0.00003162      -0.00001363      -0.06843505
Al      11.45515728       6.61363814      14.99982760      -0.00003137      -0.00001363      -0.06843531
Al      15.75081978       9.09374004      14.99982760      -0.00003111       0.00078393      -0.06813269
Al       7.15949478       9.09374004      14.99982760      -0.00003137       0.00078419      -0.06813269
Al      10.02326978       9.09374004      14.99982760      -0.00003137       0.00078419      -0.06813295
Al      12.88704478       9.09374004      14.99982760      -0.00003111       0.00078419      -0.06813295
Al       0.00000000       0.00000000      17.33818880       0.00001337      -0.00090888       0.05783877
Al       2.86377500       0.00000000      17.33818880       0.00001311      -0.00090888       0.05783851
Al       5.72755000       0.00000000      17.33818880       0.00001337      -0.00090888       0.05783851
Al       8.59132500       0.00000000      17.33818880       0.00001363      -0.00090888       0.05783877
Al       1.43188750       2.48010190      17.33818880       0.00001337      -0.00006736       0.05812519
Al       4.29566250       2.48010190      17.33818880       0.00001337      -0.00006711       0.05812544
Al       7.15943750       2.48010190      17.33818880       0.00001337      -0.00006711       0.05812621
Al      10.02321250       2.48010190      17.33818880       0.00001363      -0.00006736       0.05812596
Al       2.86377500       4.96020380      17.33818880       0.00001363       0.00001543       0.05809536
Al       5.72755000       4.96020380      17.33818880       0.00001337       0.00001543       0.05809639
Al       8.59132500       4.96020380      17.33818880       0.00001311       0.00001543       0.05809639
Al      11.45510000       4.96020380      17.33818880       0.00001337       0.00001543       0.05809536
Al       4.29566250       7.44030570      17.33818880       0.00001363       0.00076285       0.05807891
Al       7.15943750       7.44030570      17.33818880       0.00001311       0.00076310       0.05807916
Al      10.02321250       7.44030570      17.33818880       0.00001311       0.00076285       0.05807865
Al      12.88698750       7.44030570      17.33818880       0.00001363       0.00076285       0.05807865
Al       1.43185511       0.82651132      19.67415010       0.00005579       0.00018692      -0.01460901
Al       4.29562989       0.82651110      19.67415006       0.00005682       0.00018795      -0.01460875
Al       7.15940490       0.82651095      19.67415016       0.00005682       0.00018872      -0.01460901
Al      10.02318009       0.82651113      19.67415017       0.00005605       0.00018769      -0.01460901
Al       2.86374238       3.30675564      19.67411178       0.00005708      -0.00013498      -0.01443546
Al       5.72751728       3.30675557      19.67411197       0.00005734      -0.00013447      -0.01443572
Al       8.59129269       3.30675561      19.67411201       0.00005554      -0.00013473      -0.01443572
Al      11.45506779       3.30675573      19.67411187       0.00005502      -0.00013550      -0.01443572
Al       4.29562971       5.78691026      19.67412964       0.00005785       0.00016506      -0.01448560
Al       7.15940501       5.78691035      19.67412975       0.00005631       0.00016481      -0.01448534
Al      10.02318028       5.78691033      19.67412963       0.00005502       0.00016481      -0.01448534
Al      12.88695500       5.78691020      19.67412953       0.00005656       0.00016532      -0.01448534
Al       5.72751747       8.26716374      19.67407154       0.00005656      -0.00006428      -0.01448842
Al       8.59129265       8.26716379      19.67407143       0.00005554      -0.00006453      -0.01448791
Al      11.45506758       8.26716354      19.67407135       0.00005605      -0.00006325      -0.01448765
Al      14.31884237       8.26716349      19.67407142       0.00005708      -0.00006325      -0.01448817
Al      11.45513476       1.65328624      22.00478408      -0.00004937       0.00008305       0.01722305
Al       2.86380953       1.65328625      22.00478401      -0.00004834       0.00008305       0.01722331
Al       5.72758443       1.65328603      22.00478409      -0.00004834       0.00008382       0.01722331
Al       8.59135967       1.65328605      22.00478416      -0.00004911       0.00008382       0.01722305
Al      12.88702212       4.13351074      22.00479171      -0.00004885      -0.00014218       0.01723719
Al       4.29569679       4.13351068      22.00479180      -0.00004757      -0.00014218       0.01723668
Al       7.15947205       4.13351062      22.00479193      -0.00004859      -0.00014167       0.01723668
Al      10.02324736       4.13351072      22.00479183      -0.00004988      -0.00014192       0.01723693
Al      14.31890941       6.61365376      22.00478980      -0.00004808       0.00024477       0.01717677
Al       5.72758442       6.61365387      22.00478989      -0.00004808       0.00024451       0.01717651
Al       8.59135978       6.61365395      22.00478987      -0.00004937       0.00024425       0.01717677
Al      11.45513479       6.61365381      22.00478974      -0.00004962       0.00024477       0.01717703
Al      15.75079700       9.09391046      22.00477297      -0.00004859      -0.00013395       0.01717677
Al       7.15947211       9.09391070      22.00477292      -0.00004885      -0.00013498       0.01717703
Al      10.02324713       9.09391053      22.00477285      -0.00004885      -0.00013421       0.01717728
Al      12.88702207       9.09391034      22.00477290      -0.00004885      -0.00013344       0.01717728
Al       0.00000588      -0.00015642      24.36729206       0.00001028       0.00000489       0.00771742
Al       2.86378082      -0.00015637      24.36729206       0.00001080       0.00000463       0.00771717
Al       5.72755586      -0.00015652      24.36729206       0.00001028       0.00000489       0.00771717
Al       8.59133088      -0.00015657      24.36729212       0.00001028       0.00000514       0.00771742
Al       1.43189340       2.48008249      24.36733851       0.00001028      -0.00017612       0.00761072
Al       4.29566821       2.48008245      24.36733854       0.00001080      -0.00017612       0.00761072
Al       7.15944334       2.48008231      24.36733871       0.00001054      -0.00017561       0.00760995
Al      10.02321852       2.48008241      24.36733859       0.00001003      -0.00017586       0.00761047
Al       2.86378076       4.96022426      24.36735247       0.00001054       0.00013447       0.00766137
Al       5.72755565       4.96022422      24.36735262       0.00001106       0.00013447       0.00766086
Al       8.59133097       4.96022425      24.36735270       0.00001003       0.00013447       0.00766060
Al      11.45510605       4.96022423      24.36735256       0.00000977       0.00013447       0.00766112
Al       4.29566821       7.44044829      24.36734380       0.00001080       0.00000360       0.00758013
Al       7.15944328       7.44044836      24.36734385       0.00001080       0.00000334       0.00757987
Al      10.02321847       7.44044832      24.36734376       0.00001003       0.00000360       0.00757987
Al      12.88699338       7.44044818      24.36734373       0.00001028       0.00000411       0.00758013
