
     Program PWSCF v.7.5 starts on  3Jul2026 at 11:22:54 

     This program is part of the open-source Quantum ESPRESSO suite
     for quantum simulation of materials; please cite
         "P. Giannozzi et al., J. Phys.:Condens. Matter 21 395502 (2009);
         "P. Giannozzi et al., J. Phys.:Condens. Matter 29 465901 (2017);
         "P. Giannozzi et al., J. Chem. Phys. 152 154105 (2020);
          URL http://www.quantum-espresso.org", 
     in publications or presentations arising from this work. More details at
     http://www.quantum-espresso.org/quote

     Parallel version (MPI), running on    24 processors

     MPI processes distributed on     1 nodes
     237404 MiB available memory on the printing compute node when the environment starts

     Reading input from al111_relax.in

     Current dimensions of program PWSCF are:
     Max number of different atomic species (ntypx) = 10
     Max number of k-points (npk) =  40000
     Max angular momentum in pseudopotentials (lmaxx) =  4
     file Al.pbe-n-kjpaw_psl.1.0.0.UPF: wavefunction(s)  3S 3P renormalized
     Found identity + (  0.2500  0.0000  0.0000) symmetry
     This is a supercell, fractional translations are disabled

     R & G space division:  proc/nbgrp/npool/nimage =      24
     Subspace diagonalization in iterative solution of the eigenvalue problem:
     a serial algorithm will be used


     Parallelization info
     --------------------
     sticks:   dense  smooth     PW     G-vecs:    dense   smooth      PW
     Min         646     323     85               223320    78973   10737
     Max         647     324     86               223336    78990   10756
     Sum       15505    7765   2053              5359811  1895543  257905

     Using Slab Decomposition



     bravais-lattice index     =            0
     lattice parameter (alat)  =      21.6470  a.u.
     unit-cell volume          =   30180.2624 (a.u.)^3
     number of atoms/cell      =           80
     number of atomic types    =            1
     number of electrons       =       240.00
     number of Kohn-Sham states=          144
     kinetic-energy cutoff     =      60.0000  Ry
     charge density cutoff     =     480.0000  Ry
     scf convergence threshold =      1.0E-08
     mixing beta               =       0.3000
     number of iterations used =            8  plain     mixing
     energy convergence thresh.=      1.0E-04
     force convergence thresh. =      1.0E-03
     Exchange-correlation= SLA  PW   PBX  PBC
                           (   1   4   3   4   0   0   0)
     nstep                     =           50


     celldm(1)=  21.647002  celldm(2)=   0.000000  celldm(3)=   0.000000
     celldm(4)=   0.000000  celldm(5)=   0.000000  celldm(6)=   0.000000

     crystal axes: (cart. coord. in units of alat)
               a(1) = (   1.000000   0.000000   0.000000 )  
               a(2) = (   0.500000   0.866063   0.000000 )  
               a(3) = (   0.000000   0.000000   3.435422 )  

     reciprocal axes: (cart. coord. in units 2 pi/alat)
               b(1) = (  1.000000 -0.577325  0.000000 )  
               b(2) = (  0.000000  1.154650  0.000000 )  
               b(3) = (  0.000000  0.000000  0.291085 )  


     PseudoPot. # 1 for Al read from file:
     ./Al.pbe-n-kjpaw_psl.1.0.0.UPF
     MD5 check sum: cfc449ca30b5f3223ec38ddd88ac046d
     Pseudo is Projector augmented-wave + core cor, Zval =  3.0
     Generated using "atomic" code by A. Dal Corso  v.5.1
     Shape of augmentation charge: PSQ
     Using radial grid of 1135 points,  6 beta functions with: 
                l(1) =   0
                l(2) =   0
                l(3) =   1
                l(4) =   1
                l(5) =   2
                l(6) =   2
     Q(r) pseudized with 0 coefficients 


     atomic species   valence    mass     pseudopotential
     Al                3.00    26.98154     Al( 1.00)

     No symmetry found



   Cartesian axes

     site n.     atom                  positions (alat units)
         1        Al     tau(   1) = (   1.0000050   0.1443405   1.3094454  )
         2        Al     tau(   2) = (   0.2500050   0.1443405   1.3094454  )
         3        Al     tau(   3) = (   0.5000050   0.1443405   1.3094454  )
         4        Al     tau(   4) = (   0.7500050   0.1443405   1.3094454  )
         5        Al     tau(   5) = (   1.1250050   0.3608468   1.3094454  )
         6        Al     tau(   6) = (   0.3750050   0.3608468   1.3094454  )
         7        Al     tau(   7) = (   0.6250050   0.3608468   1.3094454  )
         8        Al     tau(   8) = (   0.8750050   0.3608468   1.3094454  )
         9        Al     tau(   9) = (   1.2500050   0.5773532   1.3094454  )
        10        Al     tau(  10) = (   0.5000050   0.5773532   1.3094454  )
        11        Al     tau(  11) = (   0.7500050   0.5773532   1.3094454  )
        12        Al     tau(  12) = (   1.0000050   0.5773532   1.3094454  )
        13        Al     tau(  13) = (   1.3750050   0.7938595   1.3094454  )
        14        Al     tau(  14) = (   0.6250050   0.7938595   1.3094454  )
        15        Al     tau(  15) = (   0.8750050   0.7938595   1.3094454  )
        16        Al     tau(  16) = (   1.1250050   0.7938595   1.3094454  )
        17        Al     tau(  17) = (   0.0000000   0.0000000   1.5135781  )
        18        Al     tau(  18) = (   0.2500000   0.0000000   1.5135781  )
        19        Al     tau(  19) = (   0.5000000   0.0000000   1.5135781  )
        20        Al     tau(  20) = (   0.7500000   0.0000000   1.5135781  )
        21        Al     tau(  21) = (   0.1250000   0.2165064   1.5135781  )
        22        Al     tau(  22) = (   0.3750000   0.2165064   1.5135781  )
        23        Al     tau(  23) = (   0.6250000   0.2165064   1.5135781  )
        24        Al     tau(  24) = (   0.8750000   0.2165064   1.5135781  )
        25        Al     tau(  25) = (   0.2500000   0.4330127   1.5135781  )
        26        Al     tau(  26) = (   0.5000000   0.4330127   1.5135781  )
        27        Al     tau(  27) = (   0.7500000   0.4330127   1.5135781  )
        28        Al     tau(  28) = (   1.0000000   0.4330127   1.5135781  )
        29        Al     tau(  29) = (   0.3750000   0.6495191   1.5135781  )
        30        Al     tau(  30) = (   0.6250000   0.6495191   1.5135781  )
        31        Al     tau(  31) = (   0.8750000   0.6495191   1.5135781  )
        32        Al     tau(  32) = (   1.1250000   0.6495191   1.5135781  )
        33        Al     tau(  33) = (   0.1249950   0.0721659   1.7177109  )
        34        Al     tau(  34) = (   0.3749950   0.0721659   1.7177109  )
        35        Al     tau(  35) = (   0.6249950   0.0721659   1.7177109  )
        36        Al     tau(  36) = (   0.8749950   0.0721659   1.7177109  )
        37        Al     tau(  37) = (   0.2499950   0.2886722   1.7177109  )
        38        Al     tau(  38) = (   0.4999950   0.2886722   1.7177109  )
        39        Al     tau(  39) = (   0.7499950   0.2886722   1.7177109  )
        40        Al     tau(  40) = (   0.9999950   0.2886722   1.7177109  )
        41        Al     tau(  41) = (   0.3749950   0.5051786   1.7177109  )
        42        Al     tau(  42) = (   0.6249950   0.5051786   1.7177109  )
        43        Al     tau(  43) = (   0.8749950   0.5051786   1.7177109  )
        44        Al     tau(  44) = (   1.1249950   0.5051786   1.7177109  )
        45        Al     tau(  45) = (   0.4999950   0.7216849   1.7177109  )
        46        Al     tau(  46) = (   0.7499950   0.7216849   1.7177109  )
        47        Al     tau(  47) = (   0.9999950   0.7216849   1.7177109  )
        48        Al     tau(  48) = (   1.2499950   0.7216849   1.7177109  )
        49        Al     tau(  49) = (   1.0000050   0.1443405   1.9218437  )
        50        Al     tau(  50) = (   0.2500050   0.1443405   1.9218437  )
        51        Al     tau(  51) = (   0.5000050   0.1443405   1.9218437  )
        52        Al     tau(  52) = (   0.7500050   0.1443405   1.9218437  )
        53        Al     tau(  53) = (   1.1250050   0.3608468   1.9218437  )
        54        Al     tau(  54) = (   0.3750050   0.3608468   1.9218437  )
        55        Al     tau(  55) = (   0.6250050   0.3608468   1.9218437  )
        56        Al     tau(  56) = (   0.8750050   0.3608468   1.9218437  )
        57        Al     tau(  57) = (   1.2500050   0.5773532   1.9218437  )
        58        Al     tau(  58) = (   0.5000050   0.5773532   1.9218437  )
        59        Al     tau(  59) = (   0.7500050   0.5773532   1.9218437  )
        60        Al     tau(  60) = (   1.0000050   0.5773532   1.9218437  )
        61        Al     tau(  61) = (   1.3750050   0.7938595   1.9218437  )
        62        Al     tau(  62) = (   0.6250050   0.7938595   1.9218437  )
        63        Al     tau(  63) = (   0.8750050   0.7938595   1.9218437  )
        64        Al     tau(  64) = (   1.1250050   0.7938595   1.9218437  )
        65        Al     tau(  65) = (   0.0000000   0.0000000   2.1259764  )
        66        Al     tau(  66) = (   0.2500000   0.0000000   2.1259764  )
        67        Al     tau(  67) = (   0.5000000   0.0000000   2.1259764  )
        68        Al     tau(  68) = (   0.7500000   0.0000000   2.1259764  )
        69        Al     tau(  69) = (   0.1250000   0.2165064   2.1259764  )
        70        Al     tau(  70) = (   0.3750000   0.2165064   2.1259764  )
        71        Al     tau(  71) = (   0.6250000   0.2165064   2.1259764  )
        72        Al     tau(  72) = (   0.8750000   0.2165064   2.1259764  )
        73        Al     tau(  73) = (   0.2500000   0.4330127   2.1259764  )
        74        Al     tau(  74) = (   0.5000000   0.4330127   2.1259764  )
        75        Al     tau(  75) = (   0.7500000   0.4330127   2.1259764  )
        76        Al     tau(  76) = (   1.0000000   0.4330127   2.1259764  )
        77        Al     tau(  77) = (   0.3750000   0.6495191   2.1259764  )
        78        Al     tau(  78) = (   0.6250000   0.6495191   2.1259764  )
        79        Al     tau(  79) = (   0.8750000   0.6495191   2.1259764  )
        80        Al     tau(  80) = (   1.1250000   0.6495191   2.1259764  )

     number of k points=    10  Marzari-Vanderbilt smearing, width (Ry)=  0.0200
                       cart. coord. in units 2pi/alat
        k(    1) = (   0.0000000   0.0000000   0.0000000), wk =   0.1250000
        k(    2) = (   0.0000000   0.2886625   0.0000000), wk =   0.2500000
        k(    3) = (   0.0000000  -0.5773249   0.0000000), wk =   0.1250000
        k(    4) = (   0.2500000  -0.1443312   0.0000000), wk =   0.2500000
        k(    5) = (   0.2500000  -0.7216562   0.0000000), wk =   0.2500000
        k(    6) = (  -0.5000000   0.2886625   0.0000000), wk =   0.1250000
        k(    7) = (  -0.5000000   0.5773249   0.0000000), wk =   0.2500000
        k(    8) = (  -0.2500000  -0.1443312   0.0000000), wk =   0.2500000
        k(    9) = (  -0.2500000  -0.7216562   0.0000000), wk =   0.2500000
        k(   10) = (   0.5000000   0.2886625   0.0000000), wk =   0.1250000

     Dense  grid:  5359811 G-vectors     FFT dimensions: ( 160, 160, 540)

     Smooth grid:  1895543 G-vectors     FFT dimensions: ( 108, 108, 375)

     Estimated max dynamical RAM per process >       1.99 GB

     Estimated total dynamical RAM >      47.72 GB

     Initial potential from superposition of free atoms

     starting charge     239.8168, renormalised to     240.0000

     negative rho (up, down):  1.711E-04 0.000E+00
     Starting wfcs are  320 randomized atomic wfcs
     Checking if some PAW data can be deallocated... 

     total cpu time spent up to now is      103.9 secs

     Self-consistent Calculation

     iteration #  1     ecut=    60.00 Ry     beta= 0.30
     Davidson diagonalization with overlap
     ethr =  1.00E-02,  avg # of iterations =  3.9

     total cpu time spent up to now is      265.1 secs

     total energy              =   -3157.53178111 Ry
     estimated scf accuracy    <       4.47537605 Ry

     iteration #  2     ecut=    60.00 Ry     beta= 0.30
     Davidson diagonalization with overlap
     ethr =  1.86E-03,  avg # of iterations =  6.1

     total cpu time spent up to now is      457.0 secs

     total energy              =   -3156.50770796 Ry
     estimated scf accuracy    <      48.17560725 Ry

     iteration #  3     ecut=    60.00 Ry     beta= 0.30
     Davidson diagonalization with overlap
     ethr =  1.86E-03,  avg # of iterations =  5.3

     total cpu time spent up to now is      626.8 secs

     total energy              =   -3159.29198024 Ry
     estimated scf accuracy    <       0.26923339 Ry

     iteration #  4     ecut=    60.00 Ry     beta= 0.30
     Davidson diagonalization with overlap
     ethr =  1.12E-04,  avg # of iterations =  9.0

     total cpu time spent up to now is      827.5 secs

     total energy              =   -3159.31131173 Ry
     estimated scf accuracy    <       0.38931884 Ry

     iteration #  5     ecut=    60.00 Ry     beta= 0.30
     Davidson diagonalization with overlap
     ethr =  1.12E-04,  avg # of iterations =  6.6

     total cpu time spent up to now is      994.2 secs

     total energy              =   -3159.17402634 Ry
     estimated scf accuracy    <       9.73351609 Ry

     iteration #  6     ecut=    60.00 Ry     beta= 0.30
     Davidson diagonalization with overlap
     ethr =  1.12E-04,  avg # of iterations =  7.1

     negative rho (up, down):  3.861E-08 0.000E+00

     total cpu time spent up to now is     1147.8 secs

     total energy              =   -3159.33345302 Ry
     estimated scf accuracy    <       0.19925407 Ry

     iteration #  7     ecut=    60.00 Ry     beta= 0.30
     Davidson diagonalization with overlap
     ethr =  8.30E-05,  avg # of iterations =  3.0

     negative rho (up, down):  2.283E-05 0.000E+00

     total cpu time spent up to now is     1279.1 secs

     total energy              =   -3159.34859940 Ry
     estimated scf accuracy    <       0.01669818 Ry

     iteration #  8     ecut=    60.00 Ry     beta= 0.30
     Davidson diagonalization with overlap
     c_bands:  1 eigenvalues not converged
     c_bands:  2 eigenvalues not converged
     c_bands:  1 eigenvalues not converged
     c_bands:  2 eigenvalues not converged
     ethr =  6.96E-06,  avg # of iterations = 14.8

     negative rho (up, down):  1.644E-05 0.000E+00

     total cpu time spent up to now is     1531.3 secs

     total energy              =   -3159.34630478 Ry
     estimated scf accuracy    <       0.40857279 Ry

     iteration #  9     ecut=    60.00 Ry     beta= 0.30
     Davidson diagonalization with overlap
     c_bands:  1 eigenvalues not converged
     ethr =  6.96E-06,  avg # of iterations =  7.1

     negative rho (up, down):  1.809E-05 0.000E+00

     total cpu time spent up to now is     1683.1 secs

     total energy              =   -3159.34365305 Ry
     estimated scf accuracy    <       0.09820402 Ry

     iteration # 10     ecut=    60.00 Ry     beta= 0.30
     Davidson diagonalization with overlap
     ethr =  6.96E-06,  avg # of iterations =  5.9

     negative rho (up, down):  2.317E-05 0.000E+00

     total cpu time spent up to now is     1848.2 secs

     total energy              =   -3159.34957971 Ry
     estimated scf accuracy    <       0.00067768 Ry

     iteration # 11     ecut=    60.00 Ry     beta= 0.30
     Davidson diagonalization with overlap
     ethr =  2.82E-07,  avg # of iterations =  8.0

     negative rho (up, down):  2.759E-05 0.000E+00

     total cpu time spent up to now is     2052.8 secs

     total energy              =   -3159.34982435 Ry
     estimated scf accuracy    <       0.00876722 Ry

     iteration # 12     ecut=    60.00 Ry     beta= 0.30
     Davidson diagonalization with overlap
     ethr =  2.82E-07,  avg # of iterations =  3.3

     negative rho (up, down):  3.022E-05 0.000E+00

     total cpu time spent up to now is     2182.3 secs

     total energy              =   -3159.34955507 Ry
     estimated scf accuracy    <       0.00392480 Ry

     iteration # 13     ecut=    60.00 Ry     beta= 0.30
     Davidson diagonalization with overlap
     ethr =  2.82E-07,  avg # of iterations =  5.6

     negative rho (up, down):  3.161E-05 0.000E+00

     total cpu time spent up to now is     2335.6 secs

     total energy              =   -3159.34976780 Ry
     estimated scf accuracy    <       0.00001564 Ry

     iteration # 14     ecut=    60.00 Ry     beta= 0.30
     Davidson diagonalization with overlap
     ethr =  6.52E-09,  avg # of iterations =  6.7

     negative rho (up, down):  3.279E-05 0.000E+00

     total cpu time spent up to now is     2518.6 secs

     total energy              =   -3159.34977826 Ry
     estimated scf accuracy    <       0.00002768 Ry

     iteration # 15     ecut=    60.00 Ry     beta= 0.30
     Davidson diagonalization with overlap
     ethr =  6.52E-09,  avg # of iterations =  1.5

     negative rho (up, down):  3.389E-05 0.000E+00

     total cpu time spent up to now is     2636.4 secs

     total energy              =   -3159.34977822 Ry
     estimated scf accuracy    <       0.00000919 Ry

     iteration # 16     ecut=    60.00 Ry     beta= 0.30
     Davidson diagonalization with overlap
     ethr =  3.83E-09,  avg # of iterations =  1.9

     negative rho (up, down):  3.460E-05 0.000E+00

     total cpu time spent up to now is     2756.2 secs

     total energy              =   -3159.34977818 Ry
     estimated scf accuracy    <       0.00000211 Ry

     iteration # 17     ecut=    60.00 Ry     beta= 0.30
     Davidson diagonalization with overlap
     ethr =  8.77E-10,  avg # of iterations =  5.6

     negative rho (up, down):  3.481E-05 0.000E+00

     total cpu time spent up to now is     2923.8 secs

     total energy              =   -3159.34977859 Ry
     estimated scf accuracy    <       0.00000226 Ry

     iteration # 18     ecut=    60.00 Ry     beta= 0.30
     Davidson diagonalization with overlap
     ethr =  8.77E-10,  avg # of iterations =  1.6

     negative rho (up, down):  3.504E-05 0.000E+00

     total cpu time spent up to now is     3041.6 secs

     total energy              =   -3159.34977863 Ry
     estimated scf accuracy    <       0.00000032 Ry

     iteration # 19     ecut=    60.00 Ry     beta= 0.30
     Davidson diagonalization with overlap
     ethr =  1.32E-10,  avg # of iterations =  5.0

     negative rho (up, down):  3.519E-05 0.000E+00

     total cpu time spent up to now is     3183.6 secs

     total energy              =   -3159.34977867 Ry
     estimated scf accuracy    <       0.00000001 Ry

     iteration # 20     ecut=    60.00 Ry     beta= 0.30
     Davidson diagonalization with overlap
     ethr =  4.30E-12,  avg # of iterations =  8.2

     negative rho (up, down):  3.529E-05 0.000E+00

     total cpu time spent up to now is     3392.8 secs

     total energy              =   -3159.34977867 Ry
     estimated scf accuracy    <       0.00000007 Ry

     iteration # 21     ecut=    60.00 Ry     beta= 0.30
     Davidson diagonalization with overlap
     ethr =  4.30E-12,  avg # of iterations =  4.2

     negative rho (up, down):  3.539E-05 0.000E+00

     total cpu time spent up to now is     3535.3 secs

     End of self-consistent calculation

          k = 0.0000 0.0000 0.0000 (237007 PWs)   bands (ev):

   -11.3869 -10.6924  -9.8921  -9.8921  -9.8921  -9.8917  -9.8915  -9.8915
    -9.5718  -9.2036  -9.2036  -9.2036  -9.2033  -9.2031  -9.2031  -8.0922
    -8.0922  -8.0922  -8.0919  -8.0917  -8.0917  -8.0461  -6.9490  -6.9490
    -6.9488  -6.9488  -6.9486  -6.9486  -6.5780  -6.5780  -6.5780  -6.5777
    -6.5775  -6.5775  -6.2739  -6.2739  -6.2739  -6.2739  -6.2736  -6.2736
    -6.1422  -5.5181  -5.5178  -5.5178  -5.4906  -5.4902  -5.4902  -5.1869
    -5.1869  -5.1867  -5.1867  -5.1865  -5.1865  -4.8532  -4.8529  -4.8529
    -4.8285  -4.8280  -4.8280  -4.6806  -4.6806  -4.6806  -4.6803  -4.6801
    -4.6801  -4.0967  -3.9264  -3.9261  -3.9261  -3.7190  -3.7190  -3.7189
    -3.7189  -3.7186  -3.7186  -3.6438  -3.6434  -3.6434  -2.6948  -2.6947
    -2.6947  -2.6944  -2.6943  -2.6943  -2.3860  -2.3856  -2.3856  -2.0115
    -2.0115  -2.0114  -2.0114  -2.0113  -2.0113  -1.9387  -1.9382  -1.9382
    -1.6786  -1.3231  -1.3231  -1.3229  -1.3229  -1.3227  -1.3227  -1.2024
    -1.2024  -1.2024  -1.2024  -1.2022  -1.2022  -0.6589  -0.6589  -0.6587
    -0.6587  -0.6585  -0.6585  -0.3499  -0.3499  -0.3498  -0.3498  -0.3496
    -0.3496  -0.3291  -0.3291  -0.3291  -0.3288  -0.3287  -0.3287  -0.3243
    -0.3239  -0.3238  -0.2592  -0.2589  -0.2588   0.2805   0.2805   0.2806
     0.2806   0.2807   0.2807   0.3812   0.3813   0.3814   0.3815   0.3815

          k = 0.0000 0.2887 0.0000 (236896 PWs)   bands (ev):

   -11.2930 -10.5989 -10.5440 -10.1709 -10.1709  -9.8529  -9.4813  -9.4813
    -9.4788  -9.4278  -9.4278  -9.0579  -8.7413  -8.7413  -8.7374  -8.3729
    -8.3681  -8.3681  -7.9538  -7.9534  -7.9534  -7.6330  -7.6330  -7.2734
    -7.2734  -7.2673  -7.2178  -6.8584  -6.8577  -6.8577  -6.8515  -6.8515
    -6.1846  -6.1834  -6.1834  -6.1763  -6.1763  -6.1333  -6.1333  -6.1232
    -6.1232  -6.0499  -5.7717  -5.7717  -5.7614  -5.4653  -5.4653  -5.3157
    -5.1045  -5.1045  -5.1024  -5.0980  -5.0980  -4.9516  -4.9516  -4.7003
    -4.7003  -4.6851  -4.6851  -4.4005  -4.4005  -4.2317  -4.2317  -4.0493
    -4.0493  -4.0371  -4.0371  -4.0086  -4.0045  -3.8787  -3.6809  -3.6405
    -3.6405  -3.3057  -3.3046  -3.1861  -3.1861  -2.9555  -2.9555  -2.9464
    -2.9464  -2.8417  -2.8417  -2.6495  -2.6495  -2.6059  -2.6059  -2.6001
    -2.6001  -2.2629  -2.2629  -2.2595  -2.2595  -2.2190  -2.1279  -2.1279
    -1.9318  -1.5907  -1.5586  -1.5586  -1.5038  -1.4992  -1.4991  -1.3707
    -1.3707  -1.2356  -1.2356  -1.0784  -1.0784  -0.9844  -0.9844  -0.8976
    -0.8730  -0.8730  -0.7141  -0.7141  -0.6664  -0.6478  -0.6478  -0.5613
    -0.5613  -0.5026  -0.3832  -0.3832  -0.0322  -0.0322  -0.0250  -0.0250
     0.0418   0.0418   0.1927   0.2462   0.2535   0.2535   0.4080   0.4080
     0.4610   0.4610   0.5358   0.5358   0.6062   0.6062   0.7410   0.7411

          k = 0.0000-0.5773 0.0000 (236880 PWs)   bands (ev):

   -11.0119 -11.0114 -10.3189 -10.3184 -10.2640 -10.2640  -9.5741  -9.5741
    -9.2005  -9.2000  -8.7811  -8.7811  -8.7807  -8.7807  -8.4603  -8.4603
    -8.0972  -8.0972  -8.0969  -8.0969  -8.0454  -8.0452  -7.6775  -7.6770
    -7.3649  -7.3649  -6.9936  -6.9936  -6.9932  -6.9932  -6.9430  -6.9430
    -6.5858  -6.5858  -6.5852  -6.5852  -6.2675  -6.2674  -5.9134  -5.9134
    -5.9129  -5.9129  -5.7739  -5.7734  -5.4907  -5.4907  -5.4904  -5.4904
    -5.0424  -5.0424  -4.8343  -4.8343  -4.8338  -4.8338  -4.7777  -4.7776
    -4.4459  -4.4459  -4.4145  -4.4145  -3.7962  -3.7962  -3.7523  -3.7523
    -3.7449  -3.7444  -3.7388  -3.7388  -3.7385  -3.7385  -3.6128  -3.6128
    -3.6125  -3.6125  -3.4178  -3.4178  -3.4173  -3.4173  -3.0428  -3.0428
    -3.0399  -3.0399  -3.0398  -3.0398  -2.9872  -2.9870  -2.8843  -2.8843
    -2.5994  -2.5994  -2.2805  -2.2804  -1.9574  -1.9574  -1.9573  -1.9573
    -1.6743  -1.6743  -1.6739  -1.6739  -1.6478  -1.6478  -1.5613  -1.5611
    -1.4182  -1.4182  -1.3287  -1.3283  -1.2553  -1.2553  -1.2549  -1.2549
    -0.9846  -0.9846  -0.9697  -0.9697  -0.8343  -0.8342  -0.6422  -0.6422
    -0.4514  -0.4512  -0.4204  -0.4204  -0.4202  -0.4202  -0.2429  -0.2429
    -0.2426  -0.2426   0.2493   0.2493   0.4494   0.4494   0.4497   0.4497
     0.4826   0.4826   0.4831   0.4831   0.9657   0.9704   0.9811   0.9812

          k = 0.2500-0.1443 0.0000 (236890 PWs)   bands (ev):

   -11.2930 -10.5989 -10.5439 -10.1710 -10.1709  -9.8528  -9.4814  -9.4813
    -9.4788  -9.4279  -9.4278  -9.0577  -8.7414  -8.7412  -8.7373  -8.3728
    -8.3682  -8.3682  -7.9538  -7.9535  -7.9532  -7.6331  -7.6330  -7.2734
    -7.2732  -7.2671  -7.2178  -6.8581  -6.8580  -6.8579  -6.8516  -6.8516
    -6.1843  -6.1837  -6.1836  -6.1763  -6.1761  -6.1337  -6.1334  -6.1233
    -6.1231  -6.0499  -5.7717  -5.7713  -5.7613  -5.4657  -5.4654  -5.3157
    -5.1044  -5.1041  -5.1022  -5.0983  -5.0982  -4.9517  -4.9517  -4.7006
    -4.7002  -4.6851  -4.6849  -4.4009  -4.4006  -4.2318  -4.2317  -4.0497
    -4.0492  -4.0370  -4.0367  -4.0086  -4.0040  -3.8786  -3.6806  -3.6408
    -3.6407  -3.3056  -3.3042  -3.1864  -3.1861  -2.9556  -2.9556  -2.9462
    -2.9458  -2.8418  -2.8416  -2.6493  -2.6491  -2.6063  -2.6059  -2.6004
    -2.5998  -2.2630  -2.2628  -2.2593  -2.2590  -2.2186  -2.1282  -2.1278
    -1.9316  -1.5907  -1.5592  -1.5590  -1.5033  -1.4995  -1.4991  -1.3711
    -1.3706  -1.2355  -1.2353  -1.0787  -1.0784  -0.9846  -0.9846  -0.8975
    -0.8734  -0.8730  -0.7145  -0.7138  -0.6659  -0.6483  -0.6479  -0.5614
    -0.5613  -0.5020  -0.3833  -0.3831  -0.0324  -0.0322  -0.0257  -0.0253
     0.0416   0.0419   0.1933   0.2465   0.2534   0.2535   0.4078   0.4081
     0.4606   0.4611   0.5361   0.5365   0.6062   0.6064   0.7409   0.7410

          k = 0.2500-0.7217 0.0000 (236847 PWs)   bands (ev):

   -11.1053 -10.7308 -10.7308 -10.4120 -10.0390 -10.0389  -9.6133  -9.6132
    -9.2930  -8.9260  -8.9259  -8.9223  -8.9223  -8.8731  -8.5046  -8.5045
    -8.1890  -7.8221  -7.8219  -7.8164  -7.8163  -7.7702  -7.7701  -7.7694
    -7.4048  -7.4045  -7.4014  -7.4013  -7.0911  -7.0910  -7.0846  -6.7276
    -6.7274  -6.7206  -6.7205  -6.3047  -6.3046  -5.9959  -5.9958  -5.8656
    -5.6368  -5.6365  -5.5923  -5.5918  -5.5805  -5.4985  -5.4985  -5.2488
    -5.2220  -5.2218  -5.2202  -4.9279  -4.9275  -4.5880  -4.5569  -4.5176
    -4.5101  -4.5100  -4.4100  -4.4099  -4.1680  -4.1677  -4.1663  -4.1661
    -3.8701  -3.8697  -3.8644  -3.8326  -3.6984  -3.6632  -3.5180  -3.5178
    -3.4811  -3.4810  -3.3785  -3.3614  -3.3613  -3.1284  -3.1279  -3.1185
    -3.0962  -2.8361  -2.7278  -2.7278  -2.6718  -2.6716  -2.6429  -2.6425
    -2.5059  -2.4333  -2.4332  -2.4324  -2.1261  -2.0803  -2.0799  -2.0178
    -2.0177  -1.9973  -1.9968  -1.7989  -1.7484  -1.6782  -1.5771  -1.5767
    -1.4157  -1.3025  -1.3024  -1.2578  -1.2041  -1.2035  -1.1578  -1.1573
    -1.0685  -1.0685  -1.0489  -0.8832  -0.8829  -0.5790  -0.5789  -0.5440
    -0.5434  -0.5217  -0.5214  -0.2613  -0.2611  -0.1944  -0.1942  -0.1142
    -0.0823  -0.0822  -0.0349   0.0516   0.0521   0.1887   0.1892   0.2081
     0.3861   0.4721   0.4728   0.5934   0.6214   0.6216   0.9116   1.0683

          k =-0.5000 0.2887 0.0000 (236880 PWs)   bands (ev):

   -11.0116 -11.0116 -10.3186 -10.3186 -10.2641 -10.2641  -9.5741  -9.5741
    -9.2002  -9.2002  -8.7809  -8.7809  -8.7808  -8.7808  -8.4604  -8.4604
    -8.0972  -8.0972  -8.0970  -8.0970  -8.0451  -8.0451  -7.6772  -7.6772
    -7.3647  -7.3647  -6.9935  -6.9935  -6.9933  -6.9933  -6.9430  -6.9430
    -6.5858  -6.5858  -6.5856  -6.5856  -6.2672  -6.2672  -5.9135  -5.9135
    -5.9133  -5.9133  -5.7737  -5.7737  -5.4906  -5.4906  -5.4904  -5.4904
    -5.0424  -5.0424  -4.8344  -4.8344  -4.8342  -4.8342  -4.7775  -4.7775
    -4.4456  -4.4456  -4.4142  -4.4142  -3.7960  -3.7960  -3.7519  -3.7519
    -3.7447  -3.7446  -3.7390  -3.7390  -3.7385  -3.7385  -3.6127  -3.6127
    -3.6126  -3.6126  -3.4179  -3.4179  -3.4177  -3.4177  -3.0428  -3.0428
    -3.0402  -3.0402  -3.0397  -3.0397  -2.9869  -2.9869  -2.8840  -2.8840
    -2.5991  -2.5991  -2.2799  -2.2799  -1.9577  -1.9577  -1.9572  -1.9572
    -1.6742  -1.6742  -1.6740  -1.6740  -1.6484  -1.6484  -1.5607  -1.5607
    -1.4181  -1.4181  -1.3285  -1.3285  -1.2556  -1.2556  -1.2552  -1.2552
    -0.9850  -0.9850  -0.9695  -0.9695  -0.8340  -0.8340  -0.6423  -0.6423
    -0.4507  -0.4507  -0.4207  -0.4207  -0.4201  -0.4201  -0.2434  -0.2434
    -0.2429  -0.2429   0.2490   0.2490   0.4489   0.4489   0.4494   0.4494
     0.4825   0.4825   0.4827   0.4827   0.9662   0.9662   0.9813   0.9813

          k =-0.5000 0.5773 0.0000 (236845 PWs)   bands (ev):

   -11.1053 -10.7311 -10.7306 -10.4120 -10.0392 -10.0387  -9.6135  -9.6131
    -9.2930  -8.9261  -8.9258  -8.9226  -8.9220  -8.8730  -8.5047  -8.5041
    -8.1888  -7.8221  -7.8216  -7.8166  -7.8163  -7.7704  -7.7702  -7.7693
    -7.4048  -7.4044  -7.4016  -7.4011  -7.0912  -7.0912  -7.0844  -6.7276
    -6.7273  -6.7207  -6.7201  -6.3049  -6.3046  -5.9961  -5.9960  -5.8656
    -5.6368  -5.6364  -5.5922  -5.5920  -5.5803  -5.4988  -5.4983  -5.2491
    -5.2220  -5.2215  -5.2205  -4.9278  -4.9277  -4.5883  -4.5573  -4.5172
    -4.5103  -4.5102  -4.4102  -4.4099  -4.1679  -4.1676  -4.1661  -4.1655
    -3.8700  -3.8699  -3.8639  -3.8326  -3.6983  -3.6636  -3.5178  -3.5173
    -3.4813  -3.4808  -3.3788  -3.3615  -3.3610  -3.1281  -3.1276  -3.1187
    -3.0964  -2.8358  -2.7280  -2.7279  -2.6716  -2.6714  -2.6426  -2.6423
    -2.5060  -2.4335  -2.4332  -2.4326  -2.1264  -2.0801  -2.0798  -2.0183
    -2.0183  -1.9970  -1.9967  -1.7989  -1.7482  -1.6786  -1.5769  -1.5766
    -1.4156  -1.3031  -1.3029  -1.2580  -1.2036  -1.2033  -1.1575  -1.1573
    -1.0687  -1.0683  -1.0487  -0.8829  -0.8824  -0.5792  -0.5792  -0.5435
    -0.5435  -0.5216  -0.5214  -0.2613  -0.2610  -0.1949  -0.1948  -0.1147
    -0.0824  -0.0821  -0.0352   0.0515   0.0516   0.1891   0.1895   0.2080
     0.3862   0.4726   0.4727   0.5932   0.6212   0.6215   0.9120   0.9516

          k =-0.2500-0.1443 0.0000 (236890 PWs)   bands (ev):

   -11.2930 -10.5989 -10.5439 -10.1710 -10.1709  -9.8528  -9.4814  -9.4813
    -9.4788  -9.4279  -9.4278  -9.0577  -8.7414  -8.7412  -8.7373  -8.3728
    -8.3682  -8.3682  -7.9538  -7.9535  -7.9532  -7.6331  -7.6330  -7.2734
    -7.2732  -7.2671  -7.2178  -6.8581  -6.8580  -6.8579  -6.8516  -6.8516
    -6.1843  -6.1837  -6.1836  -6.1763  -6.1761  -6.1337  -6.1334  -6.1233
    -6.1231  -6.0499  -5.7717  -5.7713  -5.7613  -5.4657  -5.4654  -5.3157
    -5.1044  -5.1041  -5.1022  -5.0983  -5.0982  -4.9517  -4.9517  -4.7006
    -4.7002  -4.6851  -4.6849  -4.4009  -4.4006  -4.2318  -4.2317  -4.0497
    -4.0492  -4.0370  -4.0367  -4.0086  -4.0040  -3.8786  -3.6806  -3.6408
    -3.6407  -3.3056  -3.3042  -3.1864  -3.1860  -2.9556  -2.9556  -2.9462
    -2.9458  -2.8418  -2.8416  -2.6493  -2.6491  -2.6063  -2.6059  -2.6004
    -2.5998  -2.2630  -2.2628  -2.2594  -2.2591  -2.2185  -2.1282  -2.1278
    -1.9316  -1.5907  -1.5592  -1.5590  -1.5034  -1.4995  -1.4992  -1.3711
    -1.3706  -1.2354  -1.2353  -1.0787  -1.0784  -0.9846  -0.9846  -0.8975
    -0.8734  -0.8730  -0.7145  -0.7138  -0.6659  -0.6483  -0.6480  -0.5614
    -0.5613  -0.5020  -0.3833  -0.3832  -0.0324  -0.0322  -0.0257  -0.0253
     0.0416   0.0419   0.1933   0.2465   0.2534   0.2535   0.4077   0.4080
     0.4606   0.4611   0.5361   0.5365   0.6063   0.6064   0.7408   0.7410

          k =-0.2500-0.7217 0.0000 (236847 PWs)   bands (ev):

   -11.1053 -10.7308 -10.7308 -10.4120 -10.0390 -10.0389  -9.6133  -9.6132
    -9.2930  -8.9260  -8.9259  -8.9223  -8.9223  -8.8731  -8.5046  -8.5045
    -8.1890  -7.8221  -7.8219  -7.8164  -7.8163  -7.7702  -7.7701  -7.7694
    -7.4048  -7.4045  -7.4014  -7.4013  -7.0911  -7.0910  -7.0846  -6.7276
    -6.7274  -6.7206  -6.7205  -6.3047  -6.3046  -5.9959  -5.9958  -5.8656
    -5.6368  -5.6365  -5.5923  -5.5918  -5.5805  -5.4985  -5.4985  -5.2488
    -5.2220  -5.2218  -5.2202  -4.9279  -4.9275  -4.5880  -4.5569  -4.5176
    -4.5101  -4.5100  -4.4100  -4.4099  -4.1680  -4.1677  -4.1663  -4.1661
    -3.8701  -3.8697  -3.8644  -3.8326  -3.6984  -3.6632  -3.5180  -3.5178
    -3.4811  -3.4810  -3.3785  -3.3614  -3.3613  -3.1284  -3.1280  -3.1185
    -3.0962  -2.8361  -2.7278  -2.7278  -2.6718  -2.6715  -2.6429  -2.6425
    -2.5059  -2.4333  -2.4332  -2.4324  -2.1261  -2.0803  -2.0800  -2.0179
    -2.0177  -1.9973  -1.9969  -1.7989  -1.7484  -1.6782  -1.5771  -1.5767
    -1.4157  -1.3025  -1.3023  -1.2578  -1.2041  -1.2035  -1.1578  -1.1574
    -1.0685  -1.0685  -1.0489  -0.8832  -0.8829  -0.5790  -0.5789  -0.5440
    -0.5434  -0.5217  -0.5214  -0.2613  -0.2611  -0.1944  -0.1942  -0.1143
    -0.0822  -0.0822  -0.0349   0.0516   0.0521   0.1887   0.1892   0.2081
     0.3861   0.4721   0.4728   0.5934   0.6214   0.6216   0.9116   1.0668

          k = 0.5000 0.2887 0.0000 (236880 PWs)   bands (ev):

   -11.0116 -11.0116 -10.3186 -10.3186 -10.2641 -10.2641  -9.5741  -9.5741
    -9.2002  -9.2002  -8.7809  -8.7809  -8.7808  -8.7808  -8.4604  -8.4604
    -8.0972  -8.0972  -8.0970  -8.0970  -8.0451  -8.0451  -7.6772  -7.6772
    -7.3647  -7.3647  -6.9935  -6.9935  -6.9933  -6.9933  -6.9430  -6.9430
    -6.5858  -6.5858  -6.5856  -6.5856  -6.2672  -6.2672  -5.9135  -5.9135
    -5.9133  -5.9133  -5.7737  -5.7737  -5.4906  -5.4906  -5.4904  -5.4904
    -5.0424  -5.0424  -4.8344  -4.8344  -4.8342  -4.8342  -4.7775  -4.7775
    -4.4456  -4.4456  -4.4142  -4.4142  -3.7960  -3.7960  -3.7519  -3.7519
    -3.7447  -3.7446  -3.7390  -3.7390  -3.7385  -3.7385  -3.6127  -3.6127
    -3.6126  -3.6126  -3.4179  -3.4179  -3.4177  -3.4176  -3.0428  -3.0428
    -3.0402  -3.0402  -3.0397  -3.0397  -2.9869  -2.9869  -2.8840  -2.8840
    -2.5992  -2.5992  -2.2799  -2.2799  -1.9577  -1.9577  -1.9572  -1.9572
    -1.6742  -1.6742  -1.6740  -1.6740  -1.6484  -1.6484  -1.5606  -1.5606
    -1.4181  -1.4181  -1.3285  -1.3285  -1.2556  -1.2556  -1.2552  -1.2552
    -0.9850  -0.9850  -0.9695  -0.9695  -0.8340  -0.8340  -0.6423  -0.6423
    -0.4507  -0.4507  -0.4207  -0.4207  -0.4201  -0.4201  -0.2434  -0.2434
    -0.2429  -0.2429   0.2490   0.2490   0.4489   0.4489   0.4494   0.4494
     0.4825   0.4825   0.4827   0.4827   0.9666   0.9738   0.9813   0.9814

     the Fermi energy is    -0.5265 ev

!    total energy              =   -3159.34977867 Ry
     total all-electron energy =    -38850.772305 Ry
     estimated scf accuracy    <          2.9E-09 Ry
     smearing contrib. (-TS)   =      -0.00937652 Ry
     internal energy E=F+TS    =   -3159.34040215 Ry

     The total energy is F=E-TS. E is the sum of the following terms:
     one-electron contribution =  -10711.54620116 Ry
     hartree contribution      =    5408.40178386 Ry
     xc contribution           =    -204.34945752 Ry
     ewald contribution        =    5122.42158161 Ry
     one-center paw contrib.   =   -2774.26810894 Ry

     convergence has been achieved in  21 iterations

     negative rho (up, down):  3.539E-05 0.000E+00

     Forces acting on atoms (cartesian axes, Ry/au):

     atom    1 type  1   force =    -0.00000104   -0.00002794   -0.00264141
     atom    2 type  1   force =    -0.00000135   -0.00002808   -0.00264129
     atom    3 type  1   force =    -0.00000150   -0.00002826   -0.00264141
     atom    4 type  1   force =    -0.00000126   -0.00002821   -0.00264145
     atom    5 type  1   force =    -0.00000129   -0.00000010   -0.00263987
     atom    6 type  1   force =    -0.00000166   -0.00000023   -0.00264001
     atom    7 type  1   force =    -0.00000133   -0.00000013   -0.00264023
     atom    8 type  1   force =    -0.00000095   -0.00000006   -0.00264009
     atom    9 type  1   force =    -0.00000155   -0.00000109   -0.00263926
     atom   10 type  1   force =    -0.00000145   -0.00000092   -0.00263948
     atom   11 type  1   force =    -0.00000102   -0.00000084   -0.00263950
     atom   12 type  1   force =    -0.00000116   -0.00000095   -0.00263923
     atom   13 type  1   force =    -0.00000135    0.00003009   -0.00262709
     atom   14 type  1   force =    -0.00000111    0.00003030   -0.00262709
     atom   15 type  1   force =    -0.00000128    0.00003012   -0.00262696
     atom   16 type  1   force =    -0.00000146    0.00002996   -0.00262690
     atom   17 type  1   force =     0.00000024   -0.00004025    0.00248463
     atom   18 type  1   force =     0.00000026   -0.00004022    0.00248463
     atom   19 type  1   force =     0.00000004   -0.00004061    0.00248465
     atom   20 type  1   force =     0.00000002   -0.00004059    0.00248462
     atom   21 type  1   force =     0.00000029    0.00000290    0.00248140
     atom   22 type  1   force =    -0.00000019    0.00000263    0.00248132
     atom   23 type  1   force =     0.00000001    0.00000253    0.00248133
     atom   24 type  1   force =     0.00000045    0.00000281    0.00248138
     atom   25 type  1   force =    -0.00000018   -0.00000150    0.00248255
     atom   26 type  1   force =    -0.00000010   -0.00000144    0.00248246
     atom   27 type  1   force =     0.00000044   -0.00000131    0.00248249
     atom   28 type  1   force =     0.00000048   -0.00000133    0.00248258
     atom   29 type  1   force =    -0.00000012    0.00003019    0.00248375
     atom   30 type  1   force =     0.00000028    0.00003046    0.00248370
     atom   31 type  1   force =     0.00000043    0.00003033    0.00248378
     atom   32 type  1   force =     0.00000005    0.00003005    0.00248385
     atom   33 type  1   force =     0.00000372   -0.00003561    0.00000936
     atom   34 type  1   force =     0.00000341   -0.00003595    0.00000927
     atom   35 type  1   force =     0.00000345   -0.00003619    0.00000934
     atom   36 type  1   force =     0.00000369   -0.00003590    0.00000940
     atom   37 type  1   force =     0.00000334    0.00000233   -0.00000291
     atom   38 type  1   force =     0.00000327    0.00000220   -0.00000276
     atom   39 type  1   force =     0.00000385    0.00000228   -0.00000274
     atom   40 type  1   force =     0.00000399    0.00000247   -0.00000280
     atom   41 type  1   force =     0.00000312    0.00000259    0.00000250
     atom   42 type  1   force =     0.00000360    0.00000272    0.00000254
     atom   43 type  1   force =     0.00000401    0.00000267    0.00000245
     atom   44 type  1   force =     0.00000354    0.00000249    0.00000243
     atom   45 type  1   force =     0.00000351    0.00003945   -0.00000954
     atom   46 type  1   force =     0.00000377    0.00003951   -0.00000966
     atom   47 type  1   force =     0.00000368    0.00003916   -0.00000972
     atom   48 type  1   force =     0.00000335    0.00003913   -0.00000961
     atom   49 type  1   force =    -0.00000316   -0.00003224   -0.00248381
     atom   50 type  1   force =    -0.00000347   -0.00003228   -0.00248392
     atom   51 type  1   force =    -0.00000351   -0.00003251   -0.00248391
     atom   52 type  1   force =    -0.00000320   -0.00003243   -0.00248379
     atom   53 type  1   force =    -0.00000339    0.00000066   -0.00248276
     atom   54 type  1   force =    -0.00000369    0.00000060   -0.00248261
     atom   55 type  1   force =    -0.00000331    0.00000053   -0.00248247
     atom   56 type  1   force =    -0.00000304    0.00000061   -0.00248261
     atom   57 type  1   force =    -0.00000357   -0.00000442   -0.00248165
     atom   58 type  1   force =    -0.00000351   -0.00000428   -0.00248148
     atom   59 type  1   force =    -0.00000312   -0.00000424   -0.00248154
     atom   60 type  1   force =    -0.00000312   -0.00000443   -0.00248174
     atom   61 type  1   force =    -0.00000343    0.00003749   -0.00248472
     atom   62 type  1   force =    -0.00000334    0.00003774   -0.00248474
     atom   63 type  1   force =    -0.00000335    0.00003752   -0.00248493
     atom   64 type  1   force =    -0.00000336    0.00003731   -0.00248490
     atom   65 type  1   force =     0.00000092   -0.00003103    0.00262732
     atom   66 type  1   force =     0.00000081   -0.00003101    0.00262737
     atom   67 type  1   force =     0.00000090   -0.00003112    0.00262738
     atom   68 type  1   force =     0.00000102   -0.00003115    0.00262738
     atom   69 type  1   force =     0.00000090    0.00000099    0.00263994
     atom   70 type  1   force =     0.00000074    0.00000099    0.00264003
     atom   71 type  1   force =     0.00000095    0.00000086    0.00264011
     atom   72 type  1   force =     0.00000112    0.00000093    0.00263996
     atom   73 type  1   force =     0.00000082    0.00000068    0.00264018
     atom   74 type  1   force =     0.00000074    0.00000063    0.00264035
     atom   75 type  1   force =     0.00000107    0.00000066    0.00264037
     atom   76 type  1   force =     0.00000104    0.00000060    0.00264023
     atom   77 type  1   force =     0.00000080    0.00002770    0.00264140
     atom   78 type  1   force =     0.00000083    0.00002776    0.00264147
     atom   79 type  1   force =     0.00000100    0.00002766    0.00264140
     atom   80 type  1   force =     0.00000097    0.00002754    0.00264132

     Total force =     0.014491     Total SCF correction =     0.000070


     Computing stress (Cartesian axis) and pressure


     negative rho (up, down):  3.539E-05 0.000E+00
          total   stress  (Ry/bohr**3)                   (kbar)     P=       -5.66
  -0.00006419   0.00000000   0.00000000           -9.44        0.00        0.00
   0.00000000  -0.00006422   0.00000000            0.00       -9.45        0.00
   0.00000000   0.00000000   0.00001304            0.00        0.00        1.92


     BFGS Geometry Optimization
     Energy error            =      1.9E-04 Ry
     Gradient error          =      2.6E-03 Ry/Bohr

     number of scf cycles    =   1
     number of bfgs steps    =   0

     energy             new  =   -3159.3497786656 Ry

     new trust radius        =       0.0026416121 bohr
     new conv_thr            =       0.0000000100 Ry


ATOMIC_POSITIONS (angstrom)
Al              11.4551572755        1.6534343352       14.9998275960    0   0   0
Al               2.8638322755        1.6534343352       14.9998275960    0   0   0
Al               5.7276072755        1.6534343352       14.9998275960    0   0   0
Al               8.5913822755        1.6534343352       14.9998275960    0   0   0
Al              12.8870447755        4.1335362359       14.9998275960    0   0   0
Al               4.2957197755        4.1335362359       14.9998275960    0   0   0
Al               7.1594947755        4.1335362359       14.9998275960    0   0   0
Al              10.0232697755        4.1335362359       14.9998275960    0   0   0
Al              14.3189322755        6.6136381366       14.9998275960    0   0   0
Al               5.7276072755        6.6136381366       14.9998275960    0   0   0
Al               8.5913822755        6.6136381366       14.9998275960    0   0   0
Al              11.4551572755        6.6136381366       14.9998275960    0   0   0
Al              15.7508197755        9.0937400373       14.9998275960    0   0   0
Al               7.1594947755        9.0937400373       14.9998275960    0   0   0
Al              10.0232697755        9.0937400373       14.9998275960    0   0   0
Al              12.8870447755        9.0937400373       14.9998275960    0   0   0
Al               0.0000000000        0.0000000000       17.3381887980    0   0   0
Al               2.8637750000        0.0000000000       17.3381887980    0   0   0
Al               5.7275500000        0.0000000000       17.3381887980    0   0   0
Al               8.5913250000        0.0000000000       17.3381887980    0   0   0
Al               1.4318875000        2.4801019007       17.3381887980    0   0   0
Al               4.2956625000        2.4801019007       17.3381887980    0   0   0
Al               7.1594375000        2.4801019007       17.3381887980    0   0   0
Al              10.0232125000        2.4801019007       17.3381887980    0   0   0
Al               2.8637750000        4.9602038014       17.3381887980    0   0   0
Al               5.7275500000        4.9602038014       17.3381887980    0   0   0
Al               8.5913250000        4.9602038014       17.3381887980    0   0   0
Al              11.4551000000        4.9602038014       17.3381887980    0   0   0
Al               4.2956625000        7.4403057022       17.3381887980    0   0   0
Al               7.1594375000        7.4403057022       17.3381887980    0   0   0
Al              10.0232125000        7.4403057022       17.3381887980    0   0   0
Al              12.8869875000        7.4403057022       17.3381887980    0   0   0
Al               1.4318321943        0.8266487213       19.6765549519
Al               4.2956070301        0.8266485427       19.6765549035
Al               7.1593820497        0.8266484169       19.6765549424
Al              10.0231571761        0.8266485678       19.6765549721
Al               2.8637194912        3.3067707004       19.6765484620
Al               5.7274944565        3.3067706297       19.6765485412
Al               8.5912697625        3.3067706746       19.6765485491
Al              11.4550448356        3.3067707737       19.6765485158
Al               4.2956068776        5.7868727389       19.6765513206
Al               7.1593821299        5.7868728070       19.6765513419
Al              10.0231573455        5.7868727786       19.6765512966
Al              12.8869320980        5.7868726858       19.6765512835
Al               5.7274945840        8.2669941450       19.6765449496
Al               8.5912697221        8.2669941772       19.6765448882
Al              11.4550446736        8.2669939887       19.6765448560
Al              14.3188194959        8.2669939724       19.6765449158
Al              11.4551556021        1.6534172741       22.0135968274
Al               2.8638304392        1.6534172530       22.0135967669
Al               5.7276054201        1.6534171304       22.0135967726
Al               8.5913805795        1.6534171725       22.0135968346
Al              12.8870429841        4.1335365866       22.0135973796
Al               4.2957178218        4.1335365509       22.0135974637
Al               7.1594930223        4.1335365141       22.0135975366
Al              10.0232681668        4.1335365601       22.0135974609
Al              14.3189303889        6.6136357952       22.0135979686
Al               5.7276054173        6.6136358743       22.0135980601
Al               8.5913806265        6.6136358931       22.0135980281
Al              11.4551556241        6.6136357944       22.0135979207
Al              15.7508179614        9.0937598787       22.0135963472
Al               7.1594930095        9.0937600107       22.0135963326
Al              10.0232680045        9.0937598930       22.0135962338
Al              12.8870429989        9.0937597815       22.0135962478
Al               0.0000004845       -0.0000164195       24.3546627238
Al               2.8637754301       -0.0000164081       24.3546627468
Al               5.7275504770       -0.0000164682       24.3546627541
Al               8.5913255395       -0.0000164813       24.3546627541
Al               1.4318879740        2.4801024241       24.3546693999
Al               4.2956628923        2.4801024252       24.3546694472
Al               7.1594380042        2.4801023571       24.3546694887
Al              10.0232130910        2.4801023919       24.3546694112
Al               2.8637754360        4.9602041616       24.3546695253
Al               5.7275503896        4.9602041360       24.3546696163
Al               8.5913255639        4.9602041492       24.3546696299
Al              11.4551005492        4.9602041182       24.3546695524
Al               4.2956629250        7.4403203622       24.3546701717
Al               7.1594379368        7.4403203927       24.3546702077
Al              10.0232130303        7.4403203367       24.3546701748
Al              12.8869880127        7.4403202750       24.3546701304



     Writing config-only to output data dir ./tmp/al111_4x4.save/ :
     XML data file
     NEW-OLD atomic charge density approx. for the potential

     negative rho (up, down):  3.580E-05 0.000E+00

     total cpu time spent up to now is     3756.9 secs

     Self-consistent Calculation

     iteration #  1     ecut=    60.00 Ry     beta= 0.30
     Davidson diagonalization with overlap
     ethr =  1.00E-06,  avg # of iterations =  2.0

     Threshold (ethr) on eigenvalues was too large:
     Diagonalizing with lowered threshold

     Davidson diagonalization with overlap
     ethr =  9.12E-09,  avg # of iterations =  7.0

     negative rho (up, down):  3.562E-05 0.000E+00

     total cpu time spent up to now is     4091.0 secs

     total energy              =   -3159.34996228 Ry
     estimated scf accuracy    <       0.00003605 Ry

     iteration #  2     ecut=    60.00 Ry     beta= 0.30
     Davidson diagonalization with overlap
     c_bands:  1 eigenvalues not converged
     ethr =  1.50E-08,  avg # of iterations =  8.4

     negative rho (up, down):  3.553E-05 0.000E+00

     total cpu time spent up to now is     4264.7 secs

     total energy              =   -3159.34989491 Ry
     estimated scf accuracy    <       0.00384348 Ry

     iteration #  3     ecut=    60.00 Ry     beta= 0.30
     Davidson diagonalization with overlap
     ethr =  1.50E-08,  avg # of iterations =  6.6

     negative rho (up, down):  3.548E-05 0.000E+00

     total cpu time spent up to now is     4416.5 secs

     total energy              =   -3159.34996949 Ry
     estimated scf accuracy    <       0.00006065 Ry

     iteration #  4     ecut=    60.00 Ry     beta= 0.30
     Davidson diagonalization with overlap
     ethr =  1.50E-08,  avg # of iterations =  2.6

     negative rho (up, down):  3.545E-05 0.000E+00

     total cpu time spent up to now is     4551.3 secs

     total energy              =   -3159.34997416 Ry
     estimated scf accuracy    <       0.00001421 Ry

     iteration #  5     ecut=    60.00 Ry     beta= 0.30
     Davidson diagonalization with overlap
     ethr =  5.92E-09,  avg # of iterations =  1.5

     negative rho (up, down):  3.542E-05 0.000E+00

     total cpu time spent up to now is     4668.8 secs

     total energy              =   -3159.34997466 Ry
     estimated scf accuracy    <       0.00000128 Ry

     iteration #  6     ecut=    60.00 Ry     beta= 0.30
     Davidson diagonalization with overlap
     ethr =  5.33E-10,  avg # of iterations =  5.1

     negative rho (up, down):  3.541E-05 0.000E+00

     total cpu time spent up to now is     4827.6 secs

     total energy              =   -3159.34997491 Ry
     estimated scf accuracy    <       0.00000041 Ry

     iteration #  7     ecut=    60.00 Ry     beta= 0.30
     Davidson diagonalization with overlap
     ethr =  1.71E-10,  avg # of iterations =  2.2

     negative rho (up, down):  3.540E-05 0.000E+00

     total cpu time spent up to now is     4956.3 secs

     total energy              =   -3159.34997487 Ry
     estimated scf accuracy    <       0.00000021 Ry

     iteration #  8     ecut=    60.00 Ry     beta= 0.30
     Davidson diagonalization with overlap
     ethr =  8.87E-11,  avg # of iterations =  5.0

     negative rho (up, down):  3.540E-05 0.000E+00

     total cpu time spent up to now is     5110.2 secs

     total energy              =   -3159.34997492 Ry
     estimated scf accuracy    <       0.00000034 Ry

     iteration #  9     ecut=    60.00 Ry     beta= 0.30
     Davidson diagonalization with overlap
     ethr =  8.87E-11,  avg # of iterations =  1.0

     negative rho (up, down):  3.539E-05 0.000E+00

     total cpu time spent up to now is     5224.7 secs

     total energy              =   -3159.34997487 Ry
     estimated scf accuracy    <       0.00000017 Ry

     iteration # 10     ecut=    60.00 Ry     beta= 0.30
     Davidson diagonalization with overlap
     ethr =  7.12E-11,  avg # of iterations =  3.5

     negative rho (up, down):  3.539E-05 0.000E+00

     total cpu time spent up to now is     5363.6 secs

     total energy              =   -3159.34997489 Ry
     estimated scf accuracy    <       0.00000015 Ry

     iteration # 11     ecut=    60.00 Ry     beta= 0.30
     Davidson diagonalization with overlap
     ethr =  6.28E-11,  avg # of iterations =  1.0

     negative rho (up, down):  3.539E-05 0.000E+00

     total cpu time spent up to now is     5478.5 secs

     total energy              =   -3159.34997488 Ry
     estimated scf accuracy    <       0.00000006 Ry

     iteration # 12     ecut=    60.00 Ry     beta= 0.30
     Davidson diagonalization with overlap
     ethr =  2.53E-11,  avg # of iterations =  2.2

     negative rho (up, down):  3.538E-05 0.000E+00

     total cpu time spent up to now is     5607.9 secs

     End of self-consistent calculation

          k = 0.0000 0.0000 0.0000 (237007 PWs)   bands (ev):

   -11.3867 -10.6900  -9.8919  -9.8919  -9.8919  -9.8916  -9.8914  -9.8914
    -9.5705  -9.2012  -9.2012  -9.2012  -9.2009  -9.2007  -9.2007  -8.0909
    -8.0909  -8.0909  -8.0906  -8.0904  -8.0904  -8.0472  -6.9488  -6.9488
    -6.9487  -6.9487  -6.9485  -6.9485  -6.5790  -6.5790  -6.5790  -6.5787
    -6.5786  -6.5786  -6.2715  -6.2715  -6.2715  -6.2715  -6.2712  -6.2712
    -6.1425  -5.5180  -5.5176  -5.5176  -5.4905  -5.4901  -5.4901  -5.1855
    -5.1855  -5.1854  -5.1854  -5.1852  -5.1852  -4.8511  -4.8508  -4.8508
    -4.8257  -4.8253  -4.8253  -4.6809  -4.6809  -4.6809  -4.6806  -4.6804
    -4.6804  -4.0970  -3.9249  -3.9246  -3.9245  -3.7199  -3.7199  -3.7198
    -3.7198  -3.7196  -3.7196  -3.6426  -3.6423  -3.6423  -2.6950  -2.6950
    -2.6950  -2.6947  -2.6945  -2.6945  -2.3869  -2.3866  -2.3866  -2.0116
    -2.0116  -2.0114  -2.0114  -2.0114  -2.0114  -1.9397  -1.9392  -1.9392
    -1.6787  -1.3230  -1.3230  -1.3228  -1.3228  -1.3226  -1.3226  -1.2019
    -1.2019  -1.2019  -1.2019  -1.2017  -1.2017  -0.6570  -0.6570  -0.6569
    -0.6569  -0.6567  -0.6567  -0.3476  -0.3476  -0.3475  -0.3475  -0.3473
    -0.3473  -0.3293  -0.3292  -0.3292  -0.3290  -0.3288  -0.3288  -0.3246
    -0.3241  -0.3241  -0.2594  -0.2591  -0.2590   0.2811   0.2811   0.2812
     0.2812   0.2813   0.2813   0.3822   0.3823   0.3824   0.3824   0.3825

          k = 0.0000 0.2887 0.0000 (236896 PWs)   bands (ev):

   -11.2928 -10.5965 -10.5439 -10.1708 -10.1708  -9.8505  -9.4789  -9.4789
    -9.4775  -9.4277  -9.4277  -9.0578  -8.7389  -8.7389  -8.7360  -8.3705
    -8.3668  -8.3668  -7.9549  -7.9533  -7.9533  -7.6317  -7.6317  -7.2710
    -7.2710  -7.2659  -7.2188  -6.8583  -6.8576  -6.8576  -6.8526  -6.8526
    -6.1821  -6.1809  -6.1809  -6.1749  -6.1749  -6.1332  -6.1332  -6.1242
    -6.1242  -6.0502  -5.7716  -5.7716  -5.7625  -5.4629  -5.4629  -5.3160
    -5.1020  -5.1020  -5.1011  -5.0966  -5.0966  -4.9519  -4.9519  -4.7002
    -4.7002  -4.6861  -4.6861  -4.3990  -4.3990  -4.2320  -4.2320  -4.0470
    -4.0470  -4.0357  -4.0357  -4.0089  -4.0042  -3.8790  -3.6816  -3.6413
    -3.6413  -3.3059  -3.3026  -3.1857  -3.1857  -2.9558  -2.9558  -2.9461
    -2.9461  -2.8419  -2.8419  -2.6501  -2.6501  -2.6060  -2.6060  -2.6001
    -2.6001  -2.2631  -2.2631  -2.2574  -2.2574  -2.2179  -2.1263  -2.1263
    -1.9320  -1.5909  -1.5586  -1.5586  -1.5038  -1.4984  -1.4984  -1.3716
    -1.3716  -1.2345  -1.2345  -1.0783  -1.0783  -0.9824  -0.9824  -0.8977
    -0.8732  -0.8732  -0.7129  -0.7129  -0.6674  -0.6478  -0.6477  -0.5614
    -0.5614  -0.5026  -0.3826  -0.3825  -0.0324  -0.0323  -0.0228  -0.0228
     0.0420   0.0420   0.1946   0.2460   0.2534   0.2534   0.4080   0.4080
     0.4609   0.4609   0.5357   0.5357   0.6056   0.6057   0.7411   0.7411

          k = 0.0000-0.5773 0.0000 (236880 PWs)   bands (ev):

   -11.0118 -11.0113 -10.3165 -10.3160 -10.2639 -10.2639  -9.5717  -9.5717
    -9.1992  -9.1987  -8.7809  -8.7809  -8.7806  -8.7806  -8.4590  -8.4590
    -8.0948  -8.0948  -8.0945  -8.0945  -8.0453  -8.0451  -7.6785  -7.6780
    -7.3625  -7.3625  -6.9922  -6.9922  -6.9919  -6.9919  -6.9440  -6.9440
    -6.5856  -6.5856  -6.5851  -6.5851  -6.2662  -6.2660  -5.9110  -5.9110
    -5.9105  -5.9105  -5.7742  -5.7737  -5.4917  -5.4917  -5.4914  -5.4914
    -5.0426  -5.0426  -4.8329  -4.8329  -4.8324  -4.8324  -4.7787  -4.7786
    -4.4458  -4.4458  -4.4144  -4.4144  -3.7941  -3.7941  -3.7495  -3.7495
    -3.7452  -3.7447  -3.7385  -3.7385  -3.7383  -3.7383  -3.6131  -3.6131
    -3.6128  -3.6128  -3.4184  -3.4184  -3.4180  -3.4180  -3.0430  -3.0430
    -3.0379  -3.0379  -3.0378  -3.0378  -2.9873  -2.9872  -2.8827  -2.8827
    -2.5984  -2.5984  -2.2802  -2.2802  -1.9563  -1.9563  -1.9563  -1.9562
    -1.6744  -1.6744  -1.6741  -1.6741  -1.6476  -1.6476  -1.5593  -1.5592
    -1.4188  -1.4188  -1.3289  -1.3285  -1.2553  -1.2553  -1.2550  -1.2550
    -0.9826  -0.9826  -0.9705  -0.9705  -0.8342  -0.8342  -0.6424  -0.6424
    -0.4501  -0.4500  -0.4213  -0.4213  -0.4212  -0.4212  -0.2429  -0.2429
    -0.2426  -0.2426   0.2500   0.2500   0.4513   0.4513   0.4516   0.4516
     0.4825   0.4825   0.4829   0.4829   0.9647   0.9684   0.9807   0.9807

          k = 0.2500-0.1443 0.0000 (236890 PWs)   bands (ev):

   -11.2928 -10.5965 -10.5438 -10.1709 -10.1708  -9.8504  -9.4790  -9.4789
    -9.4775  -9.4278  -9.4277  -9.0576  -8.7390  -8.7388  -8.7360  -8.3704
    -8.3669  -8.3668  -7.9548  -7.9534  -7.9531  -7.6318  -7.6316  -7.2710
    -7.2708  -7.2658  -7.2188  -6.8580  -6.8579  -6.8578  -6.8527  -6.8526
    -6.1819  -6.1813  -6.1812  -6.1750  -6.1747  -6.1336  -6.1333  -6.1243
    -6.1241  -6.0502  -5.7716  -5.7712  -5.7623  -5.4632  -5.4630  -5.3160
    -5.1020  -5.1017  -5.1008  -5.0969  -5.0968  -4.9520  -4.9520  -4.7005
    -4.7001  -4.6861  -4.6859  -4.3994  -4.3991  -4.2321  -4.2319  -4.0473
    -4.0469  -4.0356  -4.0353  -4.0089  -4.0038  -3.8788  -3.6812  -3.6416
    -3.6415  -3.3059  -3.3021  -3.1860  -3.1857  -2.9559  -2.9558  -2.9459
    -2.9456  -2.8420  -2.8418  -2.6499  -2.6497  -2.6064  -2.6060  -2.6004
    -2.5998  -2.2632  -2.2631  -2.2572  -2.2569  -2.2175  -2.1265  -2.1261
    -1.9318  -1.5909  -1.5592  -1.5591  -1.5034  -1.4988  -1.4984  -1.3721
    -1.3716  -1.2344  -1.2342  -1.0786  -1.0783  -0.9826  -0.9826  -0.8977
    -0.8736  -0.8733  -0.7133  -0.7126  -0.6669  -0.6483  -0.6479  -0.5615
    -0.5615  -0.5020  -0.3826  -0.3825  -0.0326  -0.0323  -0.0235  -0.0231
     0.0418   0.0422   0.1952   0.2463   0.2534   0.2534   0.4078   0.4081
     0.4605   0.4610   0.5361   0.5364   0.6056   0.6058   0.7409   0.7410

          k = 0.2500-0.7217 0.0000 (236847 PWs)   bands (ev):

   -11.1052 -10.7307 -10.7307 -10.4096 -10.0366 -10.0366  -9.6132  -9.6131
    -9.2917  -8.9236  -8.9235  -8.9210  -8.9210  -8.8730  -8.5045  -8.5044
    -8.1865  -7.8197  -7.8195  -7.8151  -7.8150  -7.7704  -7.7701  -7.7700
    -7.4047  -7.4044  -7.4024  -7.4023  -7.0887  -7.0885  -7.0832  -6.7252
    -6.7249  -6.7193  -6.7191  -6.3057  -6.3056  -5.9946  -5.9944  -5.8659
    -5.6354  -5.6352  -5.5921  -5.5917  -5.5815  -5.4988  -5.4988  -5.2487
    -5.2229  -5.2228  -5.2201  -4.9255  -4.9251  -4.5859  -4.5541  -4.5175
    -4.5111  -4.5109  -4.4103  -4.4102  -4.1689  -4.1686  -4.1662  -4.1660
    -3.8686  -3.8682  -3.8619  -3.8329  -3.6987  -3.6617  -3.5157  -3.5155
    -3.4813  -3.4813  -3.3774  -3.3616  -3.3615  -3.1284  -3.1280  -3.1183
    -3.0961  -2.8345  -2.7280  -2.7279  -2.6714  -2.6712  -2.6412  -2.6409
    -2.5039  -2.4336  -2.4335  -2.4297  -2.1271  -2.0803  -2.0800  -2.0176
    -2.0174  -1.9965  -1.9961  -1.7981  -1.7486  -1.6791  -1.5771  -1.5767
    -1.4158  -1.3006  -1.3004  -1.2569  -1.2029  -1.2023  -1.1578  -1.1573
    -1.0687  -1.0686  -1.0491  -0.8840  -0.8837  -0.5789  -0.5788  -0.5418
    -0.5412  -0.5217  -0.5215  -0.2615  -0.2613  -0.1932  -0.1930  -0.1144
    -0.0824  -0.0823  -0.0352   0.0517   0.0522   0.1877   0.1882   0.2071
     0.3860   0.4735   0.4742   0.5924   0.6227   0.6229   0.9114   1.0681

          k =-0.5000 0.2887 0.0000 (236880 PWs)   bands (ev):

   -11.0115 -11.0115 -10.3162 -10.3162 -10.2640 -10.2640  -9.5717  -9.5717
    -9.1989  -9.1989  -8.7808  -8.7808  -8.7806  -8.7806  -8.4591  -8.4590
    -8.0947  -8.0947  -8.0946  -8.0946  -8.0450  -8.0450  -7.6783  -7.6783
    -7.3623  -7.3623  -6.9921  -6.9921  -6.9919  -6.9919  -6.9441  -6.9441
    -6.5857  -6.5857  -6.5855  -6.5855  -6.2659  -6.2659  -5.9111  -5.9111
    -5.9109  -5.9109  -5.7740  -5.7740  -5.4916  -5.4916  -5.4915  -5.4915
    -5.0427  -5.0427  -4.8330  -4.8330  -4.8328  -4.8328  -4.7784  -4.7784
    -4.4455  -4.4455  -4.4141  -4.4141  -3.7939  -3.7939  -3.7491  -3.7491
    -3.7449  -3.7449  -3.7387  -3.7387  -3.7382  -3.7382  -3.6130  -3.6130
    -3.6128  -3.6128  -3.4186  -3.4186  -3.4183  -3.4183  -3.0431  -3.0431
    -3.0382  -3.0382  -3.0377  -3.0377  -2.9871  -2.9871  -2.8824  -2.8824
    -2.5980  -2.5980  -2.2796  -2.2796  -1.9566  -1.9566  -1.9561  -1.9561
    -1.6744  -1.6744  -1.6742  -1.6742  -1.6481  -1.6481  -1.5587  -1.5587
    -1.4187  -1.4187  -1.3287  -1.3287  -1.2556  -1.2556  -1.2553  -1.2553
    -0.9830  -0.9830  -0.9703  -0.9703  -0.8339  -0.8339  -0.6424  -0.6424
    -0.4495  -0.4495  -0.4216  -0.4216  -0.4211  -0.4211  -0.2434  -0.2434
    -0.2429  -0.2429   0.2497   0.2497   0.4508   0.4508   0.4513   0.4513
     0.4824   0.4824   0.4825   0.4825   0.9652   0.9652   0.9810   0.9810

          k =-0.5000 0.5773 0.0000 (236845 PWs)   bands (ev):

   -11.1052 -10.7310 -10.7305 -10.4096 -10.0368 -10.0363  -9.6134  -9.6130
    -9.2917  -8.9237  -8.9234  -8.9212  -8.9207  -8.8729  -8.5046  -8.5040
    -8.1864  -7.8197  -7.8192  -7.8153  -7.8149  -7.7704  -7.7703  -7.7701
    -7.4046  -7.4043  -7.4026  -7.4021  -7.0888  -7.0888  -7.0831  -6.7252
    -6.7249  -6.7193  -6.7188  -6.3059  -6.3056  -5.9948  -5.9946  -5.8659
    -5.6354  -5.6351  -5.5921  -5.5919  -5.5813  -5.4990  -5.4986  -5.2490
    -5.2230  -5.2225  -5.2205  -4.9254  -4.9253  -4.5862  -4.5546  -4.5171
    -4.5112  -4.5111  -4.4105  -4.4102  -4.1688  -4.1685  -4.1659  -4.1654
    -3.8685  -3.8684  -3.8615  -3.8329  -3.6985  -3.6620  -3.5154  -3.5150
    -3.4815  -3.4811  -3.3777  -3.3617  -3.3612  -3.1281  -3.1277  -3.1185
    -3.0964  -2.8341  -2.7282  -2.7280  -2.6712  -2.6710  -2.6409  -2.6407
    -2.5040  -2.4337  -2.4334  -2.4299  -2.1274  -2.0801  -2.0798  -2.0181
    -2.0180  -1.9962  -1.9960  -1.7981  -1.7484  -1.6796  -1.5769  -1.5765
    -1.4158  -1.3011  -1.3009  -1.2570  -1.2024  -1.2021  -1.1575  -1.1573
    -1.0689  -1.0684  -1.0490  -0.8837  -0.8833  -0.5791  -0.5791  -0.5413
    -0.5412  -0.5217  -0.5215  -0.2615  -0.2612  -0.1937  -0.1935  -0.1148
    -0.0826  -0.0823  -0.0355   0.0516   0.0517   0.1881   0.1884   0.2071
     0.3861   0.4740   0.4741   0.5922   0.6226   0.6228   0.9117   0.9497

          k =-0.2500-0.1443 0.0000 (236890 PWs)   bands (ev):

   -11.2928 -10.5965 -10.5438 -10.1709 -10.1708  -9.8504  -9.4790  -9.4789
    -9.4775  -9.4278  -9.4277  -9.0576  -8.7390  -8.7388  -8.7360  -8.3704
    -8.3669  -8.3668  -7.9548  -7.9534  -7.9531  -7.6318  -7.6316  -7.2710
    -7.2708  -7.2658  -7.2188  -6.8580  -6.8579  -6.8578  -6.8527  -6.8526
    -6.1819  -6.1813  -6.1812  -6.1750  -6.1747  -6.1336  -6.1333  -6.1243
    -6.1241  -6.0502  -5.7716  -5.7712  -5.7623  -5.4632  -5.4630  -5.3160
    -5.1020  -5.1017  -5.1008  -5.0969  -5.0968  -4.9520  -4.9520  -4.7005
    -4.7001  -4.6861  -4.6859  -4.3994  -4.3991  -4.2321  -4.2319  -4.0474
    -4.0469  -4.0356  -4.0353  -4.0089  -4.0038  -3.8788  -3.6812  -3.6416
    -3.6415  -3.3059  -3.3021  -3.1860  -3.1856  -2.9559  -2.9558  -2.9459
    -2.9456  -2.8420  -2.8418  -2.6499  -2.6497  -2.6064  -2.6060  -2.6004
    -2.5998  -2.2632  -2.2631  -2.2572  -2.2569  -2.2175  -2.1265  -2.1261
    -1.9318  -1.5909  -1.5592  -1.5591  -1.5034  -1.4988  -1.4984  -1.3721
    -1.3716  -1.2344  -1.2342  -1.0786  -1.0783  -0.9826  -0.9826  -0.8977
    -0.8736  -0.8733  -0.7133  -0.7126  -0.6669  -0.6482  -0.6479  -0.5615
    -0.5615  -0.5020  -0.3826  -0.3825  -0.0326  -0.0324  -0.0235  -0.0231
     0.0418   0.0422   0.1952   0.2463   0.2534   0.2534   0.4078   0.4081
     0.4605   0.4610   0.5361   0.5365   0.6056   0.6058   0.7409   0.7410

          k =-0.2500-0.7217 0.0000 (236847 PWs)   bands (ev):

   -11.1052 -10.7307 -10.7307 -10.4096 -10.0366 -10.0366  -9.6132  -9.6131
    -9.2917  -8.9236  -8.9235  -8.9210  -8.9210  -8.8730  -8.5045  -8.5044
    -8.1865  -7.8197  -7.8195  -7.8151  -7.8150  -7.7704  -7.7701  -7.7700
    -7.4047  -7.4044  -7.4024  -7.4023  -7.0887  -7.0885  -7.0832  -6.7252
    -6.7249  -6.7193  -6.7191  -6.3057  -6.3056  -5.9946  -5.9944  -5.8659
    -5.6354  -5.6352  -5.5921  -5.5917  -5.5815  -5.4988  -5.4988  -5.2486
    -5.2229  -5.2228  -5.2201  -4.9255  -4.9251  -4.5859  -4.5541  -4.5175
    -4.5111  -4.5109  -4.4103  -4.4102  -4.1689  -4.1686  -4.1662  -4.1660
    -3.8686  -3.8682  -3.8619  -3.8329  -3.6987  -3.6617  -3.5157  -3.5155
    -3.4813  -3.4813  -3.3774  -3.3616  -3.3615  -3.1284  -3.1280  -3.1183
    -3.0961  -2.8345  -2.7280  -2.7279  -2.6714  -2.6711  -2.6412  -2.6408
    -2.5039  -2.4336  -2.4335  -2.4297  -2.1271  -2.0803  -2.0800  -2.0176
    -2.0174  -1.9965  -1.9961  -1.7981  -1.7486  -1.6791  -1.5771  -1.5767
    -1.4158  -1.3005  -1.3004  -1.2569  -1.2029  -1.2023  -1.1578  -1.1574
    -1.0687  -1.0686  -1.0492  -0.8840  -0.8837  -0.5789  -0.5788  -0.5418
    -0.5411  -0.5217  -0.5215  -0.2615  -0.2613  -0.1932  -0.1930  -0.1144
    -0.0824  -0.0823  -0.0352   0.0517   0.0522   0.1877   0.1882   0.2072
     0.3860   0.4735   0.4742   0.5924   0.6227   0.6230   0.9113   0.9496

          k = 0.5000 0.2887 0.0000 (236880 PWs)   bands (ev):

   -11.0115 -11.0115 -10.3162 -10.3162 -10.2640 -10.2640  -9.5717  -9.5717
    -9.1989  -9.1989  -8.7808  -8.7808  -8.7806  -8.7806  -8.4591  -8.4590
    -8.0947  -8.0947  -8.0946  -8.0946  -8.0450  -8.0450  -7.6783  -7.6783
    -7.3623  -7.3623  -6.9921  -6.9921  -6.9919  -6.9919  -6.9441  -6.9441
    -6.5857  -6.5857  -6.5855  -6.5855  -6.2659  -6.2659  -5.9111  -5.9111
    -5.9109  -5.9109  -5.7740  -5.7740  -5.4916  -5.4916  -5.4915  -5.4915
    -5.0427  -5.0427  -4.8330  -4.8330  -4.8328  -4.8328  -4.7784  -4.7784
    -4.4455  -4.4455  -4.4141  -4.4141  -3.7939  -3.7939  -3.7491  -3.7491
    -3.7449  -3.7449  -3.7387  -3.7387  -3.7382  -3.7382  -3.6130  -3.6130
    -3.6128  -3.6128  -3.4186  -3.4186  -3.4183  -3.4183  -3.0431  -3.0431
    -3.0382  -3.0382  -3.0377  -3.0377  -2.9871  -2.9871  -2.8824  -2.8824
    -2.5981  -2.5981  -2.2796  -2.2796  -1.9566  -1.9566  -1.9561  -1.9561
    -1.6744  -1.6744  -1.6742  -1.6742  -1.6481  -1.6481  -1.5587  -1.5587
    -1.4187  -1.4187  -1.3287  -1.3287  -1.2556  -1.2556  -1.2552  -1.2552
    -0.9830  -0.9830  -0.9703  -0.9703  -0.8339  -0.8339  -0.6424  -0.6424
    -0.4495  -0.4495  -0.4216  -0.4216  -0.4211  -0.4211  -0.2434  -0.2434
    -0.2429  -0.2429   0.2497   0.2497   0.4508   0.4508   0.4513   0.4513
     0.4824   0.4824   0.4825   0.4825   0.9655   0.9710   0.9810   0.9810

     the Fermi energy is    -0.5262 ev

!    total energy              =   -3159.34997489 Ry
     total all-electron energy =    -38850.772501 Ry
     estimated scf accuracy    <          2.6E-10 Ry
     smearing contrib. (-TS)   =      -0.00936303 Ry
     internal energy E=F+TS    =   -3159.34061187 Ry

     The total energy is F=E-TS. E is the sum of the following terms:
     one-electron contribution =  -10711.00180974 Ry
     hartree contribution      =    5408.12981512 Ry
     xc contribution           =    -204.34452507 Ry
     ewald contribution        =    5122.14315878 Ry
     one-center paw contrib.   =   -2774.26725095 Ry

     convergence has been achieved in  12 iterations

     negative rho (up, down):  3.538E-05 0.000E+00

     Forces acting on atoms (cartesian axes, Ry/au):

     atom    1 type  1   force =    -0.00000113   -0.00002808   -0.00264765
     atom    2 type  1   force =    -0.00000148   -0.00002803   -0.00264763
     atom    3 type  1   force =    -0.00000150   -0.00002809   -0.00264779
     atom    4 type  1   force =    -0.00000119   -0.00002807   -0.00264788
     atom    5 type  1   force =    -0.00000129   -0.00000045   -0.00264624
     atom    6 type  1   force =    -0.00000157   -0.00000042   -0.00264639
     atom    7 type  1   force =    -0.00000134   -0.00000043   -0.00264667
     atom    8 type  1   force =    -0.00000105   -0.00000041   -0.00264650
     atom    9 type  1   force =    -0.00000135   -0.00000097   -0.00264567
     atom   10 type  1   force =    -0.00000139   -0.00000081   -0.00264582
     atom   11 type  1   force =    -0.00000125   -0.00000073   -0.00264589
     atom   12 type  1   force =    -0.00000120   -0.00000096   -0.00264573
     atom   13 type  1   force =    -0.00000123    0.00003023   -0.00263336
     atom   14 type  1   force =    -0.00000129    0.00003044   -0.00263333
     atom   15 type  1   force =    -0.00000141    0.00003033   -0.00263331
     atom   16 type  1   force =    -0.00000132    0.00003015   -0.00263335
     atom   17 type  1   force =     0.00000028   -0.00003946    0.00248592
     atom   18 type  1   force =     0.00000004   -0.00003938    0.00248583
     atom   19 type  1   force =     0.00000001   -0.00003966    0.00248590
     atom   20 type  1   force =     0.00000033   -0.00003967    0.00248595
     atom   21 type  1   force =     0.00000021    0.00000189    0.00248426
     atom   22 type  1   force =    -0.00000013    0.00000194    0.00248426
     atom   23 type  1   force =     0.00000011    0.00000193    0.00248439
     atom   24 type  1   force =     0.00000051    0.00000189    0.00248433
     atom   25 type  1   force =     0.00000007   -0.00000143    0.00248475
     atom   26 type  1   force =    -0.00000003   -0.00000121    0.00248490
     atom   27 type  1   force =     0.00000031   -0.00000123    0.00248492
     atom   28 type  1   force =     0.00000034   -0.00000142    0.00248480
     atom   29 type  1   force =     0.00000017    0.00003022    0.00248613
     atom   30 type  1   force =     0.00000015    0.00003038    0.00248611
     atom   31 type  1   force =     0.00000018    0.00003026    0.00248612
     atom   32 type  1   force =     0.00000025    0.00003006    0.00248607
     atom   33 type  1   force =     0.00000348   -0.00003054   -0.00012652
     atom   34 type  1   force =     0.00000331   -0.00003057   -0.00012654
     atom   35 type  1   force =     0.00000351   -0.00003061   -0.00012653
     atom   36 type  1   force =     0.00000366   -0.00003058   -0.00012654
     atom   37 type  1   force =     0.00000336    0.00000047   -0.00013613
     atom   38 type  1   force =     0.00000337    0.00000053   -0.00013618
     atom   39 type  1   force =     0.00000363    0.00000051   -0.00013614
     atom   40 type  1   force =     0.00000361    0.00000048   -0.00013614
     atom   41 type  1   force =     0.00000343    0.00000366   -0.00013199
     atom   42 type  1   force =     0.00000349    0.00000375   -0.00013199
     atom   43 type  1   force =     0.00000357    0.00000365   -0.00013197
     atom   44 type  1   force =     0.00000349    0.00000358   -0.00013198
     atom   45 type  1   force =     0.00000352    0.00003461   -0.00014243
     atom   46 type  1   force =     0.00000345    0.00003460   -0.00014247
     atom   47 type  1   force =     0.00000347    0.00003443   -0.00014248
     atom   48 type  1   force =     0.00000357    0.00003444   -0.00014249
     atom   49 type  1   force =    -0.00000306   -0.00002781   -0.00207617
     atom   50 type  1   force =    -0.00000339   -0.00002772   -0.00207619
     atom   51 type  1   force =    -0.00000342   -0.00002781   -0.00207609
     atom   52 type  1   force =    -0.00000305   -0.00002788   -0.00207608
     atom   53 type  1   force =    -0.00000317   -0.00000141   -0.00207500
     atom   54 type  1   force =    -0.00000346   -0.00000130   -0.00207499
     atom   55 type  1   force =    -0.00000324   -0.00000123   -0.00207498
     atom   56 type  1   force =    -0.00000304   -0.00000134   -0.00207497
     atom   57 type  1   force =    -0.00000325   -0.00000188   -0.00207440
     atom   58 type  1   force =    -0.00000332   -0.00000171   -0.00207446
     atom   59 type  1   force =    -0.00000321   -0.00000173   -0.00207445
     atom   60 type  1   force =    -0.00000316   -0.00000190   -0.00207444
     atom   61 type  1   force =    -0.00000314    0.00003238   -0.00207738
     atom   62 type  1   force =    -0.00000328    0.00003255   -0.00207745
     atom   63 type  1   force =    -0.00000334    0.00003244   -0.00207735
     atom   64 type  1   force =    -0.00000314    0.00003229   -0.00207734
     atom   65 type  1   force =     0.00000096   -0.00002736    0.00235971
     atom   66 type  1   force =     0.00000079   -0.00002733    0.00235975
     atom   67 type  1   force =     0.00000085   -0.00002742    0.00235983
     atom   68 type  1   force =     0.00000092   -0.00002745    0.00235980
     atom   69 type  1   force =     0.00000090   -0.00000044    0.00236991
     atom   70 type  1   force =     0.00000076   -0.00000043    0.00236997
     atom   71 type  1   force =     0.00000085   -0.00000046    0.00237021
     atom   72 type  1   force =     0.00000095   -0.00000045    0.00237007
     atom   73 type  1   force =     0.00000081    0.00000120    0.00237106
     atom   74 type  1   force =     0.00000078    0.00000130    0.00237120
     atom   75 type  1   force =     0.00000088    0.00000125    0.00237125
     atom   76 type  1   force =     0.00000103    0.00000121    0.00237113
     atom   77 type  1   force =     0.00000086    0.00002481    0.00237121
     atom   78 type  1   force =     0.00000084    0.00002488    0.00237128
     atom   79 type  1   force =     0.00000087    0.00002483    0.00237125
     atom   80 type  1   force =     0.00000088    0.00002471    0.00237122

     Total force =     0.012608     Total SCF correction =     0.000016


     Computing stress (Cartesian axis) and pressure


     negative rho (up, down):  3.538E-05 0.000E+00
          total   stress  (Ry/bohr**3)                   (kbar)     P=       -5.69
  -0.00006432   0.00000000   0.00000000           -9.46        0.00        0.00
   0.00000000  -0.00006435   0.00000000            0.00       -9.47        0.00
   0.00000000   0.00000000   0.00001273            0.00        0.00        1.87

     Energy error            =      2.0E-04 Ry
     Gradient error          =      2.4E-03 Ry/Bohr

     number of scf cycles    =   2
     number of bfgs steps    =   1

     energy             old  =   -3159.3497786656 Ry
     energy             new  =   -3159.3499748939 Ry

     CASE: energy            _new < energy            _old


     WARNING: bfgs curvature condition failed, Theta= 0.921
     new trust radius        =       0.0029057733 bohr
     new conv_thr            =       0.0000000002 Ry


ATOMIC_POSITIONS (angstrom)
Al              11.4551572755        1.6534343352       14.9998275960    0   0   0
Al               2.8638322755        1.6534343352       14.9998275960    0   0   0
Al               5.7276072755        1.6534343352       14.9998275960    0   0   0
Al               8.5913822755        1.6534343352       14.9998275960    0   0   0
Al              12.8870447755        4.1335362359       14.9998275960    0   0   0
Al               4.2957197755        4.1335362359       14.9998275960    0   0   0
Al               7.1594947755        4.1335362359       14.9998275960    0   0   0
Al              10.0232697755        4.1335362359       14.9998275960    0   0   0
Al              14.3189322755        6.6136381366       14.9998275960    0   0   0
Al               5.7276072755        6.6136381366       14.9998275960    0   0   0
Al               8.5913822755        6.6136381366       14.9998275960    0   0   0
Al              11.4551572755        6.6136381366       14.9998275960    0   0   0
Al              15.7508197755        9.0937400373       14.9998275960    0   0   0
Al               7.1594947755        9.0937400373       14.9998275960    0   0   0
Al              10.0232697755        9.0937400373       14.9998275960    0   0   0
Al              12.8870447755        9.0937400373       14.9998275960    0   0   0
Al               0.0000000000        0.0000000000       17.3381887980    0   0   0
Al               2.8637750000        0.0000000000       17.3381887980    0   0   0
Al               5.7275500000        0.0000000000       17.3381887980    0   0   0
Al               8.5913250000        0.0000000000       17.3381887980    0   0   0
Al               1.4318875000        2.4801019007       17.3381887980    0   0   0
Al               4.2956625000        2.4801019007       17.3381887980    0   0   0
Al               7.1594375000        2.4801019007       17.3381887980    0   0   0
Al              10.0232125000        2.4801019007       17.3381887980    0   0   0
Al               2.8637750000        4.9602038014       17.3381887980    0   0   0
Al               5.7275500000        4.9602038014       17.3381887980    0   0   0
Al               8.5913250000        4.9602038014       17.3381887980    0   0   0
Al              11.4551000000        4.9602038014       17.3381887980    0   0   0
Al               4.2956625000        7.4403057022       17.3381887980    0   0   0
Al               7.1594375000        7.4403057022       17.3381887980    0   0   0
Al              10.0232125000        7.4403057022       17.3381887980    0   0   0
Al              12.8869875000        7.4403057022       17.3381887980    0   0   0
Al               1.4318344399        0.8266288124       19.6764827824
Al               4.2956091578        0.8266285947       19.6764827181
Al               7.1593842963        0.8266284316       19.6764827650
Al              10.0231595258        0.8266286167       19.6764827930
Al               2.8637216417        3.3067711243       19.6764699599
Al               5.7274966081        3.3067710762       19.6764700211
Al               8.5912721063        3.3067711157       19.6764700517
Al              11.4550471716        3.3067712094       19.6764700113
Al               4.2956090571        5.7868750174       19.6764755537
Al               7.1593843713        5.7868751451       19.6764755769
Al              10.0231596601        5.7868750552       19.6764755407
Al              12.8869343375        5.7868749107       19.6764755183
Al               5.7274968380        8.2670166457       19.6764623867
Al               8.5912719563        8.2670166767       19.6764622921
Al              11.4550469127        8.2670163685       19.6764622553
Al              14.3188217685        8.2670163539       19.6764623144
Al              11.4551536315        1.6533991593       22.0122393626
Al               2.8638282596        1.6533991871       22.0122392835
Al               5.7276032225        1.6533989979       22.0122393461
Al               8.5913786164        1.6533990046       22.0122394217
Al              12.8870409366        4.1335358200       22.0122406542
Al               4.2957155871        4.1335358423       22.0122407553
Al               7.1594909401        4.1335358425       22.0122408454
Al              10.0232662202        4.1335358313       22.0122407682
Al              14.3189282837        6.6136344210       22.0122416628
Al               5.7276032745        6.6136346107       22.0122417303
Al               8.5913785745        6.6136346186       22.0122417028
Al              11.4551536024        6.6136344081       22.0122415863
Al              15.7508159292        9.0937809683       22.0122381260
Al               7.1594909061        9.0937812147       22.0122380720
Al              10.0232658652        9.0937810162       22.0122380145
Al              12.8870409698        9.0937808078       22.0122380402
Al               0.0000010997       -0.0000341979       24.3561927273
Al               2.8637759402       -0.0000341666       24.3561927732
Al               5.7275510230       -0.0000342870       24.3561928264
Al               8.5913261347       -0.0000343170       24.3561928124
Al               1.4318885481        2.4801022336       24.3562061000
Al               4.2956633773        2.4801022451       24.3562061842
Al               7.1594385583        2.4801021470       24.3562063682
Al              10.0232137138        2.4801021924       24.3562062044
Al               2.8637759564        4.9602048954       24.3562069012
Al               5.7275508844        4.9602049273       24.3562070814
Al               8.5913261403        4.9602049138       24.3562071254
Al              11.4551012121        4.9602048561       24.3562069730
Al               4.2956634748        7.4403364548       24.3562077159
Al               7.1594384722        7.4403365266       24.3562077920
Al              10.0232135971        7.4403364380       24.3562077389
Al              12.8869885832        7.4403362970       24.3562076727



     Writing config-only to output data dir ./tmp/al111_4x4.save/ :
     XML data file
     NEW-OLD atomic charge density approx. for the potential

     negative rho (up, down):  3.581E-05 0.000E+00

     total cpu time spent up to now is     5830.6 secs

     Self-consistent Calculation

     iteration #  1     ecut=    60.00 Ry     beta= 0.30
     Davidson diagonalization with overlap
     ethr =  1.00E-06,  avg # of iterations =  2.0

     Threshold (ethr) on eigenvalues was too large:
     Diagonalizing with lowered threshold

     Davidson diagonalization with overlap
     ethr =  1.74E-08,  avg # of iterations =  5.5

     negative rho (up, down):  3.563E-05 0.000E+00

     total cpu time spent up to now is     6131.3 secs

     total energy              =   -3159.35013386 Ry
     estimated scf accuracy    <       0.00005303 Ry

     iteration #  2     ecut=    60.00 Ry     beta= 0.30
     Davidson diagonalization with overlap
     ethr =  2.21E-08,  avg # of iterations =  7.1

     negative rho (up, down):  3.553E-05 0.000E+00

     total cpu time spent up to now is     6298.2 secs

     total energy              =   -3159.35000515 Ry
     estimated scf accuracy    <       0.00766967 Ry

     iteration #  3     ecut=    60.00 Ry     beta= 0.30
     Davidson diagonalization with overlap
     ethr =  2.21E-08,  avg # of iterations =  6.8

     negative rho (up, down):  3.548E-05 0.000E+00

     total cpu time spent up to now is     6453.2 secs

     total energy              =   -3159.35014948 Ry
     estimated scf accuracy    <       0.00006582 Ry

     iteration #  4     ecut=    60.00 Ry     beta= 0.30
     Davidson diagonalization with overlap
     ethr =  2.21E-08,  avg # of iterations =  2.1

     negative rho (up, down):  3.544E-05 0.000E+00

     total cpu time spent up to now is     6585.0 secs

     total energy              =   -3159.35015483 Ry
     estimated scf accuracy    <       0.00000642 Ry

     iteration #  5     ecut=    60.00 Ry     beta= 0.30
     Davidson diagonalization with overlap
     ethr =  2.67E-09,  avg # of iterations =  2.6

     negative rho (up, down):  3.542E-05 0.000E+00

     total cpu time spent up to now is     6712.0 secs

     total energy              =   -3159.35015504 Ry
     estimated scf accuracy    <       0.00000112 Ry

     iteration #  6     ecut=    60.00 Ry     beta= 0.30
     Davidson diagonalization with overlap
     ethr =  4.66E-10,  avg # of iterations =  5.4

     negative rho (up, down):  3.540E-05 0.000E+00

     total cpu time spent up to now is     6862.6 secs

     total energy              =   -3159.35015525 Ry
     estimated scf accuracy    <       0.00000016 Ry

     iteration #  7     ecut=    60.00 Ry     beta= 0.30
     Davidson diagonalization with overlap
     ethr =  6.80E-11,  avg # of iterations =  4.9

     negative rho (up, down):  3.540E-05 0.000E+00

     total cpu time spent up to now is     7018.8 secs

     total energy              =   -3159.35015525 Ry
     estimated scf accuracy    <       0.00000010 Ry

     iteration #  8     ecut=    60.00 Ry     beta= 0.30
     Davidson diagonalization with overlap
     ethr =  4.08E-11,  avg # of iterations =  3.7

     negative rho (up, down):  3.539E-05 0.000E+00

     total cpu time spent up to now is     7168.5 secs

     total energy              =   -3159.35015528 Ry
     estimated scf accuracy    <       0.00000013 Ry

     iteration #  9     ecut=    60.00 Ry     beta= 0.30
     Davidson diagonalization with overlap
     ethr =  4.08E-11,  avg # of iterations =  1.0

     negative rho (up, down):  3.539E-05 0.000E+00

     total cpu time spent up to now is     7283.1 secs

     total energy              =   -3159.35015528 Ry
     estimated scf accuracy    <       0.00000007 Ry

     iteration # 10     ecut=    60.00 Ry     beta= 0.30
     Davidson diagonalization with overlap
     ethr =  2.77E-11,  avg # of iterations =  5.4

     negative rho (up, down):  3.539E-05 0.000E+00

     total cpu time spent up to now is     7433.6 secs

     total energy              =   -3159.35015529 Ry
     estimated scf accuracy    <       0.00000010 Ry

     iteration # 11     ecut=    60.00 Ry     beta= 0.30
     Davidson diagonalization with overlap
     ethr =  2.77E-11,  avg # of iterations =  2.0

     negative rho (up, down):  3.539E-05 0.000E+00

     total cpu time spent up to now is     7555.1 secs

     total energy              =   -3159.35015529 Ry
     estimated scf accuracy    <       0.00000001 Ry

     iteration # 12     ecut=    60.00 Ry     beta= 0.30
     Davidson diagonalization with overlap
     ethr =  4.92E-12,  avg # of iterations =  4.9

     negative rho (up, down):  3.538E-05 0.000E+00

     total cpu time spent up to now is     7728.6 secs

     total energy              =   -3159.35015529 Ry
     estimated scf accuracy    <       0.00000002 Ry

     iteration # 13     ecut=    60.00 Ry     beta= 0.30
     Davidson diagonalization with overlap
     ethr =  4.92E-12,  avg # of iterations =  1.0

     negative rho (up, down):  3.538E-05 0.000E+00

     total cpu time spent up to now is     7843.4 secs

     total energy              =   -3159.35015529 Ry
     estimated scf accuracy    <          5.7E-09 Ry

     iteration # 14     ecut=    60.00 Ry     beta= 0.30
     Davidson diagonalization with overlap
     ethr =  2.36E-12,  avg # of iterations =  4.2

     negative rho (up, down):  3.538E-05 0.000E+00

     total cpu time spent up to now is     7985.5 secs

     total energy              =   -3159.35015528 Ry
     estimated scf accuracy    <          1.9E-09 Ry

     iteration # 15     ecut=    60.00 Ry     beta= 0.30
     Davidson diagonalization with overlap
     ethr =  8.04E-13,  avg # of iterations =  1.4

     negative rho (up, down):  3.538E-05 0.000E+00

     total cpu time spent up to now is     8102.7 secs

     total energy              =   -3159.35015528 Ry
     estimated scf accuracy    <          8.7E-10 Ry

     iteration # 16     ecut=    60.00 Ry     beta= 0.30
     Davidson diagonalization with overlap
     ethr =  3.64E-13,  avg # of iterations =  2.0

     negative rho (up, down):  3.538E-05 0.000E+00

     total cpu time spent up to now is     8224.3 secs

     total energy              =   -3159.35015528 Ry
     estimated scf accuracy    <          3.5E-10 Ry

     iteration # 17     ecut=    60.00 Ry     beta= 0.30
     Davidson diagonalization with overlap
     ethr =  1.45E-13,  avg # of iterations =  2.0

     negative rho (up, down):  3.538E-05 0.000E+00

     total cpu time spent up to now is     8348.0 secs

     End of self-consistent calculation

          k = 0.0000 0.0000 0.0000 (237007 PWs)   bands (ev):

   -11.3865 -10.6874  -9.8917  -9.8917  -9.8917  -9.8914  -9.8912  -9.8912
    -9.5690  -9.1986  -9.1986  -9.1985  -9.1983  -9.1981  -9.1981  -8.0894
    -8.0894  -8.0894  -8.0891  -8.0889  -8.0889  -8.0483  -6.9486  -6.9486
    -6.9485  -6.9485  -6.9483  -6.9483  -6.5801  -6.5801  -6.5801  -6.5798
    -6.5796  -6.5796  -6.2689  -6.2689  -6.2688  -6.2688  -6.2686  -6.2686
    -6.1428  -5.5177  -5.5174  -5.5173  -5.4903  -5.4900  -5.4899  -5.1840
    -5.1840  -5.1839  -5.1839  -5.1837  -5.1836  -4.8488  -4.8485  -4.8485
    -4.8227  -4.8223  -4.8223  -4.6812  -4.6812  -4.6812  -4.6809  -4.6807
    -4.6807  -4.0972  -3.9232  -3.9229  -3.9228  -3.7208  -3.7208  -3.7207
    -3.7207  -3.7205  -3.7205  -3.6414  -3.6410  -3.6410  -2.6952  -2.6952
    -2.6952  -2.6950  -2.6948  -2.6948  -2.3879  -2.3876  -2.3876  -2.0116
    -2.0116  -2.0115  -2.0115  -2.0114  -2.0114  -1.9407  -1.9402  -1.9402
    -1.6789  -1.3228  -1.3228  -1.3226  -1.3226  -1.3224  -1.3224  -1.2013
    -1.2013  -1.2013  -1.2013  -1.2012  -1.2012  -0.6550  -0.6550  -0.6549
    -0.6549  -0.6547  -0.6547  -0.3451  -0.3451  -0.3450  -0.3450  -0.3448
    -0.3448  -0.3294  -0.3294  -0.3294  -0.3292  -0.3290  -0.3290  -0.3249
    -0.3245  -0.3244  -0.2596  -0.2593  -0.2592   0.2817   0.2817   0.2817
     0.2817   0.2819   0.2819   0.3833   0.3834   0.3835   0.3835   0.3836

          k = 0.0000 0.2887 0.0000 (236896 PWs)   bands (ev):

   -11.2926 -10.5939 -10.5436 -10.1705 -10.1705  -9.8479  -9.4763  -9.4763
    -9.4760  -9.4275  -9.4275  -9.0576  -8.7363  -8.7363  -8.7346  -8.3679
    -8.3653  -8.3653  -7.9559  -7.9531  -7.9531  -7.6302  -7.6302  -7.2683
    -7.2683  -7.2644  -7.2199  -6.8581  -6.8574  -6.8574  -6.8536  -6.8536
    -6.1795  -6.1783  -6.1783  -6.1734  -6.1734  -6.1330  -6.1330  -6.1252
    -6.1252  -6.0505  -5.7714  -5.7714  -5.7635  -5.4603  -5.4603  -5.3163
    -5.0995  -5.0994  -5.0994  -5.0951  -5.0951  -4.9522  -4.9522  -4.7000
    -4.7000  -4.6871  -4.6871  -4.3974  -4.3974  -4.2323  -4.2323  -4.0444
    -4.0444  -4.0341  -4.0341  -4.0092  -4.0039  -3.8792  -3.6822  -3.6422
    -3.6422  -3.3062  -3.3004  -3.1852  -3.1852  -2.9560  -2.9560  -2.9458
    -2.9458  -2.8421  -2.8421  -2.6507  -2.6507  -2.6060  -2.6060  -2.6001
    -2.6001  -2.2633  -2.2633  -2.2551  -2.2551  -2.2167  -2.1245  -2.1245
    -1.9322  -1.5911  -1.5586  -1.5586  -1.5039  -1.4976  -1.4976  -1.3727
    -1.3726  -1.2333  -1.2332  -1.0782  -1.0782  -0.9803  -0.9803  -0.8979
    -0.8735  -0.8735  -0.7115  -0.7115  -0.6684  -0.6477  -0.6476  -0.5616
    -0.5616  -0.5025  -0.3818  -0.3818  -0.0325  -0.0325  -0.0205  -0.0205
     0.0424   0.0424   0.1967   0.2458   0.2534   0.2534   0.4081   0.4081
     0.4608   0.4608   0.5358   0.5358   0.6051   0.6052   0.7411   0.7412

          k = 0.0000-0.5773 0.0000 (236880 PWs)   bands (ev):

   -11.0115 -11.0110 -10.3139 -10.3134 -10.2637 -10.2637  -9.5691  -9.5691
    -9.1977  -9.1973  -8.7807  -8.7807  -8.7804  -8.7804  -8.4575  -8.4575
    -8.0922  -8.0922  -8.0919  -8.0919  -8.0450  -8.0449  -7.6796  -7.6791
    -7.3599  -7.3598  -6.9907  -6.9907  -6.9904  -6.9904  -6.9450  -6.9450
    -6.5854  -6.5854  -6.5849  -6.5849  -6.2646  -6.2645  -5.9083  -5.9083
    -5.9078  -5.9078  -5.7745  -5.7740  -5.4927  -5.4927  -5.4925  -5.4925
    -5.0429  -5.0429  -4.8314  -4.8314  -4.8309  -4.8309  -4.7797  -4.7796
    -4.4455  -4.4455  -4.4142  -4.4142  -3.7919  -3.7919  -3.7465  -3.7465
    -3.7454  -3.7450  -3.7382  -3.7382  -3.7380  -3.7380  -3.6133  -3.6133
    -3.6131  -3.6131  -3.4190  -3.4190  -3.4187  -3.4186  -3.0433  -3.0433
    -3.0357  -3.0356  -3.0356  -3.0356  -2.9875  -2.9873  -2.8809  -2.8809
    -2.5971  -2.5971  -2.2799  -2.2798  -1.9551  -1.9551  -1.9551  -1.9550
    -1.6746  -1.6746  -1.6743  -1.6743  -1.6472  -1.6472  -1.5572  -1.5570
    -1.4194  -1.4194  -1.3291  -1.3287  -1.2554  -1.2554  -1.2550  -1.2550
    -0.9805  -0.9805  -0.9713  -0.9713  -0.8341  -0.8341  -0.6425  -0.6425
    -0.4487  -0.4486  -0.4223  -0.4223  -0.4222  -0.4222  -0.2428  -0.2428
    -0.2425  -0.2425   0.2509   0.2509   0.4534   0.4534   0.4536   0.4536
     0.4824   0.4824   0.4828   0.4828   0.9636   0.9663   0.9804   0.9804

          k = 0.2500-0.1443 0.0000 (236890 PWs)   bands (ev):

   -11.2926 -10.5939 -10.5436 -10.1706 -10.1706  -9.8478  -9.4764  -9.4763
    -9.4760  -9.4276  -9.4275  -9.0574  -8.7364  -8.7362  -8.7345  -8.3678
    -8.3654  -8.3654  -7.9559  -7.9531  -7.9529  -7.6303  -7.6302  -7.2684
    -7.2681  -7.2643  -7.2198  -6.8578  -6.8577  -6.8576  -6.8537  -6.8537
    -6.1792  -6.1786  -6.1785  -6.1735  -6.1732  -6.1334  -6.1331  -6.1253
    -6.1252  -6.0505  -5.7714  -5.7710  -5.7633  -5.4606  -5.4603  -5.3163
    -5.0994  -5.0993  -5.0990  -5.0954  -5.0953  -4.9523  -4.9523  -4.7003
    -4.6999  -4.6871  -4.6869  -4.3978  -4.3975  -4.2324  -4.2322  -4.0448
    -4.0443  -4.0341  -4.0338  -4.0092  -4.0035  -3.8791  -3.6819  -3.6425
    -3.6424  -3.3061  -3.2999  -3.1855  -3.1852  -2.9561  -2.9561  -2.9456
    -2.9452  -2.8422  -2.8420  -2.6505  -2.6503  -2.6064  -2.6060  -2.6004
    -2.5998  -2.2634  -2.2633  -2.2549  -2.2546  -2.2163  -2.1247  -2.1244
    -1.9320  -1.5911  -1.5592  -1.5591  -1.5035  -1.4980  -1.4975  -1.3731
    -1.3726  -1.2332  -1.2330  -1.0785  -1.0782  -0.9805  -0.9804  -0.8979
    -0.8739  -0.8736  -0.7119  -0.7113  -0.6679  -0.6482  -0.6478  -0.5617
    -0.5617  -0.5019  -0.3819  -0.3818  -0.0327  -0.0325  -0.0212  -0.0208
     0.0422   0.0425   0.1973   0.2461   0.2534   0.2534   0.4079   0.4082
     0.4604   0.4608   0.5362   0.5365   0.6051   0.6053   0.7409   0.7411

          k = 0.2500-0.7217 0.0000 (236847 PWs)   bands (ev):

   -11.1050 -10.7305 -10.7305 -10.4070 -10.0340 -10.0340  -9.6129  -9.6128
    -9.2903  -8.9209  -8.9208  -8.9195  -8.9195  -8.8728  -8.5043  -8.5042
    -8.1839  -7.8171  -7.8169  -7.8136  -7.8135  -7.7715  -7.7699  -7.7697
    -7.4045  -7.4042  -7.4034  -7.4034  -7.0861  -7.0859  -7.0817  -6.7226
    -6.7223  -6.7178  -6.7176  -6.3068  -6.3067  -5.9930  -5.9929  -5.8662
    -5.6339  -5.6336  -5.5919  -5.5915  -5.5825  -5.4991  -5.4991  -5.2484
    -5.2240  -5.2238  -5.2199  -4.9229  -4.9224  -4.5836  -4.5511  -4.5173
    -4.5121  -4.5119  -4.4106  -4.4105  -4.1698  -4.1695  -4.1660  -4.1658
    -3.8670  -3.8665  -3.8593  -3.8331  -3.6990  -3.6600  -3.5132  -3.5129
    -3.4816  -3.4815  -3.3761  -3.3619  -3.3618  -3.1284  -3.1280  -3.1181
    -3.0960  -2.8327  -2.7281  -2.7280  -2.6709  -2.6707  -2.6394  -2.6390
    -2.5017  -2.4338  -2.4337  -2.4268  -2.1281  -2.0803  -2.0800  -2.0172
    -2.0171  -1.9958  -1.9953  -1.7971  -1.7488  -1.6801  -1.5770  -1.5766
    -1.4160  -1.2984  -1.2983  -1.2558  -1.2015  -1.2010  -1.1578  -1.1573
    -1.0689  -1.0688  -1.0494  -0.8848  -0.8845  -0.5788  -0.5787  -0.5394
    -0.5388  -0.5218  -0.5215  -0.2617  -0.2615  -0.1918  -0.1916  -0.1145
    -0.0826  -0.0825  -0.0355   0.0519   0.0524   0.1867   0.1871   0.2062
     0.3858   0.4751   0.4757   0.5914   0.6242   0.6244   0.9111   0.9478

          k =-0.5000 0.2887 0.0000 (236880 PWs)   bands (ev):

   -11.0113 -11.0113 -10.3136 -10.3136 -10.2638 -10.2638  -9.5691  -9.5691
    -9.1975  -9.1975  -8.7806  -8.7806  -8.7804  -8.7804  -8.4576  -8.4576
    -8.0921  -8.0921  -8.0919  -8.0919  -8.0447  -8.0447  -7.6793  -7.6793
    -7.3597  -7.3597  -6.9906  -6.9906  -6.9905  -6.9905  -6.9451  -6.9451
    -6.5855  -6.5855  -6.5853  -6.5853  -6.2644  -6.2644  -5.9084  -5.9084
    -5.9082  -5.9082  -5.7743  -5.7743  -5.4927  -5.4927  -5.4925  -5.4925
    -5.0430  -5.0430  -4.8315  -4.8315  -4.8313  -4.8313  -4.7794  -4.7794
    -4.4453  -4.4453  -4.4139  -4.4139  -3.7917  -3.7917  -3.7461  -3.7461
    -3.7452  -3.7452  -3.7384  -3.7384  -3.7379  -3.7379  -3.6133  -3.6133
    -3.6131  -3.6131  -3.4192  -3.4192  -3.4189  -3.4189  -3.0433  -3.0433
    -3.0360  -3.0360  -3.0355  -3.0355  -2.9872  -2.9872  -2.8806  -2.8806
    -2.5968  -2.5968  -2.2793  -2.2793  -1.9554  -1.9554  -1.9549  -1.9549
    -1.6746  -1.6746  -1.6744  -1.6744  -1.6477  -1.6477  -1.5566  -1.5566
    -1.4193  -1.4193  -1.3289  -1.3289  -1.2556  -1.2556  -1.2553  -1.2553
    -0.9809  -0.9809  -0.9711  -0.9711  -0.8338  -0.8338  -0.6426  -0.6426
    -0.4481  -0.4481  -0.4226  -0.4226  -0.4221  -0.4221  -0.2433  -0.2433
    -0.2428  -0.2428   0.2506   0.2506   0.4529   0.4529   0.4533   0.4533
     0.4823   0.4823   0.4824   0.4824   0.9642   0.9642   0.9806   0.9806

          k =-0.5000 0.5773 0.0000 (236845 PWs)   bands (ev):

   -11.1050 -10.7307 -10.7303 -10.4070 -10.0342 -10.0338  -9.6131  -9.6128
    -9.2903  -8.9211  -8.9208  -8.9198  -8.9193  -8.8727  -8.5043  -8.5038
    -8.1838  -7.8171  -7.8166  -7.8138  -7.8135  -7.7714  -7.7701  -7.7699
    -7.4044  -7.4041  -7.4037  -7.4032  -7.0862  -7.0862  -7.0816  -6.7225
    -6.7223  -6.7178  -6.7173  -6.3069  -6.3067  -5.9932  -5.9931  -5.8662
    -5.6339  -5.6336  -5.5919  -5.5917  -5.5823  -5.4993  -5.4989  -5.2487
    -5.2240  -5.2235  -5.2203  -4.9227  -4.9227  -4.5839  -4.5516  -4.5168
    -4.5122  -4.5121  -4.4107  -4.4105  -4.1697  -4.1695  -4.1657  -4.1653
    -3.8668  -3.8667  -3.8589  -3.8331  -3.6988  -3.6603  -3.5129  -3.5124
    -3.4818  -3.4814  -3.3765  -3.3619  -3.3615  -3.1280  -3.1277  -3.1182
    -3.0962  -2.8323  -2.7283  -2.7282  -2.6707  -2.6705  -2.6391  -2.6389
    -2.5018  -2.4339  -2.4337  -2.4271  -2.1284  -2.0801  -2.0798  -2.0177
    -2.0177  -1.9954  -1.9952  -1.7971  -1.7486  -1.6805  -1.5767  -1.5764
    -1.4160  -1.2990  -1.2988  -1.2560  -1.2011  -1.2008  -1.1575  -1.1573
    -1.0691  -1.0686  -1.0492  -0.8845  -0.8841  -0.5790  -0.5790  -0.5389
    -0.5389  -0.5218  -0.5216  -0.2617  -0.2614  -0.1923  -0.1921  -0.1149
    -0.0827  -0.0825  -0.0358   0.0518   0.0518   0.1871   0.1874   0.2061
     0.3859   0.4756   0.4757   0.5912   0.6240   0.6243   0.9114   0.9478

          k =-0.2500-0.1443 0.0000 (236890 PWs)   bands (ev):

   -11.2926 -10.5939 -10.5436 -10.1706 -10.1706  -9.8478  -9.4764  -9.4763
    -9.4760  -9.4276  -9.4275  -9.0574  -8.7364  -8.7362  -8.7345  -8.3678
    -8.3654  -8.3654  -7.9559  -7.9531  -7.9529  -7.6303  -7.6302  -7.2684
    -7.2681  -7.2643  -7.2198  -6.8578  -6.8577  -6.8576  -6.8537  -6.8537
    -6.1792  -6.1786  -6.1785  -6.1735  -6.1732  -6.1334  -6.1331  -6.1253
    -6.1252  -6.0505  -5.7714  -5.7710  -5.7633  -5.4606  -5.4603  -5.3163
    -5.0994  -5.0993  -5.0990  -5.0954  -5.0953  -4.9523  -4.9523  -4.7003
    -4.6999  -4.6871  -4.6869  -4.3978  -4.3975  -4.2324  -4.2322  -4.0448
    -4.0443  -4.0341  -4.0338  -4.0092  -4.0035  -3.8791  -3.6819  -3.6425
    -3.6424  -3.3061  -3.2999  -3.1855  -3.1852  -2.9561  -2.9561  -2.9456
    -2.9452  -2.8422  -2.8420  -2.6505  -2.6503  -2.6064  -2.6060  -2.6004
    -2.5998  -2.2634  -2.2633  -2.2549  -2.2546  -2.2163  -2.1247  -2.1243
    -1.9320  -1.5911  -1.5592  -1.5591  -1.5035  -1.4980  -1.4976  -1.3731
    -1.3726  -1.2331  -1.2330  -1.0785  -1.0782  -0.9805  -0.9804  -0.8979
    -0.8739  -0.8736  -0.7119  -0.7113  -0.6679  -0.6481  -0.6478  -0.5617
    -0.5617  -0.5019  -0.3819  -0.3818  -0.0327  -0.0325  -0.0212  -0.0208
     0.0422   0.0425   0.1973   0.2461   0.2534   0.2534   0.4079   0.4082
     0.4604   0.4608   0.5362   0.5365   0.6051   0.6053   0.7409   0.7411

          k =-0.2500-0.7217 0.0000 (236847 PWs)   bands (ev):

   -11.1050 -10.7305 -10.7305 -10.4070 -10.0340 -10.0340  -9.6129  -9.6128
    -9.2903  -8.9209  -8.9208  -8.9195  -8.9195  -8.8728  -8.5043  -8.5042
    -8.1839  -7.8171  -7.8169  -7.8136  -7.8135  -7.7715  -7.7699  -7.7697
    -7.4045  -7.4042  -7.4034  -7.4034  -7.0861  -7.0859  -7.0817  -6.7226
    -6.7223  -6.7178  -6.7176  -6.3068  -6.3067  -5.9930  -5.9929  -5.8662
    -5.6339  -5.6336  -5.5919  -5.5915  -5.5825  -5.4991  -5.4991  -5.2484
    -5.2240  -5.2238  -5.2199  -4.9229  -4.9224  -4.5837  -4.5511  -4.5173
    -4.5121  -4.5119  -4.4106  -4.4105  -4.1698  -4.1695  -4.1660  -4.1658
    -3.8670  -3.8665  -3.8593  -3.8331  -3.6990  -3.6599  -3.5132  -3.5129
    -3.4816  -3.4815  -3.3762  -3.3619  -3.3618  -3.1284  -3.1280  -3.1180
    -3.0960  -2.8327  -2.7281  -2.7280  -2.6709  -2.6707  -2.6394  -2.6390
    -2.5017  -2.4338  -2.4337  -2.4268  -2.1281  -2.0803  -2.0800  -2.0173
    -2.0171  -1.9958  -1.9953  -1.7971  -1.7488  -1.6801  -1.5770  -1.5766
    -1.4160  -1.2984  -1.2982  -1.2559  -1.2015  -1.2010  -1.1578  -1.1573
    -1.0689  -1.0688  -1.0494  -0.8848  -0.8845  -0.5788  -0.5787  -0.5394
    -0.5388  -0.5218  -0.5216  -0.2617  -0.2615  -0.1918  -0.1916  -0.1145
    -0.0826  -0.0825  -0.0355   0.0519   0.0524   0.1867   0.1871   0.2062
     0.3858   0.4751   0.4757   0.5914   0.6242   0.6244   0.9111   0.9477

          k = 0.5000 0.2887 0.0000 (236880 PWs)   bands (ev):

   -11.0113 -11.0113 -10.3136 -10.3136 -10.2638 -10.2638  -9.5691  -9.5691
    -9.1975  -9.1975  -8.7806  -8.7806  -8.7804  -8.7804  -8.4576  -8.4576
    -8.0921  -8.0921  -8.0919  -8.0919  -8.0447  -8.0447  -7.6793  -7.6793
    -7.3597  -7.3597  -6.9906  -6.9906  -6.9905  -6.9905  -6.9451  -6.9451
    -6.5855  -6.5855  -6.5853  -6.5853  -6.2644  -6.2644  -5.9084  -5.9084
    -5.9082  -5.9082  -5.7743  -5.7743  -5.4927  -5.4927  -5.4925  -5.4925
    -5.0430  -5.0430  -4.8315  -4.8315  -4.8313  -4.8313  -4.7794  -4.7794
    -4.4452  -4.4452  -4.4139  -4.4139  -3.7917  -3.7917  -3.7461  -3.7461
    -3.7452  -3.7452  -3.7384  -3.7384  -3.7379  -3.7379  -3.6133  -3.6133
    -3.6131  -3.6131  -3.4192  -3.4192  -3.4189  -3.4189  -3.0433  -3.0433
    -3.0360  -3.0360  -3.0355  -3.0355  -2.9872  -2.9872  -2.8806  -2.8806
    -2.5969  -2.5969  -2.2793  -2.2793  -1.9554  -1.9554  -1.9550  -1.9550
    -1.6746  -1.6746  -1.6744  -1.6744  -1.6477  -1.6477  -1.5565  -1.5565
    -1.4193  -1.4193  -1.3289  -1.3289  -1.2556  -1.2556  -1.2553  -1.2553
    -0.9809  -0.9809  -0.9711  -0.9711  -0.8338  -0.8338  -0.6426  -0.6426
    -0.4481  -0.4481  -0.4226  -0.4226  -0.4221  -0.4221  -0.2433  -0.2433
    -0.2429  -0.2429   0.2506   0.2506   0.4529   0.4529   0.4533   0.4533
     0.4823   0.4823   0.4824   0.4824   0.9644   0.9684   0.9806   0.9806

     the Fermi energy is    -0.5257 ev

!    total energy              =   -3159.35015528 Ry
     total all-electron energy =    -38850.772682 Ry
     estimated scf accuracy    <          1.2E-10 Ry
     smearing contrib. (-TS)   =      -0.00934739 Ry
     internal energy E=F+TS    =   -3159.34080789 Ry

     The total energy is F=E-TS. E is the sum of the following terms:
     one-electron contribution =  -10710.37287402 Ry
     hartree contribution      =    5407.81740472 Ry
     xc contribution           =    -204.33916176 Ry
     ewald contribution        =    5121.82015202 Ry
     one-center paw contrib.   =   -2774.26632885 Ry

     convergence has been achieved in  17 iterations

     negative rho (up, down):  3.538E-05 0.000E+00

     Forces acting on atoms (cartesian axes, Ry/au):

     atom    1 type  1   force =    -0.00000131   -0.00002789   -0.00264823
     atom    2 type  1   force =    -0.00000128   -0.00002789   -0.00264823
     atom    3 type  1   force =    -0.00000127   -0.00002789   -0.00264821
     atom    4 type  1   force =    -0.00000131   -0.00002788   -0.00264821
     atom    5 type  1   force =    -0.00000129   -0.00000069   -0.00264693
     atom    6 type  1   force =    -0.00000127   -0.00000070   -0.00264691
     atom    7 type  1   force =    -0.00000129   -0.00000071   -0.00264690
     atom    8 type  1   force =    -0.00000131   -0.00000070   -0.00264691
     atom    9 type  1   force =    -0.00000129   -0.00000092   -0.00264642
     atom   10 type  1   force =    -0.00000128   -0.00000093   -0.00264643
     atom   11 type  1   force =    -0.00000129   -0.00000094   -0.00264643
     atom   12 type  1   force =    -0.00000130   -0.00000091   -0.00264642
     atom   13 type  1   force =    -0.00000131    0.00003043   -0.00263407
     atom   14 type  1   force =    -0.00000129    0.00003042   -0.00263408
     atom   15 type  1   force =    -0.00000127    0.00003043   -0.00263407
     atom   16 type  1   force =    -0.00000129    0.00003044   -0.00263406
     atom   17 type  1   force =     0.00000020   -0.00003876    0.00247995
     atom   18 type  1   force =     0.00000022   -0.00003877    0.00247993
     atom   19 type  1   force =     0.00000022   -0.00003876    0.00247992
     atom   20 type  1   force =     0.00000020   -0.00003875    0.00247993
     atom   21 type  1   force =     0.00000021    0.00000123    0.00248002
     atom   22 type  1   force =     0.00000022    0.00000123    0.00248002
     atom   23 type  1   force =     0.00000021    0.00000123    0.00248002
     atom   24 type  1   force =     0.00000019    0.00000124    0.00248002
     atom   25 type  1   force =     0.00000021   -0.00000118    0.00248008
     atom   26 type  1   force =     0.00000022   -0.00000120    0.00248009
     atom   27 type  1   force =     0.00000020   -0.00000119    0.00248009
     atom   28 type  1   force =     0.00000020   -0.00000118    0.00248007
     atom   29 type  1   force =     0.00000020    0.00003009    0.00248137
     atom   30 type  1   force =     0.00000021    0.00003008    0.00248137
     atom   31 type  1   force =     0.00000020    0.00003009    0.00248136
     atom   32 type  1   force =     0.00000021    0.00003009    0.00248135
     atom   33 type  1   force =     0.00000335   -0.00002497   -0.00025263
     atom   34 type  1   force =     0.00000341   -0.00002493   -0.00025261
     atom   35 type  1   force =     0.00000338   -0.00002490   -0.00025260
     atom   36 type  1   force =     0.00000334   -0.00002493   -0.00025262
     atom   37 type  1   force =     0.00000341   -0.00000117   -0.00025968
     atom   38 type  1   force =     0.00000342   -0.00000116   -0.00025966
     atom   39 type  1   force =     0.00000333   -0.00000116   -0.00025966
     atom   40 type  1   force =     0.00000331   -0.00000119   -0.00025967
     atom   41 type  1   force =     0.00000343    0.00000456   -0.00025661
     atom   42 type  1   force =     0.00000337    0.00000453   -0.00025659
     atom   43 type  1   force =     0.00000331    0.00000455   -0.00025661
     atom   44 type  1   force =     0.00000337    0.00000457   -0.00025662
     atom   45 type  1   force =     0.00000338    0.00002942   -0.00026547
     atom   46 type  1   force =     0.00000335    0.00002941   -0.00026546
     atom   47 type  1   force =     0.00000336    0.00002947   -0.00026546
     atom   48 type  1   force =     0.00000339    0.00002947   -0.00026547
     atom   49 type  1   force =    -0.00000315   -0.00002304   -0.00165663
     atom   50 type  1   force =    -0.00000306   -0.00002306   -0.00165662
     atom   51 type  1   force =    -0.00000305   -0.00002303   -0.00165662
     atom   52 type  1   force =    -0.00000314   -0.00002302   -0.00165664
     atom   53 type  1   force =    -0.00000311   -0.00000293   -0.00165552
     atom   54 type  1   force =    -0.00000303   -0.00000294   -0.00165554
     atom   55 type  1   force =    -0.00000311   -0.00000295   -0.00165555
     atom   56 type  1   force =    -0.00000316   -0.00000293   -0.00165554
     atom   57 type  1   force =    -0.00000308    0.00000056   -0.00165540
     atom   58 type  1   force =    -0.00000307    0.00000051   -0.00165540
     atom   59 type  1   force =    -0.00000312    0.00000052   -0.00165539
     atom   60 type  1   force =    -0.00000314    0.00000056   -0.00165537
     atom   61 type  1   force =    -0.00000311    0.00002699   -0.00165803
     atom   62 type  1   force =    -0.00000309    0.00002694   -0.00165802
     atom   63 type  1   force =    -0.00000308    0.00002697   -0.00165801
     atom   64 type  1   force =    -0.00000311    0.00002702   -0.00165801
     atom   65 type  1   force =     0.00000081   -0.00002365    0.00207203
     atom   66 type  1   force =     0.00000084   -0.00002366    0.00207201
     atom   67 type  1   force =     0.00000082   -0.00002364    0.00207200
     atom   68 type  1   force =     0.00000079   -0.00002364    0.00207201
     atom   69 type  1   force =     0.00000081   -0.00000169    0.00207978
     atom   70 type  1   force =     0.00000085   -0.00000169    0.00207976
     atom   71 type  1   force =     0.00000081   -0.00000168    0.00207973
     atom   72 type  1   force =     0.00000079   -0.00000168    0.00207976
     atom   73 type  1   force =     0.00000083    0.00000202    0.00208157
     atom   74 type  1   force =     0.00000084    0.00000201    0.00208153
     atom   75 type  1   force =     0.00000080    0.00000201    0.00208152
     atom   76 type  1   force =     0.00000079    0.00000203    0.00208155
     atom   77 type  1   force =     0.00000082    0.00002158    0.00208086
     atom   78 type  1   force =     0.00000083    0.00002156    0.00208083
     atom   79 type  1   force =     0.00000081    0.00002158    0.00208084
     atom   80 type  1   force =     0.00000080    0.00002160    0.00208087

     Total force =     0.010682     Total SCF correction =     0.000009


     Computing stress (Cartesian axis) and pressure


     negative rho (up, down):  3.538E-05 0.000E+00
          total   stress  (Ry/bohr**3)                   (kbar)     P=       -5.72
  -0.00006447   0.00000000   0.00000000           -9.48        0.00        0.00
   0.00000000  -0.00006450   0.00000000            0.00       -9.49        0.00
   0.00000000   0.00000000   0.00001239            0.00        0.00        1.82

     Energy error            =      1.8E-04 Ry
     Gradient error          =      2.1E-03 Ry/Bohr

     number of scf cycles    =   3
     number of bfgs steps    =   2

     energy             old  =   -3159.3499748939 Ry
     energy             new  =   -3159.3501552788 Ry

     CASE: energy            _new < energy            _old

     new trust radius        =       0.0043586600 bohr
     new conv_thr            =       0.0000000002 Ry


ATOMIC_POSITIONS (angstrom)
Al              11.4551572755        1.6534343352       14.9998275960    0   0   0
Al               2.8638322755        1.6534343352       14.9998275960    0   0   0
Al               5.7276072755        1.6534343352       14.9998275960    0   0   0
Al               8.5913822755        1.6534343352       14.9998275960    0   0   0
Al              12.8870447755        4.1335362359       14.9998275960    0   0   0
Al               4.2957197755        4.1335362359       14.9998275960    0   0   0
Al               7.1594947755        4.1335362359       14.9998275960    0   0   0
Al              10.0232697755        4.1335362359       14.9998275960    0   0   0
Al              14.3189322755        6.6136381366       14.9998275960    0   0   0
Al               5.7276072755        6.6136381366       14.9998275960    0   0   0
Al               8.5913822755        6.6136381366       14.9998275960    0   0   0
Al              11.4551572755        6.6136381366       14.9998275960    0   0   0
Al              15.7508197755        9.0937400373       14.9998275960    0   0   0
Al               7.1594947755        9.0937400373       14.9998275960    0   0   0
Al              10.0232697755        9.0937400373       14.9998275960    0   0   0
Al              12.8870447755        9.0937400373       14.9998275960    0   0   0
Al               0.0000000000        0.0000000000       17.3381887980    0   0   0
Al               2.8637750000        0.0000000000       17.3381887980    0   0   0
Al               5.7275500000        0.0000000000       17.3381887980    0   0   0
Al               8.5913250000        0.0000000000       17.3381887980    0   0   0
Al               1.4318875000        2.4801019007       17.3381887980    0   0   0
Al               4.2956625000        2.4801019007       17.3381887980    0   0   0
Al               7.1594375000        2.4801019007       17.3381887980    0   0   0
Al              10.0232125000        2.4801019007       17.3381887980    0   0   0
Al               2.8637750000        4.9602038014       17.3381887980    0   0   0
Al               5.7275500000        4.9602038014       17.3381887980    0   0   0
Al               8.5913250000        4.9602038014       17.3381887980    0   0   0
Al              11.4551000000        4.9602038014       17.3381887980    0   0   0
Al               4.2956625000        7.4403057022       17.3381887980    0   0   0
Al               7.1594375000        7.4403057022       17.3381887980    0   0   0
Al              10.0232125000        7.4403057022       17.3381887980    0   0   0
Al              12.8869875000        7.4403057022       17.3381887980    0   0   0
Al               1.4318380721        0.8266005669       19.6762498699
Al               4.2956127989        0.8266003453       19.6762498123
Al               7.1593879300        0.8266001875       19.6762498773
Al              10.0231631578        0.8266003750       19.6762498977
Al               2.8637252794        3.3067703687       19.6762287711
Al               5.7275002484        3.3067703215       19.6762288634
Al               8.5912757407        3.3067703613       19.6762288988
Al              11.4550508025        3.3067704537       19.6762288359
Al               4.2956126910        5.7868796171       19.6762379686
Al               7.1593880096        5.7868797412       19.6762380145
Al              10.0231632891        5.7868796506       19.6762379594
Al              12.8869379694        5.7868795072       19.6762379191
Al               5.7275004729        8.2670495524       19.6762148815
Al               8.5912755961        8.2670495782       19.6762147804
Al              11.4550505468        8.2670492754       19.6762147325
Al              14.3188254042        8.2670492608       19.6762147935
Al              11.4551502688        1.6533731896       22.0103490234
Al               2.8638249160        1.6533732051       22.0103489450
Al               5.7275998837        1.6533730134       22.0103490106
Al               8.5913752555        1.6533730285       22.0103490875
Al              12.8870375736        4.1335331834       22.0103515001
Al               4.2957122427        4.1335331970       22.0103515997
Al               7.1594875873        4.1335331874       22.0103516999
Al              10.0232628666        4.1335331907       22.0103516188
Al              14.3189249256        6.6136343085       22.0103527827
Al               5.7275999284        6.6136344858       22.0103528574
Al               8.5913752312        6.6136345030       22.0103528356
Al              11.4551502455        6.6136342944       22.0103527121
Al              15.7508125657        9.0938113458       22.0103463547
Al               7.1594875608        9.0938115801       22.0103463041
Al              10.0232625230        9.0938113835       22.0103462466
Al              12.8870376121        9.0938111861       22.0103462769
Al               0.0000019835       -0.0000605452       24.3584885405
Al               2.8637768288       -0.0000605161       24.3584885765
Al               5.7275519126       -0.0000606416       24.3584886291
Al               8.5913270144       -0.0000606697       24.3584886243
Al               1.4318894313        2.4801008085       24.3585108983
Al               4.2956642653        2.4801008156       24.3585109815
Al               7.1594394462        2.4801007110       24.3585111637
Al              10.0232146041        2.4801007681       24.3585110002
Al               2.8637768402        4.9602068516       24.3585134037
Al               5.7275517673        4.9602068775       24.3585135723
Al               8.5913270313        4.9602068679       24.3585136224
Al              11.4551020981        4.9602068113       24.3585134701
Al               4.2956643542        7.4403604155       24.3585137310
Al               7.1594393570        7.4403604821       24.3585137907
Al              10.0232144856        7.4403603980       24.3585137355
Al              12.8869894654        7.4403602575       24.3585136857



     Writing config-only to output data dir ./tmp/al111_4x4.save/ :
     XML data file
     NEW-OLD atomic charge density approx. for the potential

     negative rho (up, down):  3.611E-05 0.000E+00

     total cpu time spent up to now is     8570.9 secs

     Self-consistent Calculation

     iteration #  1     ecut=    60.00 Ry     beta= 0.30
     Davidson diagonalization with overlap
     ethr =  1.00E-06,  avg # of iterations =  2.0

     Threshold (ethr) on eigenvalues was too large:
     Diagonalizing with lowered threshold

     Davidson diagonalization with overlap
     ethr =  3.59E-08,  avg # of iterations =  5.7

     negative rho (up, down):  3.577E-05 0.000E+00

     total cpu time spent up to now is     8880.8 secs

     total energy              =   -3159.35032158 Ry
     estimated scf accuracy    <       0.00011217 Ry

     iteration #  2     ecut=    60.00 Ry     beta= 0.30
     Davidson diagonalization with overlap
     ethr =  4.67E-08,  avg # of iterations =  7.5

     negative rho (up, down):  3.561E-05 0.000E+00

     total cpu time spent up to now is     9047.7 secs

     total energy              =   -3159.35005682 Ry
     estimated scf accuracy    <       0.01573720 Ry

     iteration #  3     ecut=    60.00 Ry     beta= 0.30
     Davidson diagonalization with overlap
     ethr =  4.67E-08,  avg # of iterations =  6.7

     negative rho (up, down):  3.554E-05 0.000E+00

     total cpu time spent up to now is     9202.6 secs

     total energy              =   -3159.35035421 Ry
     estimated scf accuracy    <       0.00012602 Ry

     iteration #  4     ecut=    60.00 Ry     beta= 0.30
     Davidson diagonalization with overlap
     ethr =  4.67E-08,  avg # of iterations =  2.0

     negative rho (up, down):  3.548E-05 0.000E+00

     total cpu time spent up to now is     9334.7 secs

     total energy              =   -3159.35036485 Ry
     estimated scf accuracy    <       0.00002264 Ry

     iteration #  5     ecut=    60.00 Ry     beta= 0.30
     Davidson diagonalization with overlap
     ethr =  9.43E-09,  avg # of iterations =  2.0

     negative rho (up, down):  3.544E-05 0.000E+00

     total cpu time spent up to now is     9457.1 secs

     total energy              =   -3159.35036563 Ry
     estimated scf accuracy    <       0.00000264 Ry

     iteration #  6     ecut=    60.00 Ry     beta= 0.30
     Davidson diagonalization with overlap
     ethr =  1.10E-09,  avg # of iterations =  5.1

     negative rho (up, down):  3.542E-05 0.000E+00

     total cpu time spent up to now is     9612.9 secs

     total energy              =   -3159.35036616 Ry
     estimated scf accuracy    <       0.00000052 Ry

     iteration #  7     ecut=    60.00 Ry     beta= 0.30
     Davidson diagonalization with overlap
     ethr =  2.16E-10,  avg # of iterations =  4.3

     negative rho (up, down):  3.541E-05 0.000E+00

     total cpu time spent up to now is     9754.8 secs

     total energy              =   -3159.35036612 Ry
     estimated scf accuracy    <       0.00000028 Ry

     iteration #  8     ecut=    60.00 Ry     beta= 0.30
     Davidson diagonalization with overlap
     ethr =  1.15E-10,  avg # of iterations =  5.0

     negative rho (up, down):  3.540E-05 0.000E+00

     total cpu time spent up to now is     9914.8 secs

     total energy              =   -3159.35036619 Ry
     estimated scf accuracy    <       0.00000052 Ry

     iteration #  9     ecut=    60.00 Ry     beta= 0.30
     Davidson diagonalization with overlap
     ethr =  1.15E-10,  avg # of iterations =  1.1

     negative rho (up, down):  3.540E-05 0.000E+00

     total cpu time spent up to now is    10030.5 secs

     total energy              =   -3159.35036611 Ry
     estimated scf accuracy    <       0.00000025 Ry

     iteration # 10     ecut=    60.00 Ry     beta= 0.30
     Davidson diagonalization with overlap
     ethr =  1.03E-10,  avg # of iterations =  4.0

     negative rho (up, down):  3.540E-05 0.000E+00

     total cpu time spent up to now is    10182.3 secs

     total energy              =   -3159.35036617 Ry
     estimated scf accuracy    <       0.00000071 Ry

     iteration # 11     ecut=    60.00 Ry     beta= 0.30
     Davidson diagonalization with overlap
     ethr =  1.03E-10,  avg # of iterations =  2.0

     negative rho (up, down):  3.540E-05 0.000E+00

     total cpu time spent up to now is    10305.2 secs

     total energy              =   -3159.35036616 Ry
     estimated scf accuracy    <       0.00000015 Ry

     iteration # 12     ecut=    60.00 Ry     beta= 0.30
     Davidson diagonalization with overlap
     ethr =  6.22E-11,  avg # of iterations =  4.4

     negative rho (up, down):  3.539E-05 0.000E+00

     total cpu time spent up to now is    10450.0 secs

     total energy              =   -3159.35036618 Ry
     estimated scf accuracy    <       0.00000004 Ry

     iteration # 13     ecut=    60.00 Ry     beta= 0.30
     Davidson diagonalization with overlap
     ethr =  1.82E-11,  avg # of iterations =  1.9

     negative rho (up, down):  3.539E-05 0.000E+00

     total cpu time spent up to now is    10570.6 secs

     total energy              =   -3159.35036618 Ry
     estimated scf accuracy    <       0.00000002 Ry

     iteration # 14     ecut=    60.00 Ry     beta= 0.30
     Davidson diagonalization with overlap
     ethr =  9.45E-12,  avg # of iterations =  2.0

     negative rho (up, down):  3.539E-05 0.000E+00

     total cpu time spent up to now is    10694.9 secs

     total energy              =   -3159.35036618 Ry
     estimated scf accuracy    <          3.3E-09 Ry

     iteration # 15     ecut=    60.00 Ry     beta= 0.30
     Davidson diagonalization with overlap
     ethr =  1.37E-12,  avg # of iterations =  5.0

     negative rho (up, down):  3.539E-05 0.000E+00

     total cpu time spent up to now is    10837.5 secs

     total energy              =   -3159.35036618 Ry
     estimated scf accuracy    <          2.1E-09 Ry

     iteration # 16     ecut=    60.00 Ry     beta= 0.30
     Davidson diagonalization with overlap
     ethr =  8.81E-13,  avg # of iterations =  4.8

     negative rho (up, down):  3.539E-05 0.000E+00

     total cpu time spent up to now is    10980.5 secs

     total energy              =   -3159.35036618 Ry
     estimated scf accuracy    <          1.9E-10 Ry

     iteration # 17     ecut=    60.00 Ry     beta= 0.30
     Davidson diagonalization with overlap
     ethr =  1.00E-13,  avg # of iterations =  5.4

     negative rho (up, down):  3.539E-05 0.000E+00

     total cpu time spent up to now is    11156.0 secs

     total energy              =   -3159.35036618 Ry
     estimated scf accuracy    <          1.3E-09 Ry

     iteration # 18     ecut=    60.00 Ry     beta= 0.30
     Davidson diagonalization with overlap
     ethr =  1.00E-13,  avg # of iterations =  2.5

     negative rho (up, down):  3.539E-05 0.000E+00

     total cpu time spent up to now is    11290.2 secs

     End of self-consistent calculation

          k = 0.0000 0.0000 0.0000 (237007 PWs)   bands (ev):

   -11.3862 -10.6837  -9.8913  -9.8913  -9.8913  -9.8911  -9.8909  -9.8909
    -9.5669  -9.1948  -9.1948  -9.1948  -9.1946  -9.1944  -9.1944  -8.0872
    -8.0872  -8.0872  -8.0870  -8.0868  -8.0868  -8.0498  -6.9483  -6.9483
    -6.9481  -6.9481  -6.9479  -6.9479  -6.5816  -6.5816  -6.5816  -6.5813
    -6.5811  -6.5811  -6.2651  -6.2651  -6.2651  -6.2651  -6.2648  -6.2648
    -6.1433  -5.5173  -5.5170  -5.5169  -5.4900  -5.4897  -5.4896  -5.1818
    -5.1818  -5.1817  -5.1817  -5.1814  -5.1814  -4.8455  -4.8453  -4.8452
    -4.8184  -4.8180  -4.8180  -4.6816  -4.6816  -4.6816  -4.6814  -4.6812
    -4.6812  -4.0976  -3.9207  -3.9204  -3.9203  -3.7222  -3.7222  -3.7221
    -3.7221  -3.7219  -3.7219  -3.6396  -3.6392  -3.6392  -2.6956  -2.6956
    -2.6956  -2.6954  -2.6952  -2.6952  -2.3894  -2.3891  -2.3890  -2.0117
    -2.0117  -2.0116  -2.0116  -2.0115  -2.0115  -1.9421  -1.9417  -1.9416
    -1.6794  -1.3224  -1.3224  -1.3223  -1.3223  -1.3222  -1.3222  -1.2005
    -1.2005  -1.2004  -1.2004  -1.2003  -1.2003  -0.6522  -0.6522  -0.6520
    -0.6520  -0.6519  -0.6519  -0.3415  -0.3415  -0.3414  -0.3414  -0.3412
    -0.3412  -0.3297  -0.3297  -0.3297  -0.3295  -0.3293  -0.3293  -0.3254
    -0.3250  -0.3249  -0.2600  -0.2596  -0.2596   0.2825   0.2825   0.2825
     0.2825   0.2827   0.2827   0.3849   0.3850   0.3851   0.3852   0.3852

          k = 0.0000 0.2887 0.0000 (236896 PWs)   bands (ev):

   -11.2923 -10.5902 -10.5433 -10.1702 -10.1702  -9.8442  -9.4739  -9.4726
    -9.4726  -9.4272  -9.4272  -9.0572  -8.7325  -8.7325  -8.7325  -8.3642
    -8.3632  -8.3632  -7.9575  -7.9528  -7.9528  -7.6281  -7.6281  -7.2646
    -7.2646  -7.2623  -7.2214  -6.8577  -6.8571  -6.8571  -6.8551  -6.8551
    -6.1757  -6.1745  -6.1745  -6.1712  -6.1712  -6.1327  -6.1327  -6.1267
    -6.1267  -6.0510  -5.7711  -5.7711  -5.7650  -5.4565  -5.4565  -5.3168
    -5.0973  -5.0956  -5.0956  -5.0928  -5.0928  -4.9527  -4.9527  -4.6997
    -4.6997  -4.6885  -4.6885  -4.3950  -4.3950  -4.2328  -4.2328  -4.0408
    -4.0408  -4.0319  -4.0319  -4.0096  -4.0035  -3.8797  -3.6831  -3.6435
    -3.6435  -3.3066  -3.2972  -3.1845  -3.1845  -2.9564  -2.9564  -2.9452
    -2.9452  -2.8425  -2.8425  -2.6516  -2.6516  -2.6060  -2.6060  -2.6001
    -2.6001  -2.2637  -2.2637  -2.2518  -2.2518  -2.2150  -2.1220  -2.1219
    -1.9325  -1.5915  -1.5585  -1.5585  -1.5040  -1.4964  -1.4964  -1.3741
    -1.3741  -1.2315  -1.2315  -1.0780  -1.0780  -0.9772  -0.9772  -0.8983
    -0.8740  -0.8739  -0.7096  -0.7096  -0.6699  -0.6475  -0.6475  -0.5620
    -0.5620  -0.5024  -0.3808  -0.3807  -0.0328  -0.0328  -0.0171  -0.0171
     0.0429   0.0429   0.1997   0.2456   0.2534   0.2534   0.4082   0.4083
     0.4605   0.4605   0.5359   0.5359   0.6044   0.6044   0.7412   0.7413

          k = 0.0000-0.5773 0.0000 (236880 PWs)   bands (ev):

   -11.0112 -11.0107 -10.3102 -10.3097 -10.2634 -10.2634  -9.5653  -9.5653
    -9.1956  -9.1952  -8.7803  -8.7803  -8.7801  -8.7801  -8.4554  -8.4554
    -8.0884  -8.0884  -8.0882  -8.0882  -8.0447  -8.0446  -7.6811  -7.6807
    -7.3561  -7.3561  -6.9885  -6.9885  -6.9883  -6.9883  -6.9466  -6.9466
    -6.5850  -6.5850  -6.5846  -6.5846  -6.2624  -6.2623  -5.9045  -5.9045
    -5.9041  -5.9041  -5.7750  -5.7746  -5.4942  -5.4942  -5.4940  -5.4940
    -5.0434  -5.0434  -4.8291  -4.8291  -4.8287  -4.8287  -4.7811  -4.7810
    -4.4452  -4.4452  -4.4139  -4.4139  -3.7887  -3.7887  -3.7458  -3.7454
    -3.7421  -3.7421  -3.7377  -3.7377  -3.7375  -3.7375  -3.6137  -3.6137
    -3.6135  -3.6135  -3.4199  -3.4199  -3.4196  -3.4195  -3.0436  -3.0436
    -3.0325  -3.0325  -3.0324  -3.0324  -2.9877  -2.9876  -2.8783  -2.8783
    -2.5954  -2.5954  -2.2794  -2.2793  -1.9534  -1.9534  -1.9534  -1.9533
    -1.6748  -1.6748  -1.6746  -1.6746  -1.6467  -1.6467  -1.5541  -1.5540
    -1.4203  -1.4203  -1.3295  -1.3291  -1.2554  -1.2554  -1.2551  -1.2551
    -0.9778  -0.9778  -0.9722  -0.9722  -0.8340  -0.8340  -0.6429  -0.6429
    -0.4466  -0.4465  -0.4237  -0.4237  -0.4236  -0.4236  -0.2426  -0.2426
    -0.2424  -0.2424   0.2521   0.2521   0.4563   0.4563   0.4565   0.4565
     0.4822   0.4822   0.4825   0.4826   0.9621   0.9638   0.9798   0.9798

          k = 0.2500-0.1443 0.0000 (236890 PWs)   bands (ev):

   -11.2923 -10.5902 -10.5433 -10.1703 -10.1703  -9.8441  -9.4739  -9.4726
    -9.4726  -9.4273  -9.4271  -9.0571  -8.7326  -8.7325  -8.7324  -8.3640
    -8.3633  -8.3632  -7.9575  -7.9528  -7.9526  -7.6281  -7.6280  -7.2646
    -7.2644  -7.2621  -7.2214  -6.8575  -6.8574  -6.8573  -6.8552  -6.8552
    -6.1755  -6.1749  -6.1748  -6.1713  -6.1710  -6.1330  -6.1328  -6.1268
    -6.1267  -6.0510  -5.7710  -5.7707  -5.7648  -5.4568  -5.4566  -5.3168
    -5.0970  -5.0956  -5.0953  -5.0931  -5.0931  -4.9528  -4.9527  -4.7000
    -4.6996  -4.6885  -4.6883  -4.3954  -4.3951  -4.2328  -4.2327  -4.0412
    -4.0407  -4.0318  -4.0315  -4.0096  -4.0030  -3.8795  -3.6828  -3.6438
    -3.6437  -3.3065  -3.2968  -3.1848  -3.1845  -2.9565  -2.9564  -2.9451
    -2.9447  -2.8426  -2.8424  -2.6514  -2.6512  -2.6064  -2.6060  -2.6004
    -2.5998  -2.2638  -2.2636  -2.2516  -2.2513  -2.2146  -2.1222  -2.1218
    -1.9323  -1.5915  -1.5591  -1.5590  -1.5036  -1.4968  -1.4963  -1.3745
    -1.3740  -1.2314  -1.2312  -1.0783  -1.0780  -0.9774  -0.9773  -0.8982
    -0.8744  -0.8740  -0.7100  -0.7094  -0.6694  -0.6480  -0.6477  -0.5621
    -0.5620  -0.5018  -0.3809  -0.3807  -0.0330  -0.0327  -0.0178  -0.0174
     0.0427   0.0430   0.2002   0.2458   0.2533   0.2534   0.4080   0.4083
     0.4601   0.4606   0.5363   0.5366   0.6043   0.6046   0.7411   0.7412

          k = 0.2500-0.7217 0.0000 (236847 PWs)   bands (ev):

   -11.1047 -10.7302 -10.7301 -10.4033 -10.0303 -10.0302  -9.6126  -9.6125
    -9.2882  -8.9174  -8.9174  -8.9172  -8.9171  -8.8725  -8.5040  -8.5038
    -8.1802  -7.8133  -7.8132  -7.8115  -7.8114  -7.7730  -7.7696  -7.7694
    -7.4050  -7.4049  -7.4041  -7.4039  -7.0823  -7.0821  -7.0796  -6.7188
    -6.7186  -6.7156  -6.7154  -6.3083  -6.3082  -5.9908  -5.9907  -5.8667
    -5.6317  -5.6314  -5.5916  -5.5912  -5.5840  -5.4996  -5.4996  -5.2481
    -5.2254  -5.2253  -5.2196  -4.9191  -4.9187  -4.5804  -4.5468  -4.5170
    -4.5135  -4.5133  -4.4111  -4.4110  -4.1711  -4.1708  -4.1657  -4.1655
    -3.8645  -3.8641  -3.8555  -3.8335  -3.6994  -3.6575  -3.5095  -3.5093
    -3.4820  -3.4819  -3.3743  -3.3623  -3.3622  -3.1284  -3.1280  -3.1177
    -3.0958  -2.8301  -2.7284  -2.7283  -2.6702  -2.6700  -2.6368  -2.6365
    -2.4986  -2.4341  -2.4340  -2.4227  -2.1295  -2.0803  -2.0799  -2.0167
    -2.0165  -1.9946  -1.9942  -1.7957  -1.7491  -1.6814  -1.5768  -1.5764
    -1.4164  -1.2954  -1.2952  -1.2544  -1.1996  -1.1991  -1.1577  -1.1573
    -1.0692  -1.0692  -1.0497  -0.8860  -0.8857  -0.5786  -0.5785  -0.5360
    -0.5353  -0.5219  -0.5217  -0.2620  -0.2617  -0.1897  -0.1895  -0.1148
    -0.0829  -0.0828  -0.0360   0.0522   0.0526   0.1851   0.1856   0.2048
     0.3856   0.4773   0.4780   0.5899   0.6262   0.6264   0.9106   0.9450

          k =-0.5000 0.2887 0.0000 (236880 PWs)   bands (ev):

   -11.0109 -11.0109 -10.3099 -10.3099 -10.2634 -10.2634  -9.5654  -9.5654
    -9.1954  -9.1954  -8.7803  -8.7803  -8.7801  -8.7801  -8.4554  -8.4554
    -8.0884  -8.0884  -8.0882  -8.0882  -8.0444  -8.0444  -7.6809  -7.6809
    -7.3559  -7.3559  -6.9885  -6.9885  -6.9883  -6.9883  -6.9466  -6.9466
    -6.5852  -6.5852  -6.5850  -6.5850  -6.2622  -6.2622  -5.9047  -5.9047
    -5.9045  -5.9045  -5.7748  -5.7748  -5.4941  -5.4941  -5.4940  -5.4940
    -5.0435  -5.0435  -4.8293  -4.8293  -4.8291  -4.8291  -4.7809  -4.7809
    -4.4449  -4.4449  -4.4136  -4.4136  -3.7884  -3.7884  -3.7456  -3.7456
    -3.7418  -3.7418  -3.7379  -3.7379  -3.7374  -3.7374  -3.6137  -3.6137
    -3.6135  -3.6135  -3.4201  -3.4201  -3.4198  -3.4198  -3.0437  -3.0437
    -3.0328  -3.0328  -3.0323  -3.0323  -2.9875  -2.9875  -2.8781  -2.8781
    -2.5951  -2.5951  -2.2788  -2.2788  -1.9537  -1.9537  -1.9532  -1.9532
    -1.6748  -1.6748  -1.6746  -1.6746  -1.6472  -1.6472  -1.5535  -1.5535
    -1.4202  -1.4202  -1.3292  -1.3292  -1.2557  -1.2557  -1.2554  -1.2554
    -0.9781  -0.9781  -0.9720  -0.9720  -0.8337  -0.8337  -0.6430  -0.6430
    -0.4460  -0.4460  -0.4240  -0.4240  -0.4235  -0.4235  -0.2432  -0.2432
    -0.2427  -0.2427   0.2518   0.2518   0.4558   0.4558   0.4562   0.4562
     0.4821   0.4821   0.4822   0.4822   0.9627   0.9627   0.9800   0.9801

          k =-0.5000 0.5773 0.0000 (236845 PWs)   bands (ev):

   -11.1046 -10.7304 -10.7300 -10.4033 -10.0305 -10.0300  -9.6128  -9.6125
    -9.2881  -8.9176  -8.9173  -8.9172  -8.9171  -8.8723  -8.5040  -8.5036
    -8.1800  -7.8133  -7.8129  -7.8116  -7.8114  -7.7730  -7.7698  -7.7696
    -7.4052  -7.4047  -7.4040  -7.4038  -7.0824  -7.0824  -7.0794  -6.7187
    -6.7185  -6.7156  -6.7152  -6.3084  -6.3082  -5.9910  -5.9909  -5.8667
    -5.6316  -5.6314  -5.5915  -5.5914  -5.5838  -5.4998  -5.4994  -5.2484
    -5.2254  -5.2250  -5.2200  -4.9189  -4.9189  -4.5807  -4.5473  -4.5165
    -4.5136  -4.5136  -4.4112  -4.4110  -4.1710  -4.1708  -4.1654  -4.1650
    -3.8644  -3.8643  -3.8551  -3.8335  -3.6993  -3.6578  -3.5092  -3.5088
    -3.4822  -3.4818  -3.3747  -3.3623  -3.3619  -3.1280  -3.1277  -3.1178
    -3.0960  -2.8297  -2.7285  -2.7284  -2.6700  -2.6698  -2.6365  -2.6363
    -2.4987  -2.4343  -2.4341  -2.4229  -2.1298  -2.0800  -2.0798  -2.0172
    -2.0172  -1.9943  -1.9941  -1.7957  -1.7490  -1.6819  -1.5766  -1.5763
    -1.4164  -1.2959  -1.2958  -1.2545  -1.1991  -1.1989  -1.1574  -1.1572
    -1.0694  -1.0690  -1.0496  -0.8857  -0.8853  -0.5788  -0.5788  -0.5355
    -0.5354  -0.5219  -0.5218  -0.2619  -0.2617  -0.1902  -0.1901  -0.1152
    -0.0830  -0.0828  -0.0363   0.0520   0.0521   0.1856   0.1858   0.2047
     0.3857   0.4778   0.4780   0.5897   0.6261   0.6263   0.9109   0.9451

          k =-0.2500-0.1443 0.0000 (236890 PWs)   bands (ev):

   -11.2923 -10.5902 -10.5433 -10.1703 -10.1703  -9.8441  -9.4739  -9.4726
    -9.4726  -9.4273  -9.4271  -9.0571  -8.7326  -8.7325  -8.7324  -8.3640
    -8.3633  -8.3632  -7.9575  -7.9528  -7.9526  -7.6281  -7.6280  -7.2646
    -7.2644  -7.2621  -7.2214  -6.8575  -6.8574  -6.8573  -6.8552  -6.8552
    -6.1755  -6.1749  -6.1748  -6.1713  -6.1710  -6.1330  -6.1328  -6.1268
    -6.1267  -6.0510  -5.7710  -5.7707  -5.7648  -5.4568  -5.4566  -5.3168
    -5.0970  -5.0956  -5.0953  -5.0931  -5.0931  -4.9528  -4.9527  -4.7000
    -4.6996  -4.6885  -4.6883  -4.3954  -4.3951  -4.2328  -4.2327  -4.0412
    -4.0407  -4.0318  -4.0315  -4.0096  -4.0030  -3.8795  -3.6828  -3.6438
    -3.6437  -3.3065  -3.2968  -3.1848  -3.1845  -2.9565  -2.9564  -2.9451
    -2.9447  -2.8426  -2.8424  -2.6514  -2.6512  -2.6064  -2.6060  -2.6004
    -2.5998  -2.2638  -2.2636  -2.2516  -2.2513  -2.2145  -2.1222  -2.1218
    -1.9323  -1.5915  -1.5591  -1.5590  -1.5036  -1.4968  -1.4964  -1.3745
    -1.3740  -1.2314  -1.2312  -1.0784  -1.0780  -0.9774  -0.9773  -0.8982
    -0.8744  -0.8740  -0.7100  -0.7093  -0.6694  -0.6480  -0.6477  -0.5621
    -0.5620  -0.5018  -0.3809  -0.3808  -0.0330  -0.0328  -0.0178  -0.0174
     0.0427   0.0430   0.2002   0.2458   0.2533   0.2534   0.4080   0.4083
     0.4601   0.4606   0.5363   0.5366   0.6043   0.6046   0.7411   0.7412

          k =-0.2500-0.7217 0.0000 (236847 PWs)   bands (ev):

   -11.1047 -10.7302 -10.7301 -10.4033 -10.0303 -10.0302  -9.6126  -9.6125
    -9.2882  -8.9174  -8.9174  -8.9172  -8.9171  -8.8725  -8.5040  -8.5038
    -8.1802  -7.8133  -7.8132  -7.8115  -7.8114  -7.7730  -7.7696  -7.7694
    -7.4050  -7.4049  -7.4041  -7.4039  -7.0823  -7.0821  -7.0796  -6.7188
    -6.7186  -6.7156  -6.7154  -6.3083  -6.3082  -5.9908  -5.9907  -5.8667
    -5.6317  -5.6314  -5.5916  -5.5912  -5.5840  -5.4996  -5.4996  -5.2480
    -5.2254  -5.2253  -5.2196  -4.9191  -4.9187  -4.5804  -4.5468  -4.5170
    -4.5135  -4.5133  -4.4111  -4.4110  -4.1711  -4.1708  -4.1657  -4.1655
    -3.8645  -3.8641  -3.8555  -3.8335  -3.6994  -3.6574  -3.5095  -3.5093
    -3.4820  -3.4819  -3.3744  -3.3623  -3.3622  -3.1284  -3.1280  -3.1177
    -3.0958  -2.8301  -2.7284  -2.7283  -2.6702  -2.6699  -2.6368  -2.6365
    -2.4986  -2.4341  -2.4340  -2.4227  -2.1295  -2.0803  -2.0799  -2.0167
    -2.0165  -1.9946  -1.9942  -1.7956  -1.7491  -1.6814  -1.5768  -1.5764
    -1.4164  -1.2954  -1.2952  -1.2544  -1.1996  -1.1991  -1.1577  -1.1573
    -1.0692  -1.0692  -1.0498  -0.8860  -0.8857  -0.5786  -0.5785  -0.5360
    -0.5353  -0.5219  -0.5217  -0.2620  -0.2617  -0.1897  -0.1895  -0.1148
    -0.0829  -0.0828  -0.0359   0.0522   0.0526   0.1851   0.1856   0.2048
     0.3856   0.4773   0.4780   0.5899   0.6263   0.6265   0.9106   0.9450

          k = 0.5000 0.2887 0.0000 (236880 PWs)   bands (ev):

   -11.0109 -11.0109 -10.3099 -10.3099 -10.2634 -10.2634  -9.5654  -9.5654
    -9.1954  -9.1954  -8.7803  -8.7803  -8.7801  -8.7801  -8.4554  -8.4554
    -8.0884  -8.0884  -8.0882  -8.0882  -8.0444  -8.0444  -7.6809  -7.6809
    -7.3559  -7.3559  -6.9885  -6.9885  -6.9883  -6.9883  -6.9466  -6.9466
    -6.5852  -6.5852  -6.5850  -6.5850  -6.2622  -6.2622  -5.9047  -5.9047
    -5.9045  -5.9045  -5.7748  -5.7748  -5.4941  -5.4941  -5.4940  -5.4940
    -5.0435  -5.0435  -4.8293  -4.8293  -4.8291  -4.8291  -4.7809  -4.7809
    -4.4449  -4.4449  -4.4136  -4.4136  -3.7884  -3.7884  -3.7456  -3.7456
    -3.7417  -3.7417  -3.7379  -3.7379  -3.7374  -3.7374  -3.6137  -3.6137
    -3.6135  -3.6135  -3.4201  -3.4201  -3.4198  -3.4198  -3.0437  -3.0437
    -3.0328  -3.0328  -3.0323  -3.0323  -2.9875  -2.9875  -2.8780  -2.8780
    -2.5951  -2.5951  -2.2788  -2.2788  -1.9537  -1.9537  -1.9532  -1.9532
    -1.6748  -1.6748  -1.6746  -1.6746  -1.6472  -1.6472  -1.5535  -1.5535
    -1.4201  -1.4201  -1.3292  -1.3292  -1.2557  -1.2557  -1.2554  -1.2554
    -0.9781  -0.9781  -0.9720  -0.9720  -0.8337  -0.8337  -0.6430  -0.6430
    -0.4460  -0.4460  -0.4240  -0.4240  -0.4235  -0.4235  -0.2432  -0.2432
    -0.2427  -0.2427   0.2518   0.2518   0.4558   0.4558   0.4562   0.4562
     0.4821   0.4821   0.4822   0.4822   0.9628   0.9656   0.9800   0.9801

     the Fermi energy is    -0.5252 ev

!    total energy              =   -3159.35036618 Ry
     total all-electron energy =    -38850.772893 Ry
     estimated scf accuracy    <          1.0E-10 Ry
     smearing contrib. (-TS)   =      -0.00932287 Ry
     internal energy E=F+TS    =   -3159.34104330 Ry

     The total energy is F=E-TS. E is the sum of the following terms:
     one-electron contribution =  -10709.37363243 Ry
     hartree contribution      =    5407.32052511 Ry
     xc contribution           =    -204.33115691 Ry
     ewald contribution        =    5121.30819203 Ry
     one-center paw contrib.   =   -2774.26497110 Ry

     convergence has been achieved in  18 iterations

     negative rho (up, down):  3.539E-05 0.000E+00

     Forces acting on atoms (cartesian axes, Ry/au):

     atom    1 type  1   force =    -0.00000128   -0.00002784   -0.00265208
     atom    2 type  1   force =    -0.00000128   -0.00002784   -0.00265208
     atom    3 type  1   force =    -0.00000127   -0.00002784   -0.00265208
     atom    4 type  1   force =    -0.00000128   -0.00002784   -0.00265208
     atom    5 type  1   force =    -0.00000128   -0.00000083   -0.00265068
     atom    6 type  1   force =    -0.00000127   -0.00000083   -0.00265067
     atom    7 type  1   force =    -0.00000128   -0.00000083   -0.00265067
     atom    8 type  1   force =    -0.00000128   -0.00000083   -0.00265067
     atom    9 type  1   force =    -0.00000128   -0.00000082   -0.00265021
     atom   10 type  1   force =    -0.00000128   -0.00000082   -0.00265020
     atom   11 type  1   force =    -0.00000128   -0.00000082   -0.00265019
     atom   12 type  1   force =    -0.00000128   -0.00000082   -0.00265020
     atom   13 type  1   force =    -0.00000128    0.00003041   -0.00263797
     atom   14 type  1   force =    -0.00000128    0.00003041   -0.00263797
     atom   15 type  1   force =    -0.00000127    0.00003041   -0.00263797
     atom   16 type  1   force =    -0.00000128    0.00003041   -0.00263798
     atom   17 type  1   force =     0.00000027   -0.00003794    0.00245806
     atom   18 type  1   force =     0.00000026   -0.00003793    0.00245805
     atom   19 type  1   force =     0.00000026   -0.00003793    0.00245806
     atom   20 type  1   force =     0.00000026   -0.00003793    0.00245806
     atom   21 type  1   force =     0.00000026    0.00000026    0.00246062
     atom   22 type  1   force =     0.00000026    0.00000026    0.00246063
     atom   23 type  1   force =     0.00000026    0.00000027    0.00246066
     atom   24 type  1   force =     0.00000027    0.00000027    0.00246064
     atom   25 type  1   force =     0.00000027   -0.00000071    0.00246010
     atom   26 type  1   force =     0.00000027   -0.00000070    0.00246013
     atom   27 type  1   force =     0.00000026   -0.00000070    0.00246013
     atom   28 type  1   force =     0.00000026   -0.00000070    0.00246010
     atom   29 type  1   force =     0.00000027    0.00002991    0.00246125
     atom   30 type  1   force =     0.00000026    0.00002991    0.00246126
     atom   31 type  1   force =     0.00000026    0.00002991    0.00246125
     atom   32 type  1   force =     0.00000026    0.00002991    0.00246124
     atom   33 type  1   force =     0.00000316   -0.00001726   -0.00040274
     atom   34 type  1   force =     0.00000320   -0.00001722   -0.00040272
     atom   35 type  1   force =     0.00000318   -0.00001718   -0.00040273
     atom   36 type  1   force =     0.00000314   -0.00001722   -0.00040273
     atom   37 type  1   force =     0.00000322   -0.00000294   -0.00040619
     atom   38 type  1   force =     0.00000322   -0.00000292   -0.00040619
     atom   39 type  1   force =     0.00000312   -0.00000293   -0.00040620
     atom   40 type  1   force =     0.00000311   -0.00000295   -0.00040621
     atom   41 type  1   force =     0.00000324    0.00000581   -0.00040458
     atom   42 type  1   force =     0.00000317    0.00000580   -0.00040457
     atom   43 type  1   force =     0.00000310    0.00000581   -0.00040458
     atom   44 type  1   force =     0.00000317    0.00000583   -0.00040459
     atom   45 type  1   force =     0.00000319    0.00002187   -0.00041118
     atom   46 type  1   force =     0.00000315    0.00002186   -0.00041116
     atom   47 type  1   force =     0.00000315    0.00002192   -0.00041116
     atom   48 type  1   force =     0.00000319    0.00002192   -0.00041117
     atom   49 type  1   force =    -0.00000292   -0.00001655   -0.00107257
     atom   50 type  1   force =    -0.00000286   -0.00001655   -0.00107256
     atom   51 type  1   force =    -0.00000286   -0.00001652   -0.00107256
     atom   52 type  1   force =    -0.00000292   -0.00001652   -0.00107258
     atom   53 type  1   force =    -0.00000289   -0.00000449   -0.00107160
     atom   54 type  1   force =    -0.00000283   -0.00000449   -0.00107162
     atom   55 type  1   force =    -0.00000289   -0.00000449   -0.00107163
     atom   56 type  1   force =    -0.00000294   -0.00000448   -0.00107161
     atom   57 type  1   force =    -0.00000286    0.00000365   -0.00107212
     atom   58 type  1   force =    -0.00000286    0.00000362   -0.00107214
     atom   59 type  1   force =    -0.00000292    0.00000363   -0.00107213
     atom   60 type  1   force =    -0.00000292    0.00000366   -0.00107211
     atom   61 type  1   force =    -0.00000288    0.00001903   -0.00107419
     atom   62 type  1   force =    -0.00000288    0.00001899   -0.00107418
     atom   63 type  1   force =    -0.00000288    0.00001902   -0.00107417
     atom   64 type  1   force =    -0.00000290    0.00001906   -0.00107418
     atom   65 type  1   force =     0.00000073   -0.00001833    0.00166237
     atom   66 type  1   force =     0.00000075   -0.00001834    0.00166235
     atom   67 type  1   force =     0.00000073   -0.00001832    0.00166235
     atom   68 type  1   force =     0.00000072   -0.00001831    0.00166236
     atom   69 type  1   force =     0.00000074   -0.00000335    0.00166693
     atom   70 type  1   force =     0.00000075   -0.00000335    0.00166691
     atom   71 type  1   force =     0.00000073   -0.00000334    0.00166689
     atom   72 type  1   force =     0.00000071   -0.00000334    0.00166691
     atom   73 type  1   force =     0.00000074    0.00000315    0.00166929
     atom   74 type  1   force =     0.00000076    0.00000315    0.00166925
     atom   75 type  1   force =     0.00000072    0.00000316    0.00166925
     atom   76 type  1   force =     0.00000071    0.00000316    0.00166928
     atom   77 type  1   force =     0.00000075    0.00001685    0.00166750
     atom   78 type  1   force =     0.00000075    0.00001685    0.00166748
     atom   79 type  1   force =     0.00000072    0.00001686    0.00166749
     atom   80 type  1   force =     0.00000072    0.00001688    0.00166751

     Total force =     0.008093     Total SCF correction =     0.000012


     Computing stress (Cartesian axis) and pressure


     negative rho (up, down):  3.539E-05 0.000E+00
          total   stress  (Ry/bohr**3)                   (kbar)     P=       -5.76
  -0.00006469   0.00000000   0.00000000           -9.52        0.00        0.00
   0.00000000  -0.00006472   0.00000000            0.00       -9.52        0.00
   0.00000000   0.00000000   0.00001190            0.00        0.00        1.75

     Energy error            =      2.1E-04 Ry
     Gradient error          =      1.7E-03 Ry/Bohr

     number of scf cycles    =   4
     number of bfgs steps    =   3

     energy             old  =   -3159.3501552788 Ry
     energy             new  =   -3159.3503661753 Ry

     CASE: energy            _new < energy            _old

     new trust radius        =       0.0065379900 bohr
     new conv_thr            =       0.0000000002 Ry


ATOMIC_POSITIONS (angstrom)
Al              11.4551572755        1.6534343352       14.9998275960    0   0   0
Al               2.8638322755        1.6534343352       14.9998275960    0   0   0
Al               5.7276072755        1.6534343352       14.9998275960    0   0   0
Al               8.5913822755        1.6534343352       14.9998275960    0   0   0
Al              12.8870447755        4.1335362359       14.9998275960    0   0   0
Al               4.2957197755        4.1335362359       14.9998275960    0   0   0
Al               7.1594947755        4.1335362359       14.9998275960    0   0   0
Al              10.0232697755        4.1335362359       14.9998275960    0   0   0
Al              14.3189322755        6.6136381366       14.9998275960    0   0   0
Al               5.7276072755        6.6136381366       14.9998275960    0   0   0
Al               8.5913822755        6.6136381366       14.9998275960    0   0   0
Al              11.4551572755        6.6136381366       14.9998275960    0   0   0
Al              15.7508197755        9.0937400373       14.9998275960    0   0   0
Al               7.1594947755        9.0937400373       14.9998275960    0   0   0
Al              10.0232697755        9.0937400373       14.9998275960    0   0   0
Al              12.8870447755        9.0937400373       14.9998275960    0   0   0
Al               0.0000000000        0.0000000000       17.3381887980    0   0   0
Al               2.8637750000        0.0000000000       17.3381887980    0   0   0
Al               5.7275500000        0.0000000000       17.3381887980    0   0   0
Al               8.5913250000        0.0000000000       17.3381887980    0   0   0
Al               1.4318875000        2.4801019007       17.3381887980    0   0   0
Al               4.2956625000        2.4801019007       17.3381887980    0   0   0
Al               7.1594375000        2.4801019007       17.3381887980    0   0   0
Al              10.0232125000        2.4801019007       17.3381887980    0   0   0
Al               2.8637750000        4.9602038014       17.3381887980    0   0   0
Al               5.7275500000        4.9602038014       17.3381887980    0   0   0
Al               8.5913250000        4.9602038014       17.3381887980    0   0   0
Al              11.4551000000        4.9602038014       17.3381887980    0   0   0
Al               4.2956625000        7.4403057022       17.3381887980    0   0   0
Al               7.1594375000        7.4403057022       17.3381887980    0   0   0
Al              10.0232125000        7.4403057022       17.3381887980    0   0   0
Al              12.8869875000        7.4403057022       17.3381887980    0   0   0
Al               1.4318439823        0.8265609030       19.6757055521
Al               4.2956187116        0.8265606789       19.6757055004
Al               7.1593938335        0.8265605338       19.6757055816
Al              10.0231690616        0.8265607217       19.6757056005
Al               2.8637312006        3.3067672942       19.6756741770
Al               5.7275061674        3.3067672559       19.6756743081
Al               8.5912816428        3.3067672969       19.6756743424
Al              11.4550567040        3.3067673843       19.6756742492
Al               4.2956186120        5.7868886245       19.6756879634
Al               7.1593939215        5.7868887481       19.6756880341
Al              10.0231691843        5.7868886599       19.6756879506
Al              12.8869438697        5.7868885116       19.6756878874
Al               5.7275063914        8.2670972193       19.6756504813
Al               8.5912815048        8.2670972431       19.6756503750
Al              11.4550564471        8.2670969503       19.6756503120
Al              14.3188313112        8.2670969379       19.6756503789
Al              11.4551448436        1.6533361192       22.0077634638
Al               2.8638195080        1.6533361237       22.0077633857
Al               5.7275944723        1.6533359312       22.0077634587
Al               8.5913698263        1.6533359588       22.0077635366
Al              12.8870321465        4.1335271606       22.0077677984
Al               4.2957068310        4.1335271661       22.0077678917
Al               7.1594821662        4.1335271482       22.0077680085
Al              10.0232574465        4.1335271685       22.0077679232
Al              14.3189195014        6.6136372629       22.0077688804
Al               5.7275945179        6.6136374299       22.0077689605
Al               8.5913698168        6.6136374599       22.0077689445
Al              11.4551448201        6.6136372543       22.0077688161
Al              15.7508071420        9.0938543428       22.0077581661
Al               7.1594821509        9.0938545677       22.0077581185
Al              10.0232571094        9.0938543752       22.0077580558
Al              12.8870321790        9.0938541852       22.0077580895
Al               0.0000033917       -0.0000994489       24.3619329782
Al               2.8637782360       -0.0000994199       24.3619330048
Al               5.7275533167       -0.0000995521       24.3619330543
Al               8.5913284207       -0.0000995770       24.3619330673
Al               1.4318908403        2.4800967202       24.3619672076
Al               4.2956656678        2.4800967228       24.3619672841
Al               7.1594408557        2.4800966118       24.3619674647
Al              10.0232160201        2.4800966793       24.3619673042
Al               2.8637782424        4.9602112913       24.3619731559
Al               5.7275531687        4.9602113131       24.3619733122
Al               8.5913284469        4.9602113111       24.3619733670
Al              11.4551035029        4.9602112502       24.3619732207
Al               4.2956657558        7.4403959118       24.3619715644
Al               7.1594407641        7.4403959790       24.3619716044
Al              10.0232158951        7.4403958947       24.3619715493
Al              12.8869908653        7.4403957540       24.3619715181



     Writing config-only to output data dir ./tmp/al111_4x4.save/ :
     XML data file
     NEW-OLD atomic charge density approx. for the potential

     negative rho (up, down):  3.668E-05 0.000E+00

     total cpu time spent up to now is    11512.5 secs

     Self-consistent Calculation

     iteration #  1     ecut=    60.00 Ry     beta= 0.30
     Davidson diagonalization with overlap
     ethr =  1.00E-06,  avg # of iterations =  2.0

     Threshold (ethr) on eigenvalues was too large:
     Diagonalizing with lowered threshold

     Davidson diagonalization with overlap
     ethr =  7.77E-08,  avg # of iterations =  5.7

     negative rho (up, down):  3.605E-05 0.000E+00

     total cpu time spent up to now is    11823.5 secs

     total energy              =   -3159.35047520 Ry
     estimated scf accuracy    <       0.00023667 Ry

     iteration #  2     ecut=    60.00 Ry     beta= 0.30
     Davidson diagonalization with overlap
     ethr =  9.86E-08,  avg # of iterations =  7.9

     negative rho (up, down):  3.577E-05 0.000E+00

     total cpu time spent up to now is    11994.7 secs

     total energy              =   -3159.34990039 Ry
     estimated scf accuracy    <       0.03442855 Ry

     iteration #  3     ecut=    60.00 Ry     beta= 0.30
     Davidson diagonalization with overlap
     ethr =  9.86E-08,  avg # of iterations =  6.9

     negative rho (up, down):  3.565E-05 0.000E+00

     total cpu time spent up to now is    12154.0 secs

     total energy              =   -3159.35054800 Ry
     estimated scf accuracy    <       0.00021598 Ry

     iteration #  4     ecut=    60.00 Ry     beta= 0.30
     Davidson diagonalization with overlap
     ethr =  9.00E-08,  avg # of iterations =  2.0

     negative rho (up, down):  3.555E-05 0.000E+00

     total cpu time spent up to now is    12291.4 secs

     total energy              =   -3159.35056752 Ry
     estimated scf accuracy    <       0.00005360 Ry

     iteration #  5     ecut=    60.00 Ry     beta= 0.30
     Davidson diagonalization with overlap
     ethr =  2.23E-08,  avg # of iterations =  1.8

     negative rho (up, down):  3.549E-05 0.000E+00

     total cpu time spent up to now is    12413.6 secs

     total energy              =   -3159.35056945 Ry
     estimated scf accuracy    <       0.00000579 Ry

     iteration #  6     ecut=    60.00 Ry     beta= 0.30
     Davidson diagonalization with overlap
     ethr =  2.41E-09,  avg # of iterations =  5.0

     negative rho (up, down):  3.546E-05 0.000E+00

     total cpu time spent up to now is    12569.6 secs

     total energy              =   -3159.35057046 Ry
     estimated scf accuracy    <       0.00000100 Ry

     iteration #  7     ecut=    60.00 Ry     beta= 0.30
     Davidson diagonalization with overlap
     ethr =  4.17E-10,  avg # of iterations =  4.4

     negative rho (up, down):  3.545E-05 0.000E+00

     total cpu time spent up to now is    12717.5 secs

     total energy              =   -3159.35057045 Ry
     estimated scf accuracy    <       0.00000064 Ry

     iteration #  8     ecut=    60.00 Ry     beta= 0.30
     Davidson diagonalization with overlap
     ethr =  2.67E-10,  avg # of iterations =  4.3

     negative rho (up, down):  3.544E-05 0.000E+00

     total cpu time spent up to now is    12871.7 secs

     total energy              =   -3159.35057059 Ry
     estimated scf accuracy    <       0.00000063 Ry

     iteration #  9     ecut=    60.00 Ry     beta= 0.30
     Davidson diagonalization with overlap
     ethr =  2.61E-10,  avg # of iterations =  1.0

     negative rho (up, down):  3.544E-05 0.000E+00

     total cpu time spent up to now is    12988.5 secs

     total energy              =   -3159.35057045 Ry
     estimated scf accuracy    <       0.00000034 Ry

     iteration # 10     ecut=    60.00 Ry     beta= 0.30
     Davidson diagonalization with overlap
     ethr =  1.42E-10,  avg # of iterations =  4.7

     negative rho (up, down):  3.544E-05 0.000E+00

     total cpu time spent up to now is    13148.0 secs

     total energy              =   -3159.35057050 Ry
     estimated scf accuracy    <       0.00000093 Ry

     iteration # 11     ecut=    60.00 Ry     beta= 0.30
     Davidson diagonalization with overlap
     ethr =  1.42E-10,  avg # of iterations =  2.0

     negative rho (up, down):  3.544E-05 0.000E+00

     total cpu time spent up to now is    13281.2 secs

     total energy              =   -3159.35057053 Ry
     estimated scf accuracy    <       0.00000006 Ry

     iteration # 12     ecut=    60.00 Ry     beta= 0.30
     Davidson diagonalization with overlap
     ethr =  2.45E-11,  avg # of iterations =  5.0

     negative rho (up, down):  3.544E-05 0.000E+00

     total cpu time spent up to now is    13454.4 secs

     total energy              =   -3159.35057055 Ry
     estimated scf accuracy    <       0.00000006 Ry

     iteration # 13     ecut=    60.00 Ry     beta= 0.30
     Davidson diagonalization with overlap
     ethr =  2.45E-11,  avg # of iterations =  1.0

     negative rho (up, down):  3.544E-05 0.000E+00

     total cpu time spent up to now is    13569.9 secs

     total energy              =   -3159.35057055 Ry
     estimated scf accuracy    <       0.00000003 Ry

     iteration # 14     ecut=    60.00 Ry     beta= 0.30
     Davidson diagonalization with overlap
     ethr =  1.12E-11,  avg # of iterations =  2.0

     negative rho (up, down):  3.543E-05 0.000E+00

     total cpu time spent up to now is    13701.3 secs

     total energy              =   -3159.35057056 Ry
     estimated scf accuracy    <          3.7E-10 Ry

     iteration # 15     ecut=    60.00 Ry     beta= 0.30
     Davidson diagonalization with overlap
     ethr =  1.55E-13,  avg # of iterations =  9.4

     negative rho (up, down):  3.543E-05 0.000E+00

     total cpu time spent up to now is    13937.5 secs

     total energy              =   -3159.35057055 Ry
     estimated scf accuracy    <          9.2E-09 Ry

     iteration # 16     ecut=    60.00 Ry     beta= 0.30
     Davidson diagonalization with overlap
     ethr =  1.55E-13,  avg # of iterations =  4.9

     negative rho (up, down):  3.543E-05 0.000E+00

     total cpu time spent up to now is    14107.3 secs

     total energy              =   -3159.35057055 Ry
     estimated scf accuracy    <          8.3E-10 Ry

     iteration # 17     ecut=    60.00 Ry     beta= 0.30
     Davidson diagonalization with overlap
     ethr =  1.55E-13,  avg # of iterations =  2.0

     negative rho (up, down):  3.543E-05 0.000E+00

     total cpu time spent up to now is    14241.5 secs

     End of self-consistent calculation

          k = 0.0000 0.0000 0.0000 (237007 PWs)   bands (ev):

   -11.3856 -10.6783  -9.8907  -9.8907  -9.8907  -9.8906  -9.8904  -9.8904
    -9.5638  -9.1894  -9.1894  -9.1894  -9.1892  -9.1890  -9.1890  -8.0840
    -8.0840  -8.0840  -8.0839  -8.0837  -8.0837  -8.0520  -6.9477  -6.9477
    -6.9476  -6.9476  -6.9474  -6.9474  -6.5837  -6.5837  -6.5837  -6.5835
    -6.5833  -6.5833  -6.2597  -6.2597  -6.2596  -6.2596  -6.2594  -6.2594
    -6.1441  -5.5167  -5.5164  -5.5163  -5.4896  -5.4892  -5.4891  -5.1785
    -5.1785  -5.1784  -5.1784  -5.1782  -5.1782  -4.8409  -4.8406  -4.8405
    -4.8123  -4.8118  -4.8118  -4.6824  -4.6824  -4.6824  -4.6822  -4.6820
    -4.6820  -4.0982  -3.9170  -3.9167  -3.9167  -3.7241  -3.7241  -3.7240
    -3.7240  -3.7238  -3.7238  -3.6369  -3.6366  -3.6365  -2.6961  -2.6961
    -2.6961  -2.6959  -2.6957  -2.6957  -2.3914  -2.3911  -2.3911  -2.0119
    -2.0119  -2.0118  -2.0118  -2.0117  -2.0117  -1.9441  -1.9437  -1.9436
    -1.6801  -1.3219  -1.3219  -1.3218  -1.3218  -1.3217  -1.3217  -1.1991
    -1.1991  -1.1991  -1.1991  -1.1990  -1.1990  -0.6480  -0.6480  -0.6479
    -0.6479  -0.6477  -0.6477  -0.3363  -0.3363  -0.3363  -0.3363  -0.3361
    -0.3361  -0.3303  -0.3303  -0.3303  -0.3302  -0.3300  -0.3300  -0.3262
    -0.3258  -0.3257  -0.2606  -0.2602  -0.2602   0.2836   0.2836   0.2837
     0.2837   0.2838   0.2838   0.3875   0.3875   0.3876   0.3876   0.3877

          k = 0.0000 0.2887 0.0000 (236896 PWs)   bands (ev):

   -11.2917 -10.5848 -10.5428 -10.1697 -10.1697  -9.8388  -9.4708  -9.4672
    -9.4672  -9.4266  -9.4266  -9.0567  -8.7293  -8.7272  -8.7272  -8.3600
    -8.3600  -8.3588  -7.9596  -7.9522  -7.9522  -7.6249  -7.6249  -7.2592
    -7.2592  -7.2591  -7.2236  -6.8573  -6.8573  -6.8572  -6.8565  -6.8565
    -6.1703  -6.1691  -6.1691  -6.1680  -6.1680  -6.1321  -6.1321  -6.1288
    -6.1288  -6.0518  -5.7705  -5.7705  -5.7671  -5.4510  -5.4510  -5.3176
    -5.0941  -5.0902  -5.0902  -5.0896  -5.0895  -4.9535  -4.9535  -4.6992
    -4.6992  -4.6905  -4.6905  -4.3915  -4.3915  -4.2335  -4.2335  -4.0355
    -4.0355  -4.0285  -4.0285  -4.0101  -4.0027  -3.8804  -3.6844  -3.6453
    -3.6453  -3.3071  -3.2926  -3.1835  -3.1834  -2.9569  -2.9569  -2.9444
    -2.9444  -2.8431  -2.8431  -2.6528  -2.6528  -2.6060  -2.6059  -2.6000
    -2.5999  -2.2642  -2.2642  -2.2470  -2.2470  -2.2124  -2.1184  -2.1183
    -1.9329  -1.5922  -1.5584  -1.5584  -1.5042  -1.4947  -1.4947  -1.3762
    -1.3761  -1.2289  -1.2289  -1.0778  -1.0778  -0.9727  -0.9727  -0.8989
    -0.8747  -0.8747  -0.7068  -0.7067  -0.6720  -0.6473  -0.6472  -0.5626
    -0.5626  -0.5021  -0.3793  -0.3792  -0.0332  -0.0332  -0.0122  -0.0122
     0.0436   0.0436   0.2039   0.2452   0.2533   0.2533   0.4084   0.4085
     0.4601   0.4601   0.5362   0.5362   0.6034   0.6034   0.7415   0.7415

          k = 0.0000-0.5773 0.0000 (236880 PWs)   bands (ev):

   -11.0106 -11.0102 -10.3048 -10.3044 -10.2628 -10.2628  -9.5600  -9.5600
    -9.1924  -9.1921  -8.7797  -8.7797  -8.7796  -8.7796  -8.4522  -8.4522
    -8.0830  -8.0830  -8.0828  -8.0828  -8.0441  -8.0440  -7.6832  -7.6829
    -7.3507  -7.3507  -6.9853  -6.9853  -6.9851  -6.9851  -6.9487  -6.9487
    -6.5845  -6.5845  -6.5841  -6.5841  -6.2592  -6.2591  -5.8991  -5.8991
    -5.8987  -5.8987  -5.7757  -5.7754  -5.4962  -5.4962  -5.4961  -5.4961
    -5.0442  -5.0442  -4.8258  -4.8258  -4.8255  -4.8254  -4.7831  -4.7831
    -4.4446  -4.4446  -4.4134  -4.4134  -3.7840  -3.7840  -3.7463  -3.7460
    -3.7369  -3.7369  -3.7368  -3.7368  -3.7359  -3.7359  -3.6144  -3.6144
    -3.6143  -3.6143  -3.4212  -3.4212  -3.4210  -3.4208  -3.0442  -3.0442
    -3.0279  -3.0279  -3.0278  -3.0278  -2.9881  -2.9881  -2.8745  -2.8745
    -2.5927  -2.5927  -2.2786  -2.2785  -1.9509  -1.9509  -1.9508  -1.9507
    -1.6752  -1.6752  -1.6751  -1.6751  -1.6459  -1.6459  -1.5497  -1.5496
    -1.4215  -1.4215  -1.3301  -1.3298  -1.2556  -1.2556  -1.2553  -1.2553
    -0.9759  -0.9759  -0.9712  -0.9712  -0.8339  -0.8339  -0.6435  -0.6435
    -0.4436  -0.4435  -0.4257  -0.4257  -0.4256  -0.4256  -0.2423  -0.2423
    -0.2422  -0.2422   0.2539   0.2539   0.4605   0.4605   0.4606   0.4606
     0.4819   0.4819   0.4822   0.4822   0.9600   0.9610   0.9789   0.9789

          k = 0.2500-0.1443 0.0000 (236890 PWs)   bands (ev):

   -11.2917 -10.5848 -10.5427 -10.1698 -10.1697  -9.8387  -9.4708  -9.4673
    -9.4672  -9.4267  -9.4266  -9.0565  -8.7293  -8.7272  -8.7271  -8.3601
    -8.3601  -8.3586  -7.9596  -7.9523  -7.9520  -7.6250  -7.6248  -7.2592
    -7.2590  -7.2589  -7.2235  -6.8574  -6.8573  -6.8569  -6.8568  -6.8567
    -6.1700  -6.1694  -6.1693  -6.1680  -6.1678  -6.1325  -6.1322  -6.1289
    -6.1288  -6.0518  -5.7705  -5.7702  -5.7669  -5.4514  -5.4511  -5.3176
    -5.0938  -5.0901  -5.0899  -5.0898  -5.0898  -4.9536  -4.9535  -4.6995
    -4.6991  -4.6906  -4.6904  -4.3919  -4.3916  -4.2336  -4.2334  -4.0359
    -4.0354  -4.0285  -4.0282  -4.0101  -4.0023  -3.8803  -3.6841  -3.6456
    -3.6455  -3.3071  -3.2922  -3.1838  -3.1834  -2.9570  -2.9570  -2.9443
    -2.9439  -2.8432  -2.8430  -2.6526  -2.6524  -2.6064  -2.6059  -2.6003
    -2.5997  -2.2643  -2.2641  -2.2468  -2.2465  -2.2120  -2.1186  -2.1182
    -1.9327  -1.5922  -1.5590  -1.5588  -1.5038  -1.4951  -1.4946  -1.3766
    -1.3761  -1.2289  -1.2287  -1.0781  -1.0778  -0.9729  -0.9728  -0.8989
    -0.8751  -0.8747  -0.7071  -0.7065  -0.6716  -0.6478  -0.6474  -0.5627
    -0.5626  -0.5016  -0.3793  -0.3792  -0.0334  -0.0332  -0.0129  -0.0125
     0.0434   0.0437   0.2045   0.2455   0.2533   0.2533   0.4082   0.4085
     0.4597   0.4601   0.5365   0.5368   0.6033   0.6036   0.7413   0.7414

          k = 0.2500-0.7217 0.0000 (236847 PWs)   bands (ev):

   -11.1041 -10.7296 -10.7296 -10.3979 -10.0249 -10.0249  -9.6121  -9.6120
    -9.2850  -8.9143  -8.9142  -8.9118  -8.9117  -8.8719  -8.5034  -8.5033
    -8.1748  -7.8083  -7.8082  -7.8079  -7.8077  -7.7752  -7.7690  -7.7689
    -7.4071  -7.4071  -7.4036  -7.4033  -7.0769  -7.0767  -7.0764  -6.7134
    -6.7131  -6.7124  -6.7122  -6.3104  -6.3103  -5.9876  -5.9875  -5.8675
    -5.6285  -5.6282  -5.5911  -5.5907  -5.5861  -5.5004  -5.5003  -5.2475
    -5.2275  -5.2274  -5.2191  -4.9136  -4.9132  -4.5757  -4.5407  -4.5164
    -4.5155  -4.5153  -4.4118  -4.4117  -4.1730  -4.1727  -4.1652  -4.1650
    -3.8610  -3.8606  -3.8501  -3.8341  -3.7001  -3.6537  -3.5043  -3.5040
    -3.4826  -3.4825  -3.3717  -3.3629  -3.3628  -3.1282  -3.1278  -3.1171
    -3.0953  -2.8263  -2.7288  -2.7287  -2.6692  -2.6689  -2.6332  -2.6328
    -2.4941  -2.4347  -2.4346  -2.4167  -2.1316  -2.0802  -2.0798  -2.0159
    -2.0157  -1.9930  -1.9926  -1.7935  -1.7496  -1.6834  -1.5766  -1.5762
    -1.4171  -1.2910  -1.2908  -1.2522  -1.1967  -1.1962  -1.1576  -1.1571
    -1.0699  -1.0699  -1.0502  -0.8877  -0.8874  -0.5784  -0.5783  -0.5311
    -0.5304  -0.5222  -0.5219  -0.2624  -0.2622  -0.1867  -0.1865  -0.1152
    -0.0835  -0.0834  -0.0367   0.0526   0.0531   0.1830   0.1835   0.2028
     0.3852   0.4807   0.4813   0.5878   0.6292   0.6294   0.9098   0.9410

          k =-0.5000 0.2887 0.0000 (236880 PWs)   bands (ev):

   -11.0104 -11.0104 -10.3045 -10.3045 -10.2629 -10.2629  -9.5600  -9.5600
    -9.1922  -9.1922  -8.7797  -8.7797  -8.7795  -8.7795  -8.4523  -8.4523
    -8.0830  -8.0830  -8.0828  -8.0828  -8.0439  -8.0439  -7.6830  -7.6830
    -7.3505  -7.3505  -6.9853  -6.9853  -6.9851  -6.9851  -6.9488  -6.9488
    -6.5846  -6.5846  -6.5845  -6.5845  -6.2589  -6.2589  -5.8992  -5.8992
    -5.8990  -5.8990  -5.7755  -5.7755  -5.4962  -5.4962  -5.4960  -5.4960
    -5.0443  -5.0443  -4.8260  -4.8260  -4.8258  -4.8258  -4.7829  -4.7829
    -4.4444  -4.4444  -4.4130  -4.4130  -3.7838  -3.7838  -3.7461  -3.7461
    -3.7371  -3.7371  -3.7367  -3.7367  -3.7355  -3.7355  -3.6144  -3.6144
    -3.6142  -3.6142  -3.4214  -3.4214  -3.4211  -3.4211  -3.0443  -3.0443
    -3.0282  -3.0282  -3.0277  -3.0277  -2.9879  -2.9879  -2.8742  -2.8742
    -2.5924  -2.5924  -2.2780  -2.2780  -1.9512  -1.9512  -1.9507  -1.9507
    -1.6752  -1.6752  -1.6750  -1.6750  -1.6464  -1.6464  -1.5491  -1.5491
    -1.4214  -1.4214  -1.3299  -1.3299  -1.2559  -1.2559  -1.2555  -1.2555
    -0.9760  -0.9760  -0.9713  -0.9713  -0.8336  -0.8336  -0.6436  -0.6436
    -0.4430  -0.4430  -0.4260  -0.4260  -0.4255  -0.4255  -0.2430  -0.2430
    -0.2425  -0.2425   0.2536   0.2536   0.4599   0.4599   0.4604   0.4604
     0.4817   0.4817   0.4819   0.4819   0.9606   0.9606   0.9792   0.9792

          k =-0.5000 0.5773 0.0000 (236845 PWs)   bands (ev):

   -11.1041 -10.7298 -10.7294 -10.3979 -10.0251 -10.0247  -9.6122  -9.6120
    -9.2850  -8.9144  -8.9141  -8.9119  -8.9118  -8.8718  -8.5034  -8.5030
    -8.1746  -7.8084  -7.8083  -7.8079  -7.8075  -7.7751  -7.7692  -7.7691
    -7.4073  -7.4069  -7.4035  -7.4033  -7.0770  -7.0770  -7.0762  -6.7133
    -6.7131  -6.7123  -6.7120  -6.3105  -6.3104  -5.9878  -5.9877  -5.8675
    -5.6283  -5.6282  -5.5910  -5.5909  -5.5859  -5.5006  -5.5002  -5.2478
    -5.2275  -5.2271  -5.2195  -4.9135  -4.9135  -4.5760  -4.5411  -4.5160
    -4.5156  -4.5156  -4.4119  -4.4118  -4.1728  -4.1727  -4.1649  -4.1646
    -3.8609  -3.8608  -3.8497  -3.8341  -3.7000  -3.6541  -3.5039  -3.5036
    -3.4827  -3.4824  -3.3720  -3.3629  -3.3626  -3.1278  -3.1277  -3.1173
    -3.0956  -2.8259  -2.7289  -2.7289  -2.6689  -2.6688  -2.6328  -2.6327
    -2.4942  -2.4348  -2.4346  -2.4170  -2.1319  -2.0799  -2.0797  -2.0164
    -2.0164  -1.9927  -1.9925  -1.7935  -1.7494  -1.6838  -1.5763  -1.5761
    -1.4171  -1.2915  -1.2914  -1.2523  -1.1962  -1.1961  -1.1573  -1.1571
    -1.0701  -1.0697  -1.0500  -0.8874  -0.8870  -0.5786  -0.5786  -0.5305
    -0.5305  -0.5221  -0.5220  -0.2623  -0.2622  -0.1872  -0.1871  -0.1156
    -0.0836  -0.0834  -0.0370   0.0525   0.0525   0.1835   0.1837   0.2028
     0.3853   0.4812   0.4813   0.5876   0.6290   0.6292   0.9102   0.9411

          k =-0.2500-0.1443 0.0000 (236890 PWs)   bands (ev):

   -11.2917 -10.5848 -10.5427 -10.1698 -10.1697  -9.8387  -9.4708  -9.4673
    -9.4672  -9.4267  -9.4266  -9.0565  -8.7293  -8.7272  -8.7271  -8.3601
    -8.3601  -8.3586  -7.9596  -7.9523  -7.9520  -7.6250  -7.6248  -7.2592
    -7.2590  -7.2589  -7.2235  -6.8574  -6.8573  -6.8569  -6.8568  -6.8567
    -6.1700  -6.1694  -6.1693  -6.1680  -6.1678  -6.1325  -6.1322  -6.1289
    -6.1288  -6.0518  -5.7705  -5.7702  -5.7669  -5.4514  -5.4511  -5.3176
    -5.0938  -5.0901  -5.0899  -5.0898  -5.0898  -4.9536  -4.9535  -4.6995
    -4.6991  -4.6906  -4.6904  -4.3919  -4.3916  -4.2336  -4.2334  -4.0359
    -4.0354  -4.0285  -4.0282  -4.0101  -4.0023  -3.8803  -3.6841  -3.6456
    -3.6455  -3.3071  -3.2922  -3.1838  -3.1834  -2.9570  -2.9570  -2.9443
    -2.9439  -2.8432  -2.8430  -2.6526  -2.6524  -2.6064  -2.6060  -2.6003
    -2.5997  -2.2643  -2.2641  -2.2468  -2.2465  -2.2120  -2.1186  -2.1182
    -1.9327  -1.5922  -1.5590  -1.5588  -1.5038  -1.4951  -1.4947  -1.3766
    -1.3761  -1.2288  -1.2286  -1.0781  -1.0778  -0.9729  -0.9728  -0.8989
    -0.8751  -0.8747  -0.7071  -0.7065  -0.6716  -0.6478  -0.6474  -0.5627
    -0.5626  -0.5015  -0.3793  -0.3792  -0.0334  -0.0332  -0.0129  -0.0125
     0.0434   0.0437   0.2045   0.2455   0.2533   0.2533   0.4082   0.4085
     0.4597   0.4601   0.5365   0.5369   0.6033   0.6036   0.7413   0.7414

          k =-0.2500-0.7217 0.0000 (236847 PWs)   bands (ev):

   -11.1041 -10.7296 -10.7296 -10.3979 -10.0249 -10.0249  -9.6121  -9.6120
    -9.2850  -8.9143  -8.9142  -8.9118  -8.9117  -8.8719  -8.5034  -8.5033
    -8.1748  -7.8083  -7.8082  -7.8079  -7.8077  -7.7752  -7.7690  -7.7689
    -7.4071  -7.4071  -7.4036  -7.4033  -7.0769  -7.0767  -7.0764  -6.7134
    -6.7131  -6.7124  -6.7122  -6.3104  -6.3103  -5.9876  -5.9875  -5.8675
    -5.6285  -5.6282  -5.5911  -5.5907  -5.5861  -5.5004  -5.5003  -5.2475
    -5.2275  -5.2274  -5.2191  -4.9136  -4.9132  -4.5757  -4.5406  -4.5164
    -4.5155  -4.5153  -4.4118  -4.4117  -4.1730  -4.1727  -4.1652  -4.1650
    -3.8610  -3.8606  -3.8501  -3.8341  -3.7001  -3.6537  -3.5043  -3.5040
    -3.4826  -3.4825  -3.3717  -3.3629  -3.3628  -3.1282  -3.1278  -3.1171
    -3.0953  -2.8263  -2.7288  -2.7287  -2.6692  -2.6689  -2.6332  -2.6328
    -2.4941  -2.4347  -2.4346  -2.4167  -2.1315  -2.0802  -2.0798  -2.0159
    -2.0157  -1.9930  -1.9926  -1.7935  -1.7496  -1.6834  -1.5766  -1.5762
    -1.4171  -1.2910  -1.2908  -1.2522  -1.1967  -1.1962  -1.1576  -1.1572
    -1.0699  -1.0699  -1.0502  -0.8877  -0.8874  -0.5784  -0.5783  -0.5311
    -0.5304  -0.5222  -0.5219  -0.2624  -0.2622  -0.1867  -0.1865  -0.1152
    -0.0835  -0.0834  -0.0367   0.0526   0.0531   0.1830   0.1835   0.2029
     0.3852   0.4807   0.4814   0.5878   0.6292   0.6294   0.9098   0.9410

          k = 0.5000 0.2887 0.0000 (236880 PWs)   bands (ev):

   -11.0104 -11.0104 -10.3045 -10.3045 -10.2629 -10.2629  -9.5600  -9.5600
    -9.1922  -9.1922  -8.7797  -8.7797  -8.7795  -8.7795  -8.4523  -8.4523
    -8.0830  -8.0830  -8.0828  -8.0828  -8.0439  -8.0439  -7.6830  -7.6830
    -7.3505  -7.3505  -6.9853  -6.9853  -6.9851  -6.9851  -6.9488  -6.9488
    -6.5846  -6.5846  -6.5845  -6.5845  -6.2589  -6.2589  -5.8992  -5.8992
    -5.8990  -5.8990  -5.7755  -5.7755  -5.4962  -5.4962  -5.4960  -5.4960
    -5.0443  -5.0443  -4.8260  -4.8260  -4.8258  -4.8258  -4.7829  -4.7829
    -4.4443  -4.4443  -4.4130  -4.4130  -3.7838  -3.7838  -3.7461  -3.7461
    -3.7371  -3.7371  -3.7367  -3.7367  -3.7355  -3.7355  -3.6144  -3.6144
    -3.6142  -3.6142  -3.4214  -3.4214  -3.4211  -3.4211  -3.0443  -3.0443
    -3.0282  -3.0282  -3.0277  -3.0277  -2.9879  -2.9879  -2.8742  -2.8742
    -2.5925  -2.5925  -2.2780  -2.2780  -1.9512  -1.9512  -1.9507  -1.9507
    -1.6752  -1.6752  -1.6750  -1.6750  -1.6464  -1.6464  -1.5491  -1.5491
    -1.4214  -1.4214  -1.3299  -1.3299  -1.2559  -1.2559  -1.2555  -1.2555
    -0.9760  -0.9760  -0.9713  -0.9713  -0.8336  -0.8336  -0.6436  -0.6436
    -0.4430  -0.4430  -0.4260  -0.4260  -0.4255  -0.4255  -0.2430  -0.2430
    -0.2425  -0.2425   0.2536   0.2536   0.4599   0.4599   0.4604   0.4604
     0.4817   0.4817   0.4819   0.4819   0.9607   0.9625   0.9792   0.9792

     the Fermi energy is    -0.5243 ev

!    total energy              =   -3159.35057054 Ry
     total all-electron energy =    -38850.773097 Ry
     estimated scf accuracy    <          1.1E-10 Ry
     smearing contrib. (-TS)   =      -0.00928373 Ry
     internal energy E=F+TS    =   -3159.34128681 Ry

     The total energy is F=E-TS. E is the sum of the following terms:
     one-electron contribution =  -10707.78059018 Ry
     hartree contribution      =    5406.52805098 Ry
     xc contribution           =    -204.31924937 Ry
     ewald contribution        =    5120.49348857 Ry
     one-center paw contrib.   =   -2774.26298681 Ry

     convergence has been achieved in  17 iterations

     negative rho (up, down):  3.543E-05 0.000E+00

     Forces acting on atoms (cartesian axes, Ry/au):

     atom    1 type  1   force =    -0.00000125   -0.00002777   -0.00265747
     atom    2 type  1   force =    -0.00000123   -0.00002776   -0.00265746
     atom    3 type  1   force =    -0.00000126   -0.00002778   -0.00265744
     atom    4 type  1   force =    -0.00000129   -0.00002779   -0.00265746
     atom    5 type  1   force =    -0.00000124   -0.00000099   -0.00265588
     atom    6 type  1   force =    -0.00000126   -0.00000101   -0.00265587
     atom    7 type  1   force =    -0.00000128   -0.00000103   -0.00265587
     atom    8 type  1   force =    -0.00000125   -0.00000101   -0.00265588
     atom    9 type  1   force =    -0.00000127   -0.00000070   -0.00265543
     atom   10 type  1   force =    -0.00000128   -0.00000071   -0.00265545
     atom   11 type  1   force =    -0.00000125   -0.00000069   -0.00265545
     atom   12 type  1   force =    -0.00000124   -0.00000068   -0.00265544
     atom   13 type  1   force =    -0.00000128    0.00003040   -0.00264343
     atom   14 type  1   force =    -0.00000125    0.00003041   -0.00264344
     atom   15 type  1   force =    -0.00000123    0.00003043   -0.00264341
     atom   16 type  1   force =    -0.00000127    0.00003041   -0.00264340
     atom   17 type  1   force =     0.00000034   -0.00003678    0.00240529
     atom   18 type  1   force =     0.00000039   -0.00003677    0.00240527
     atom   19 type  1   force =     0.00000037   -0.00003678    0.00240529
     atom   20 type  1   force =     0.00000031   -0.00003680    0.00240530
     atom   21 type  1   force =     0.00000038   -0.00000103    0.00241143
     atom   22 type  1   force =     0.00000037   -0.00000105    0.00241145
     atom   23 type  1   force =     0.00000033   -0.00000108    0.00241148
     atom   24 type  1   force =     0.00000034   -0.00000105    0.00241146
     atom   25 type  1   force =     0.00000036   -0.00000006    0.00241028
     atom   26 type  1   force =     0.00000033   -0.00000008    0.00241031
     atom   27 type  1   force =     0.00000034   -0.00000007    0.00241031
     atom   28 type  1   force =     0.00000038   -0.00000004    0.00241028
     atom   29 type  1   force =     0.00000031    0.00002969    0.00241104
     atom   30 type  1   force =     0.00000035    0.00002969    0.00241105
     atom   31 type  1   force =     0.00000039    0.00002972    0.00241104
     atom   32 type  1   force =     0.00000036    0.00002972    0.00241103
     atom   33 type  1   force =     0.00000284   -0.00000641   -0.00056475
     atom   34 type  1   force =     0.00000290   -0.00000638   -0.00056474
     atom   35 type  1   force =     0.00000283   -0.00000637   -0.00056474
     atom   36 type  1   force =     0.00000278   -0.00000640   -0.00056475
     atom   37 type  1   force =     0.00000290   -0.00000487   -0.00056334
     atom   38 type  1   force =     0.00000287   -0.00000489   -0.00056334
     atom   39 type  1   force =     0.00000277   -0.00000490   -0.00056335
     atom   40 type  1   force =     0.00000279   -0.00000489   -0.00056335
     atom   41 type  1   force =     0.00000287    0.00000704   -0.00056359
     atom   42 type  1   force =     0.00000282    0.00000700   -0.00056359
     atom   43 type  1   force =     0.00000280    0.00000705   -0.00056358
     atom   44 type  1   force =     0.00000286    0.00000709   -0.00056359
     atom   45 type  1   force =     0.00000282    0.00001120   -0.00056710
     atom   46 type  1   force =     0.00000285    0.00001121   -0.00056709
     atom   47 type  1   force =     0.00000285    0.00001127   -0.00056708
     atom   48 type  1   force =     0.00000283    0.00001125   -0.00056710
     atom   49 type  1   force =    -0.00000257   -0.00000759   -0.00027430
     atom   50 type  1   force =    -0.00000247   -0.00000758   -0.00027428
     atom   51 type  1   force =    -0.00000251   -0.00000758   -0.00027428
     atom   52 type  1   force =    -0.00000261   -0.00000760   -0.00027429
     atom   53 type  1   force =    -0.00000251   -0.00000600   -0.00027350
     atom   54 type  1   force =    -0.00000250   -0.00000603   -0.00027352
     atom   55 type  1   force =    -0.00000257   -0.00000605   -0.00027353
     atom   56 type  1   force =    -0.00000258   -0.00000602   -0.00027352
     atom   57 type  1   force =    -0.00000254    0.00000739   -0.00027491
     atom   58 type  1   force =    -0.00000256    0.00000733   -0.00027493
     atom   59 type  1   force =    -0.00000254    0.00000736   -0.00027493
     atom   60 type  1   force =    -0.00000253    0.00000742   -0.00027490
     atom   61 type  1   force =    -0.00000259    0.00000801   -0.00027608
     atom   62 type  1   force =    -0.00000253    0.00000800   -0.00027608
     atom   63 type  1   force =    -0.00000248    0.00000803   -0.00027606
     atom   64 type  1   force =    -0.00000256    0.00000805   -0.00027605
     atom   65 type  1   force =     0.00000059   -0.00001060    0.00108202
     atom   66 type  1   force =     0.00000067   -0.00001060    0.00108200
     atom   67 type  1   force =     0.00000063   -0.00001060    0.00108196
     atom   68 type  1   force =     0.00000056   -0.00001061    0.00108198
     atom   69 type  1   force =     0.00000064   -0.00000542    0.00108238
     atom   70 type  1   force =     0.00000065   -0.00000546    0.00108235
     atom   71 type  1   force =     0.00000058   -0.00000546    0.00108233
     atom   72 type  1   force =     0.00000057   -0.00000545    0.00108237
     atom   73 type  1   force =     0.00000062    0.00000456    0.00108513
     atom   74 type  1   force =     0.00000061    0.00000452    0.00108512
     atom   75 type  1   force =     0.00000060    0.00000454    0.00108513
     atom   76 type  1   force =     0.00000062    0.00000458    0.00108514
     atom   77 type  1   force =     0.00000057    0.00000995    0.00108220
     atom   78 type  1   force =     0.00000062    0.00000995    0.00108221
     atom   79 type  1   force =     0.00000065    0.00000999    0.00108220
     atom   80 type  1   force =     0.00000061    0.00001000    0.00108218

     Total force =     0.005008     Total SCF correction =     0.000016


     Computing stress (Cartesian axis) and pressure


     negative rho (up, down):  3.543E-05 0.000E+00
          total   stress  (Ry/bohr**3)                   (kbar)     P=       -5.83
  -0.00006500   0.00000000   0.00000000           -9.56        0.00        0.00
   0.00000000  -0.00006503   0.00000000            0.00       -9.57        0.00
   0.00000000   0.00000000   0.00001118            0.00        0.00        1.64

     Energy error            =      2.0E-04 Ry
     Gradient error          =      1.1E-03 Ry/Bohr

     number of scf cycles    =   5
     number of bfgs steps    =   4

     energy             old  =   -3159.3503661753 Ry
     energy             new  =   -3159.3505705436 Ry

     CASE: energy            _new < energy            _old

     new trust radius        =       0.0085274578 bohr
     new conv_thr            =       0.0000000001 Ry


ATOMIC_POSITIONS (angstrom)
Al              11.4551572755        1.6534343352       14.9998275960    0   0   0
Al               2.8638322755        1.6534343352       14.9998275960    0   0   0
Al               5.7276072755        1.6534343352       14.9998275960    0   0   0
Al               8.5913822755        1.6534343352       14.9998275960    0   0   0
Al              12.8870447755        4.1335362359       14.9998275960    0   0   0
Al               4.2957197755        4.1335362359       14.9998275960    0   0   0
Al               7.1594947755        4.1335362359       14.9998275960    0   0   0
Al              10.0232697755        4.1335362359       14.9998275960    0   0   0
Al              14.3189322755        6.6136381366       14.9998275960    0   0   0
Al               5.7276072755        6.6136381366       14.9998275960    0   0   0
Al               8.5913822755        6.6136381366       14.9998275960    0   0   0
Al              11.4551572755        6.6136381366       14.9998275960    0   0   0
Al              15.7508197755        9.0937400373       14.9998275960    0   0   0
Al               7.1594947755        9.0937400373       14.9998275960    0   0   0
Al              10.0232697755        9.0937400373       14.9998275960    0   0   0
Al              12.8870447755        9.0937400373       14.9998275960    0   0   0
Al               0.0000000000        0.0000000000       17.3381887980    0   0   0
Al               2.8637750000        0.0000000000       17.3381887980    0   0   0
Al               5.7275500000        0.0000000000       17.3381887980    0   0   0
Al               8.5913250000        0.0000000000       17.3381887980    0   0   0
Al               1.4318875000        2.4801019007       17.3381887980    0   0   0
Al               4.2956625000        2.4801019007       17.3381887980    0   0   0
Al               7.1594375000        2.4801019007       17.3381887980    0   0   0
Al              10.0232125000        2.4801019007       17.3381887980    0   0   0
Al               2.8637750000        4.9602038014       17.3381887980    0   0   0
Al               5.7275500000        4.9602038014       17.3381887980    0   0   0
Al               8.5913250000        4.9602038014       17.3381887980    0   0   0
Al              11.4551000000        4.9602038014       17.3381887980    0   0   0
Al               4.2956625000        7.4403057022       17.3381887980    0   0   0
Al               7.1594375000        7.4403057022       17.3381887980    0   0   0
Al              10.0232125000        7.4403057022       17.3381887980    0   0   0
Al              12.8869875000        7.4403057022       17.3381887980    0   0   0
Al               1.4318525983        0.8265147053       19.6746488798
Al               4.2956273643        0.8265144726       19.6746488342
Al               7.1594024034        0.8265143146       19.6746489330
Al              10.0231776087        0.8265145076       19.6746489498
Al               2.8637398477        3.3067599081       19.6746082960
Al               5.7275147662        3.3067598403       19.6746084757
Al               8.5912902044        3.3067598867       19.6746085093
Al              11.4550652970        3.3067600004       19.6746083822
Al               4.2956271904        5.7869041134       19.6746265934
Al               7.1594025079        5.7869042143       19.6746266887
Al              10.0231777875        5.7869041750       19.6746265783
Al              12.8869524839        5.7869040430       19.6746264876
Al               5.7275149632        8.2671559125       19.6745712220
Al               8.5912901422        8.2671559543       19.6745711128
Al              11.4550650674        8.2671556839       19.6745710333
Al              14.3188398701        8.2671556504       19.6745711012
Al              11.4551369973        1.6532914064       22.0048769549
Al               2.8638117412        1.6532914096       22.0048768859
Al               5.7275866603        1.6532911754       22.0048769693
Al               8.5913619303        1.6532912076       22.0048770444
Al              12.8870243371        4.1335158112       22.0048838940
Al               4.2956990043        4.1335157640       22.0048839788
Al               7.1594743034        4.1335157085       22.0048841125
Al              10.0232496152        4.1335157910       22.0048840159
Al              14.3189116380        6.6136468620       22.0048834837
Al               5.7275866518        6.6136469798       22.0048835635
Al               8.5913620191        6.6136470522       22.0048835455
Al              11.4551370232        6.6136468912       22.0048834223
Al              15.7507992412        9.0939053994       22.0048673996
Al               7.1594743432        9.0939056368       22.0048673505
Al              10.0232493515        9.0939054559       22.0048672874
Al              12.8870243133        9.0939052550       22.0048673341
Al               0.0000053553       -0.0001486807       24.3664271184
Al               2.8637802747       -0.0001486434       24.3664271184
Al               5.7275553268       -0.0001487999       24.3664271304
Al               8.5913303614       -0.0001488350       24.3664271758
Al               1.4318928585        2.4800876662       24.3664738511
Al               4.2956676690        2.4800876281       24.3664738994
Al               7.1594428176        2.4800874833       24.3664740778
Al              10.0232180025        2.4800875875       24.3664739434
Al               2.8637802229        4.9602199797       24.3664856623
Al               5.7275551209        4.9602199479       24.3664858185
Al               8.5913304447        4.9602199721       24.3664858946
Al              11.4551055242        4.9602199498       24.3664857451
Al               4.2956676818        7.4404410440       24.3664795470
Al               7.1594427496        7.4404411132       24.3664795937
Al              10.0232179398        7.4404410607       24.3664795123
Al              12.8869928499        7.4404409124       24.3664794728



     Writing config-only to output data dir ./tmp/al111_4x4.save/ :
     XML data file
     NEW-OLD atomic charge density approx. for the potential

     negative rho (up, down):  3.725E-05 0.000E+00

     total cpu time spent up to now is    14465.8 secs

     Self-consistent Calculation

     iteration #  1     ecut=    60.00 Ry     beta= 0.30
     Davidson diagonalization with overlap
     ethr =  1.00E-06,  avg # of iterations =  3.0

     negative rho (up, down):  3.635E-05 0.000E+00

     total cpu time spent up to now is    14628.7 secs

     total energy              =   -3159.35051286 Ry
     estimated scf accuracy    <       0.00030182 Ry

     iteration #  2     ecut=    60.00 Ry     beta= 0.30
     Davidson diagonalization with overlap
     ethr =  1.26E-07,  avg # of iterations =  7.6

     negative rho (up, down):  3.595E-05 0.000E+00

     total cpu time spent up to now is    14807.3 secs

     total energy              =   -3159.34963389 Ry
     estimated scf accuracy    <       0.05671477 Ry

     iteration #  3     ecut=    60.00 Ry     beta= 0.30
     Davidson diagonalization with overlap
     ethr =  1.26E-07,  avg # of iterations =  6.8

     negative rho (up, down):  3.584E-05 0.000E+00

     total cpu time spent up to now is    14965.0 secs

     total energy              =   -3159.35066961 Ry
     estimated scf accuracy    <       0.00029574 Ry

     iteration #  4     ecut=    60.00 Ry     beta= 0.30
     Davidson diagonalization with overlap
     ethr =  1.23E-07,  avg # of iterations =  2.0

     negative rho (up, down):  3.578E-05 0.000E+00

     total cpu time spent up to now is    15086.8 secs

     total energy              =   -3159.35067448 Ry
     estimated scf accuracy    <       0.00005611 Ry

     iteration #  5     ecut=    60.00 Ry     beta= 0.30
     Davidson diagonalization with overlap
     ethr =  2.34E-08,  avg # of iterations =  2.6

     negative rho (up, down):  3.555E-05 0.000E+00

     total cpu time spent up to now is    15216.1 secs

     total energy              =   -3159.35066834 Ry
     estimated scf accuracy    <       0.00002293 Ry

     iteration #  6     ecut=    60.00 Ry     beta= 0.30
     Davidson diagonalization with overlap
     ethr =  9.55E-09,  avg # of iterations =  4.7

     negative rho (up, down):  3.555E-05 0.000E+00

     total cpu time spent up to now is    15394.9 secs

     total energy              =   -3159.35067489 Ry
     estimated scf accuracy    <       0.00001212 Ry

     iteration #  7     ecut=    60.00 Ry     beta= 0.30
     Davidson diagonalization with overlap
     ethr =  5.05E-09,  avg # of iterations =  2.0

     negative rho (up, down):  3.553E-05 0.000E+00

     total cpu time spent up to now is    15521.2 secs

     total energy              =   -3159.35067503 Ry
     estimated scf accuracy    <       0.00000683 Ry

     iteration #  8     ecut=    60.00 Ry     beta= 0.30
     Davidson diagonalization with overlap
     ethr =  2.85E-09,  avg # of iterations =  2.0

     negative rho (up, down):  3.553E-05 0.000E+00

     total cpu time spent up to now is    15648.8 secs

     total energy              =   -3159.35067487 Ry
     estimated scf accuracy    <       0.00000193 Ry

     iteration #  9     ecut=    60.00 Ry     beta= 0.30
     Davidson diagonalization with overlap
     ethr =  8.05E-10,  avg # of iterations =  4.5

     negative rho (up, down):  3.553E-05 0.000E+00

     total cpu time spent up to now is    15799.8 secs

     total energy              =   -3159.35067519 Ry
     estimated scf accuracy    <       0.00000006 Ry

     iteration # 10     ecut=    60.00 Ry     beta= 0.30
     Davidson diagonalization with overlap
     ethr =  2.67E-11,  avg # of iterations =  7.5

     negative rho (up, down):  3.553E-05 0.000E+00

     total cpu time spent up to now is    16028.0 secs

     total energy              =   -3159.35067523 Ry
     estimated scf accuracy    <       0.00000013 Ry

     iteration # 11     ecut=    60.00 Ry     beta= 0.30
     Davidson diagonalization with overlap
     ethr =  2.67E-11,  avg # of iterations =  4.8

     negative rho (up, down):  3.553E-05 0.000E+00

     total cpu time spent up to now is    16194.6 secs

     total energy              =   -3159.35067527 Ry
     estimated scf accuracy    <       0.00000012 Ry

     iteration # 12     ecut=    60.00 Ry     beta= 0.30
     Davidson diagonalization with overlap
     ethr =  2.67E-11,  avg # of iterations =  1.3

     negative rho (up, down):  3.553E-05 0.000E+00

     total cpu time spent up to now is    16314.5 secs

     total energy              =   -3159.35067524 Ry
     estimated scf accuracy    <       0.00000004 Ry

     iteration # 13     ecut=    60.00 Ry     beta= 0.30
     Davidson diagonalization with overlap
     ethr =  1.78E-11,  avg # of iterations =  3.5

     negative rho (up, down):  3.553E-05 0.000E+00

     total cpu time spent up to now is    16450.5 secs

     total energy              =   -3159.35067524 Ry
     estimated scf accuracy    <          2.9E-09 Ry

     iteration # 14     ecut=    60.00 Ry     beta= 0.30
     Davidson diagonalization with overlap
     ethr =  1.19E-12,  avg # of iterations =  6.1

     negative rho (up, down):  3.553E-05 0.000E+00

     total cpu time spent up to now is    16650.7 secs

     total energy              =   -3159.35067524 Ry
     estimated scf accuracy    <          9.4E-10 Ry

     iteration # 15     ecut=    60.00 Ry     beta= 0.30
     Davidson diagonalization with overlap
     ethr =  3.90E-13,  avg # of iterations =  5.3

     negative rho (up, down):  3.553E-05 0.000E+00

     total cpu time spent up to now is    16795.2 secs

     total energy              =   -3159.35067524 Ry
     estimated scf accuracy    <          6.4E-10 Ry

     iteration # 16     ecut=    60.00 Ry     beta= 0.30
     Davidson diagonalization with overlap
     ethr =  2.67E-13,  avg # of iterations =  1.5

     negative rho (up, down):  3.553E-05 0.000E+00

     total cpu time spent up to now is    16912.8 secs

     total energy              =   -3159.35067525 Ry
     estimated scf accuracy    <          1.3E-10 Ry

     iteration # 17     ecut=    60.00 Ry     beta= 0.30
     Davidson diagonalization with overlap
     ethr =  1.00E-13,  avg # of iterations =  3.2

     negative rho (up, down):  3.553E-05 0.000E+00

     total cpu time spent up to now is    17040.1 secs

     End of self-consistent calculation

          k = 0.0000 0.0000 0.0000 (237007 PWs)   bands (ev):

   -11.3848 -10.6717  -9.8899  -9.8898  -9.8898  -9.8897  -9.8896  -9.8896
    -9.5599  -9.1827  -9.1827  -9.1827  -9.1826  -9.1824  -9.1824  -8.0800
    -8.0800  -8.0800  -8.0799  -8.0798  -8.0798  -8.0546  -6.9469  -6.9469
    -6.9468  -6.9468  -6.9465  -6.9465  -6.5861  -6.5861  -6.5861  -6.5861
    -6.5859  -6.5859  -6.2530  -6.2530  -6.2530  -6.2530  -6.2527  -6.2527
    -6.1452  -5.5158  -5.5155  -5.5154  -5.4887  -5.4884  -5.4883  -5.1743
    -5.1743  -5.1743  -5.1743  -5.1740  -5.1740  -4.8351  -4.8348  -4.8347
    -4.8047  -4.8043  -4.8043  -4.6834  -4.6834  -4.6834  -4.6833  -4.6831
    -4.6831  -4.0990  -3.9124  -3.9121  -3.9120  -3.7263  -3.7263  -3.7263
    -3.7263  -3.7260  -3.7260  -3.6335  -3.6332  -3.6331  -2.6967  -2.6967
    -2.6967  -2.6966  -2.6964  -2.6964  -2.3938  -2.3935  -2.3934  -2.0122
    -2.0122  -2.0122  -2.0122  -2.0121  -2.0121  -1.9465  -1.9461  -1.9460
    -1.6812  -1.3211  -1.3211  -1.3211  -1.3210  -1.3210  -1.3210  -1.1973
    -1.1973  -1.1973  -1.1972  -1.1972  -1.1972  -0.6428  -0.6428  -0.6428
    -0.6427  -0.6426  -0.6426  -0.3312  -0.3312  -0.3312  -0.3312  -0.3310
    -0.3310  -0.3300  -0.3300  -0.3300  -0.3300  -0.3298  -0.3298  -0.3273
    -0.3269  -0.3269  -0.2614  -0.2611  -0.2610   0.2849   0.2849   0.2850
     0.2850   0.2851   0.2852   0.3908   0.3908   0.3909   0.3909   0.3909

          k = 0.0000 0.2887 0.0000 (236896 PWs)   bands (ev):

   -11.2908 -10.5782 -10.5419 -10.1688 -10.1688  -9.8322  -9.4669  -9.4606
    -9.4606  -9.4258  -9.4258  -9.0558  -8.7254  -8.7205  -8.7205  -8.3561
    -8.3561  -8.3521  -7.9622  -7.9514  -7.9514  -7.6209  -7.6209  -7.2551
    -7.2525  -7.2525  -7.2261  -6.8598  -6.8598  -6.8563  -6.8556  -6.8556
    -6.1639  -6.1639  -6.1636  -6.1624  -6.1624  -6.1313  -6.1313  -6.1313
    -6.1313  -6.0529  -5.7697  -5.7697  -5.7695  -5.4444  -5.4444  -5.3187
    -5.0899  -5.0854  -5.0854  -5.0835  -5.0835  -4.9545  -4.9545  -4.6984
    -4.6984  -4.6929  -4.6929  -4.3872  -4.3871  -4.2345  -4.2345  -4.0291
    -4.0290  -4.0244  -4.0244  -4.0109  -4.0016  -3.8814  -3.6859  -3.6474
    -3.6474  -3.3078  -3.2869  -3.1821  -3.1820  -2.9576  -2.9576  -2.9433
    -2.9433  -2.8440  -2.8440  -2.6542  -2.6542  -2.6058  -2.6057  -2.5997
    -2.5996  -2.2648  -2.2648  -2.2411  -2.2411  -2.2092  -2.1140  -2.1139
    -1.9334  -1.5934  -1.5580  -1.5580  -1.5046  -1.4926  -1.4926  -1.3786
    -1.3786  -1.2257  -1.2257  -1.0774  -1.0773  -0.9672  -0.9672  -0.9000
    -0.8757  -0.8757  -0.7032  -0.7031  -0.6745  -0.6468  -0.6468  -0.5636
    -0.5636  -0.5017  -0.3773  -0.3773  -0.0339  -0.0339  -0.0062  -0.0062
     0.0446   0.0446   0.2090   0.2447   0.2533   0.2533   0.4088   0.4088
     0.4594   0.4594   0.5366   0.5366   0.6023   0.6023   0.7419   0.7419

          k = 0.0000-0.5773 0.0000 (236880 PWs)   bands (ev):

   -11.0096 -11.0094 -10.2981 -10.2978 -10.2619 -10.2619  -9.5533  -9.5533
    -9.1885  -9.1882  -8.7789  -8.7789  -8.7787  -8.7787  -8.4483  -8.4483
    -8.0763  -8.0763  -8.0762  -8.0762  -8.0433  -8.0432  -7.6858  -7.6855
    -7.3441  -7.3440  -6.9812  -6.9812  -6.9811  -6.9811  -6.9512  -6.9512
    -6.5836  -6.5836  -6.5833  -6.5833  -6.2551  -6.2551  -5.8923  -5.8923
    -5.8920  -5.8920  -5.7768  -5.7765  -5.4987  -5.4987  -5.4986  -5.4986
    -5.0453  -5.0453  -4.8216  -4.8216  -4.8214  -4.8213  -4.7855  -4.7855
    -4.4438  -4.4438  -4.4125  -4.4125  -3.7783  -3.7783  -3.7470  -3.7468
    -3.7358  -3.7357  -3.7357  -3.7357  -3.7283  -3.7283  -3.6154  -3.6154
    -3.6153  -3.6153  -3.4226  -3.4226  -3.4225  -3.4222  -3.0449  -3.0449
    -3.0222  -3.0222  -3.0221  -3.0220  -2.9888  -2.9887  -2.8697  -2.8697
    -2.5894  -2.5894  -2.2774  -2.2773  -1.9477  -1.9477  -1.9477  -1.9475
    -1.6757  -1.6757  -1.6756  -1.6756  -1.6447  -1.6447  -1.5443  -1.5442
    -1.4229  -1.4229  -1.3312  -1.3309  -1.2559  -1.2559  -1.2557  -1.2556
    -0.9771  -0.9771  -0.9664  -0.9664  -0.8337  -0.8337  -0.6446  -0.6446
    -0.4398  -0.4397  -0.4280  -0.4280  -0.4280  -0.4280  -0.2419  -0.2419
    -0.2418  -0.2418   0.2561   0.2561   0.4655   0.4655   0.4656   0.4656
     0.4815   0.4815   0.4818   0.4818   0.9576   0.9582   0.9778   0.9778

          k = 0.2500-0.1443 0.0000 (236890 PWs)   bands (ev):

   -11.2908 -10.5782 -10.5418 -10.1689 -10.1688  -9.8321  -9.4669  -9.4606
    -9.4606  -9.4258  -9.4257  -9.0557  -8.7253  -8.7206  -8.7205  -8.3562
    -8.3561  -8.3520  -7.9622  -7.9514  -7.9512  -7.6210  -7.6208  -7.2549
    -7.2525  -7.2523  -7.2261  -6.8599  -6.8598  -6.8561  -6.8560  -6.8559
    -6.1640  -6.1637  -6.1633  -6.1627  -6.1626  -6.1317  -6.1314  -6.1314
    -6.1313  -6.0529  -5.7696  -5.7694  -5.7693  -5.4447  -5.4445  -5.3186
    -5.0896  -5.0857  -5.0856  -5.0834  -5.0831  -4.9546  -4.9546  -4.6987
    -4.6983  -4.6930  -4.6928  -4.3875  -4.3872  -4.2346  -4.2345  -4.0294
    -4.0290  -4.0243  -4.0240  -4.0109  -4.0012  -3.8813  -3.6856  -3.6477
    -3.6476  -3.3078  -3.2865  -3.1824  -3.1820  -2.9577  -2.9577  -2.9431
    -2.9428  -2.8440  -2.8438  -2.6540  -2.6538  -2.6062  -2.6057  -2.5999
    -2.5994  -2.2649  -2.2648  -2.2409  -2.2406  -2.2088  -2.1142  -2.1138
    -1.9332  -1.5934  -1.5586  -1.5584  -1.5042  -1.4930  -1.4926  -1.3790
    -1.3785  -1.2256  -1.2254  -1.0777  -1.0774  -0.9674  -0.9673  -0.9000
    -0.8761  -0.8758  -0.7035  -0.7029  -0.6741  -0.6473  -0.6470  -0.5637
    -0.5637  -0.5011  -0.3774  -0.3773  -0.0341  -0.0339  -0.0069  -0.0065
     0.0444   0.0447   0.2096   0.2450   0.2533   0.2533   0.4086   0.4089
     0.4590   0.4595   0.5370   0.5373   0.6022   0.6025   0.7417   0.7418

          k = 0.2500-0.7217 0.0000 (236847 PWs)   bands (ev):

   -11.1032 -10.7287 -10.7287 -10.3913 -10.0183 -10.0182  -9.6112  -9.6111
    -9.2811  -8.9104  -8.9103  -8.9052  -8.9051  -8.8711  -8.5026  -8.5024
    -8.1681  -7.8043  -7.8042  -7.8013  -7.8011  -7.7777  -7.7681  -7.7680
    -7.4097  -7.4096  -7.4027  -7.4025  -7.0723  -7.0702  -7.0701  -6.7083
    -6.7082  -6.7067  -6.7065  -6.3129  -6.3128  -5.9835  -5.9834  -5.8686
    -5.6244  -5.6241  -5.5902  -5.5898  -5.5885  -5.5015  -5.5014  -5.2466
    -5.2299  -5.2298  -5.2183  -4.9070  -4.9066  -4.5699  -4.5331  -4.5178
    -4.5177  -4.5156  -4.4129  -4.4128  -4.1751  -4.1749  -4.1644  -4.1642
    -3.8566  -3.8562  -3.8435  -3.8349  -3.7011  -3.6490  -3.4978  -3.4976
    -3.4833  -3.4832  -3.3683  -3.3639  -3.3637  -3.1279  -3.1275  -3.1163
    -3.0945  -2.8215  -2.7294  -2.7293  -2.6677  -2.6675  -2.6287  -2.6284
    -2.4884  -2.4353  -2.4352  -2.4095  -2.1339  -2.0799  -2.0795  -2.0148
    -2.0146  -1.9911  -1.9906  -1.7907  -1.7501  -1.6857  -1.5762  -1.5758
    -1.4182  -1.2856  -1.2855  -1.2494  -1.1932  -1.1926  -1.1573  -1.1569
    -1.0710  -1.0710  -1.0506  -0.8897  -0.8894  -0.5781  -0.5780  -0.5250
    -0.5244  -0.5226  -0.5223  -0.2630  -0.2627  -0.1829  -0.1827  -0.1159
    -0.0844  -0.0843  -0.0377   0.0533   0.0537   0.1805   0.1810   0.2005
     0.3847   0.4849   0.4855   0.5853   0.6327   0.6329   0.9087   0.9359

          k =-0.5000 0.2887 0.0000 (236880 PWs)   bands (ev):

   -11.0095 -11.0095 -10.2979 -10.2979 -10.2620 -10.2620  -9.5534  -9.5534
    -9.1883  -9.1883  -8.7789  -8.7789  -8.7787  -8.7787  -8.4483  -8.4483
    -8.0763  -8.0763  -8.0761  -8.0761  -8.0430  -8.0430  -7.6856  -7.6856
    -7.3438  -7.3438  -6.9812  -6.9812  -6.9811  -6.9811  -6.9513  -6.9513
    -6.5838  -6.5838  -6.5836  -6.5836  -6.2549  -6.2549  -5.8925  -5.8925
    -5.8924  -5.8924  -5.7766  -5.7766  -5.4987  -5.4987  -5.4985  -5.4985
    -5.0454  -5.0454  -4.8218  -4.8218  -4.8216  -4.8216  -4.7853  -4.7853
    -4.4435  -4.4435  -4.4122  -4.4122  -3.7780  -3.7780  -3.7469  -3.7469
    -3.7360  -3.7360  -3.7356  -3.7356  -3.7279  -3.7279  -3.6154  -3.6154
    -3.6152  -3.6152  -3.4229  -3.4229  -3.4226  -3.4226  -3.0450  -3.0450
    -3.0225  -3.0225  -3.0220  -3.0220  -2.9886  -2.9886  -2.8694  -2.8694
    -2.5891  -2.5891  -2.2768  -2.2768  -1.9480  -1.9480  -1.9475  -1.9475
    -1.6757  -1.6757  -1.6755  -1.6755  -1.6452  -1.6452  -1.5437  -1.5437
    -1.4228  -1.4228  -1.3310  -1.3310  -1.2562  -1.2562  -1.2558  -1.2558
    -0.9770  -0.9770  -0.9667  -0.9667  -0.8334  -0.8334  -0.6446  -0.6446
    -0.4392  -0.4392  -0.4284  -0.4284  -0.4278  -0.4278  -0.2425  -0.2425
    -0.2420  -0.2420   0.2558   0.2558   0.4649   0.4649   0.4654   0.4654
     0.4814   0.4814   0.4815   0.4815   0.9581   0.9581   0.9780   0.9780

          k =-0.5000 0.5773 0.0000 (236845 PWs)   bands (ev):

   -11.1032 -10.7288 -10.7286 -10.3913 -10.0184 -10.0181  -9.6113  -9.6112
    -9.2811  -8.9105  -8.9102  -8.9053  -8.9052  -8.8709  -8.5025  -8.5022
    -8.1680  -7.8044  -7.8043  -7.8012  -7.8009  -7.7777  -7.7683  -7.7682
    -7.4098  -7.4095  -7.4026  -7.4025  -7.0722  -7.0704  -7.0703  -6.7083
    -6.7080  -6.7066  -6.7065  -6.3130  -6.3129  -5.9837  -5.9836  -5.8686
    -5.6242  -5.6241  -5.5901  -5.5900  -5.5884  -5.5016  -5.5013  -5.2469
    -5.2299  -5.2296  -5.2186  -4.9068  -4.9068  -4.5702  -4.5335  -4.5180
    -4.5180  -4.5151  -4.4129  -4.4129  -4.1750  -4.1749  -4.1640  -4.1638
    -3.8564  -3.8564  -3.8431  -3.8348  -3.7010  -3.6494  -3.4974  -3.4971
    -3.4834  -3.4831  -3.3687  -3.3638  -3.3635  -3.1274  -3.1273  -3.1164
    -3.0948  -2.8211  -2.7295  -2.7295  -2.6675  -2.6674  -2.6284  -2.6283
    -2.4886  -2.4354  -2.4353  -2.4097  -2.1343  -2.0796  -2.0795  -2.0153
    -2.0152  -1.9907  -1.9906  -1.7907  -1.7500  -1.6861  -1.5759  -1.5757
    -1.4182  -1.2861  -1.2860  -1.2495  -1.1926  -1.1925  -1.1570  -1.1569
    -1.0711  -1.0709  -1.0504  -0.8893  -0.8891  -0.5784  -0.5783  -0.5245
    -0.5245  -0.5225  -0.5224  -0.2628  -0.2628  -0.1834  -0.1833  -0.1163
    -0.0845  -0.0844  -0.0380   0.0531   0.0532   0.1811   0.1811   0.2005
     0.3847   0.4854   0.4855   0.5851   0.6326   0.6328   0.9091   0.9359

          k =-0.2500-0.1443 0.0000 (236890 PWs)   bands (ev):

   -11.2908 -10.5782 -10.5418 -10.1689 -10.1688  -9.8321  -9.4669  -9.4606
    -9.4606  -9.4258  -9.4257  -9.0557  -8.7253  -8.7206  -8.7205  -8.3562
    -8.3561  -8.3520  -7.9622  -7.9514  -7.9512  -7.6210  -7.6208  -7.2549
    -7.2525  -7.2523  -7.2261  -6.8599  -6.8598  -6.8561  -6.8560  -6.8559
    -6.1640  -6.1638  -6.1633  -6.1627  -6.1626  -6.1317  -6.1314  -6.1314
    -6.1313  -6.0529  -5.7696  -5.7694  -5.7693  -5.4447  -5.4445  -5.3186
    -5.0896  -5.0857  -5.0856  -5.0834  -5.0831  -4.9546  -4.9546  -4.6987
    -4.6983  -4.6930  -4.6928  -4.3875  -4.3872  -4.2346  -4.2345  -4.0294
    -4.0290  -4.0243  -4.0240  -4.0109  -4.0012  -3.8813  -3.6856  -3.6477
    -3.6476  -3.3078  -3.2865  -3.1824  -3.1820  -2.9577  -2.9577  -2.9431
    -2.9428  -2.8440  -2.8438  -2.6540  -2.6538  -2.6062  -2.6058  -2.5999
    -2.5994  -2.2649  -2.2648  -2.2409  -2.2406  -2.2088  -2.1142  -2.1138
    -1.9332  -1.5934  -1.5586  -1.5584  -1.5042  -1.4930  -1.4926  -1.3790
    -1.3785  -1.2256  -1.2254  -1.0777  -1.0773  -0.9674  -0.9673  -0.9000
    -0.8761  -0.8757  -0.7035  -0.7029  -0.6741  -0.6473  -0.6470  -0.5637
    -0.5637  -0.5011  -0.3774  -0.3773  -0.0341  -0.0339  -0.0069  -0.0065
     0.0444   0.0447   0.2096   0.2450   0.2533   0.2533   0.4086   0.4088
     0.4590   0.4595   0.5370   0.5373   0.6022   0.6025   0.7417   0.7418

          k =-0.2500-0.7217 0.0000 (236847 PWs)   bands (ev):

   -11.1032 -10.7287 -10.7287 -10.3913 -10.0183 -10.0182  -9.6112  -9.6111
    -9.2811  -8.9104  -8.9103  -8.9052  -8.9051  -8.8711  -8.5026  -8.5024
    -8.1681  -7.8043  -7.8042  -7.8013  -7.8011  -7.7777  -7.7681  -7.7680
    -7.4097  -7.4096  -7.4027  -7.4025  -7.0723  -7.0702  -7.0701  -6.7083
    -6.7082  -6.7067  -6.7065  -6.3129  -6.3128  -5.9835  -5.9834  -5.8686
    -5.6244  -5.6241  -5.5902  -5.5898  -5.5885  -5.5015  -5.5014  -5.2466
    -5.2299  -5.2298  -5.2183  -4.9070  -4.9066  -4.5699  -4.5331  -4.5178
    -4.5177  -4.5156  -4.4129  -4.4128  -4.1751  -4.1749  -4.1644  -4.1642
    -3.8566  -3.8562  -3.8435  -3.8349  -3.7011  -3.6490  -3.4978  -3.4976
    -3.4833  -3.4832  -3.3683  -3.3639  -3.3637  -3.1279  -3.1275  -3.1162
    -3.0945  -2.8215  -2.7294  -2.7293  -2.6677  -2.6675  -2.6287  -2.6284
    -2.4885  -2.4353  -2.4352  -2.4095  -2.1339  -2.0799  -2.0796  -2.0148
    -2.0146  -1.9911  -1.9907  -1.7907  -1.7501  -1.6857  -1.5762  -1.5758
    -1.4182  -1.2856  -1.2854  -1.2494  -1.1932  -1.1926  -1.1573  -1.1569
    -1.0710  -1.0710  -1.0506  -0.8897  -0.8894  -0.5781  -0.5780  -0.5250
    -0.5244  -0.5226  -0.5223  -0.2630  -0.2627  -0.1829  -0.1827  -0.1159
    -0.0844  -0.0843  -0.0377   0.0533   0.0537   0.1805   0.1810   0.2006
     0.3847   0.4849   0.4856   0.5853   0.6327   0.6329   0.9087   0.9359

          k = 0.5000 0.2887 0.0000 (236880 PWs)   bands (ev):

   -11.0095 -11.0095 -10.2979 -10.2979 -10.2620 -10.2620  -9.5534  -9.5534
    -9.1883  -9.1883  -8.7789  -8.7789  -8.7787  -8.7787  -8.4483  -8.4483
    -8.0763  -8.0763  -8.0761  -8.0761  -8.0430  -8.0430  -7.6856  -7.6856
    -7.3438  -7.3438  -6.9812  -6.9812  -6.9811  -6.9811  -6.9513  -6.9513
    -6.5838  -6.5838  -6.5836  -6.5836  -6.2549  -6.2549  -5.8925  -5.8925
    -5.8924  -5.8924  -5.7766  -5.7766  -5.4987  -5.4987  -5.4985  -5.4985
    -5.0454  -5.0454  -4.8218  -4.8218  -4.8216  -4.8216  -4.7853  -4.7853
    -4.4435  -4.4435  -4.4122  -4.4122  -3.7780  -3.7780  -3.7469  -3.7469
    -3.7360  -3.7360  -3.7356  -3.7356  -3.7279  -3.7279  -3.6154  -3.6154
    -3.6152  -3.6152  -3.4229  -3.4229  -3.4226  -3.4226  -3.0450  -3.0450
    -3.0225  -3.0225  -3.0220  -3.0220  -2.9886  -2.9886  -2.8694  -2.8694
    -2.5892  -2.5892  -2.2768  -2.2768  -1.9480  -1.9480  -1.9475  -1.9475
    -1.6757  -1.6757  -1.6755  -1.6755  -1.6452  -1.6452  -1.5436  -1.5436
    -1.4228  -1.4228  -1.3310  -1.3310  -1.2562  -1.2562  -1.2558  -1.2558
    -0.9770  -0.9770  -0.9667  -0.9667  -0.8334  -0.8334  -0.6447  -0.6447
    -0.4392  -0.4392  -0.4284  -0.4284  -0.4278  -0.4278  -0.2425  -0.2425
    -0.2420  -0.2420   0.2558   0.2558   0.4649   0.4649   0.4654   0.4654
     0.4814   0.4814   0.4815   0.4815   0.9582   0.9593   0.9780   0.9780

     the Fermi energy is    -0.5233 ev

!    total energy              =   -3159.35067525 Ry
     total all-electron energy =    -38850.773202 Ry
     estimated scf accuracy    <          3.5E-11 Ry
     smearing contrib. (-TS)   =      -0.00922931 Ry
     internal energy E=F+TS    =   -3159.34144594 Ry

     The total energy is F=E-TS. E is the sum of the following terms:
     one-electron contribution =  -10705.51941624 Ry
     hartree contribution      =    5405.40251187 Ry
     xc contribution           =    -204.30384355 Ry
     ewald contribution        =    5119.33977421 Ry
     one-center paw contrib.   =   -2774.26047223 Ry

     convergence has been achieved in  17 iterations

     negative rho (up, down):  3.553E-05 0.000E+00

     Forces acting on atoms (cartesian axes, Ry/au):

     atom    1 type  1   force =    -0.00000123   -0.00002777   -0.00266295
     atom    2 type  1   force =    -0.00000122   -0.00002777   -0.00266295
     atom    3 type  1   force =    -0.00000123   -0.00002777   -0.00266295
     atom    4 type  1   force =    -0.00000124   -0.00002777   -0.00266295
     atom    5 type  1   force =    -0.00000122   -0.00000121   -0.00266118
     atom    6 type  1   force =    -0.00000123   -0.00000121   -0.00266118
     atom    7 type  1   force =    -0.00000123   -0.00000121   -0.00266119
     atom    8 type  1   force =    -0.00000123   -0.00000121   -0.00266119
     atom    9 type  1   force =    -0.00000123   -0.00000053   -0.00266079
     atom   10 type  1   force =    -0.00000123   -0.00000054   -0.00266078
     atom   11 type  1   force =    -0.00000123   -0.00000053   -0.00266079
     atom   12 type  1   force =    -0.00000122   -0.00000053   -0.00266080
     atom   13 type  1   force =    -0.00000123    0.00003046   -0.00264898
     atom   14 type  1   force =    -0.00000122    0.00003047   -0.00264898
     atom   15 type  1   force =    -0.00000122    0.00003047   -0.00264899
     atom   16 type  1   force =    -0.00000123    0.00003047   -0.00264899
     atom   17 type  1   force =     0.00000048   -0.00003545    0.00230046
     atom   18 type  1   force =     0.00000049   -0.00003543    0.00230045
     atom   19 type  1   force =     0.00000048   -0.00003544    0.00230046
     atom   20 type  1   force =     0.00000047   -0.00003544    0.00230047
     atom   21 type  1   force =     0.00000050   -0.00000257    0.00231105
     atom   22 type  1   force =     0.00000049   -0.00000257    0.00231108
     atom   23 type  1   force =     0.00000047   -0.00000257    0.00231111
     atom   24 type  1   force =     0.00000048   -0.00000257    0.00231108
     atom   25 type  1   force =     0.00000049    0.00000061    0.00230954
     atom   26 type  1   force =     0.00000047    0.00000061    0.00230958
     atom   27 type  1   force =     0.00000047    0.00000061    0.00230958
     atom   28 type  1   force =     0.00000049    0.00000062    0.00230954
     atom   29 type  1   force =     0.00000048    0.00002958    0.00230939
     atom   30 type  1   force =     0.00000048    0.00002959    0.00230940
     atom   31 type  1   force =     0.00000049    0.00002960    0.00230938
     atom   32 type  1   force =     0.00000049    0.00002959    0.00230937
     atom   33 type  1   force =     0.00000234    0.00000628   -0.00065834
     atom   34 type  1   force =     0.00000238    0.00000633   -0.00065833
     atom   35 type  1   force =     0.00000234    0.00000636   -0.00065834
     atom   36 type  1   force =     0.00000230    0.00000632   -0.00065835
     atom   37 type  1   force =     0.00000240   -0.00000615   -0.00065156
     atom   38 type  1   force =     0.00000238   -0.00000614   -0.00065156
     atom   39 type  1   force =     0.00000228   -0.00000616   -0.00065156
     atom   40 type  1   force =     0.00000229   -0.00000617   -0.00065157
     atom   41 type  1   force =     0.00000241    0.00000739   -0.00065368
     atom   42 type  1   force =     0.00000233    0.00000737   -0.00065367
     atom   43 type  1   force =     0.00000228    0.00000739   -0.00065366
     atom   44 type  1   force =     0.00000235    0.00000742   -0.00065367
     atom   45 type  1   force =     0.00000235   -0.00000138   -0.00065384
     atom   46 type  1   force =     0.00000231   -0.00000137   -0.00065383
     atom   47 type  1   force =     0.00000234   -0.00000131   -0.00065382
     atom   48 type  1   force =     0.00000236   -0.00000132   -0.00065383
     atom   49 type  1   force =    -0.00000207    0.00000263    0.00062082
     atom   50 type  1   force =    -0.00000199    0.00000264    0.00062083
     atom   51 type  1   force =    -0.00000202    0.00000268    0.00062082
     atom   52 type  1   force =    -0.00000209    0.00000266    0.00062080
     atom   53 type  1   force =    -0.00000202   -0.00000663    0.00062141
     atom   54 type  1   force =    -0.00000197   -0.00000663    0.00062141
     atom   55 type  1   force =    -0.00000207   -0.00000664    0.00062139
     atom   56 type  1   force =    -0.00000210   -0.00000663    0.00062140
     atom   57 type  1   force =    -0.00000201    0.00001046    0.00061902
     atom   58 type  1   force =    -0.00000202    0.00001043    0.00061902
     atom   59 type  1   force =    -0.00000208    0.00001044    0.00061902
     atom   60 type  1   force =    -0.00000206    0.00001048    0.00061903
     atom   61 type  1   force =    -0.00000204   -0.00000450    0.00061904
     atom   62 type  1   force =    -0.00000204   -0.00000453    0.00061904
     atom   63 type  1   force =    -0.00000203   -0.00000448    0.00061905
     atom   64 type  1   force =    -0.00000205   -0.00000446    0.00061904
     atom   65 type  1   force =     0.00000044   -0.00000106    0.00038781
     atom   66 type  1   force =     0.00000047   -0.00000105    0.00038781
     atom   67 type  1   force =     0.00000045   -0.00000102    0.00038780
     atom   68 type  1   force =     0.00000043   -0.00000103    0.00038781
     atom   69 type  1   force =     0.00000047   -0.00000727    0.00038376
     atom   70 type  1   force =     0.00000048   -0.00000727    0.00038373
     atom   71 type  1   force =     0.00000043   -0.00000725    0.00038371
     atom   72 type  1   force =     0.00000041   -0.00000726    0.00038374
     atom   73 type  1   force =     0.00000047    0.00000565    0.00038633
     atom   74 type  1   force =     0.00000046    0.00000564    0.00038630
     atom   75 type  1   force =     0.00000042    0.00000565    0.00038631
     atom   76 type  1   force =     0.00000042    0.00000566    0.00038634
     atom   77 type  1   force =     0.00000046    0.00000130    0.00038268
     atom   78 type  1   force =     0.00000045    0.00000129    0.00038267
     atom   79 type  1   force =     0.00000044    0.00000132    0.00038268
     atom   80 type  1   force =     0.00000044    0.00000134    0.00038269

     Total force =     0.003921     Total SCF correction =     0.000008


     Computing stress (Cartesian axis) and pressure


     negative rho (up, down):  3.553E-05 0.000E+00
          total   stress  (Ry/bohr**3)                   (kbar)     P=       -5.91
  -0.00006541   0.00000000   0.00000000           -9.62        0.00        0.00
   0.00000000  -0.00006544   0.00000000            0.00       -9.63        0.00
   0.00000000   0.00000000   0.00001026            0.00        0.00        1.51

     Energy error            =      1.0E-04 Ry
     Gradient error          =      6.6E-04 Ry/Bohr

     number of scf cycles    =   6
     number of bfgs steps    =   5

     energy             old  =   -3159.3505705436 Ry
     energy             new  =   -3159.3506752500 Ry

     CASE: energy            _new < energy            _old

     new trust radius        =       0.0016380676 bohr
     new conv_thr            =            1.0E-10 Ry


ATOMIC_POSITIONS (angstrom)
Al              11.4551572755        1.6534343352       14.9998275960    0   0   0
Al               2.8638322755        1.6534343352       14.9998275960    0   0   0
Al               5.7276072755        1.6534343352       14.9998275960    0   0   0
Al               8.5913822755        1.6534343352       14.9998275960    0   0   0
Al              12.8870447755        4.1335362359       14.9998275960    0   0   0
Al               4.2957197755        4.1335362359       14.9998275960    0   0   0
Al               7.1594947755        4.1335362359       14.9998275960    0   0   0
Al              10.0232697755        4.1335362359       14.9998275960    0   0   0
Al              14.3189322755        6.6136381366       14.9998275960    0   0   0
Al               5.7276072755        6.6136381366       14.9998275960    0   0   0
Al               8.5913822755        6.6136381366       14.9998275960    0   0   0
Al              11.4551572755        6.6136381366       14.9998275960    0   0   0
Al              15.7508197755        9.0937400373       14.9998275960    0   0   0
Al               7.1594947755        9.0937400373       14.9998275960    0   0   0
Al              10.0232697755        9.0937400373       14.9998275960    0   0   0
Al              12.8870447755        9.0937400373       14.9998275960    0   0   0
Al               0.0000000000        0.0000000000       17.3381887980    0   0   0
Al               2.8637750000        0.0000000000       17.3381887980    0   0   0
Al               5.7275500000        0.0000000000       17.3381887980    0   0   0
Al               8.5913250000        0.0000000000       17.3381887980    0   0   0
Al               1.4318875000        2.4801019007       17.3381887980    0   0   0
Al               4.2956625000        2.4801019007       17.3381887980    0   0   0
Al               7.1594375000        2.4801019007       17.3381887980    0   0   0
Al              10.0232125000        2.4801019007       17.3381887980    0   0   0
Al               2.8637750000        4.9602038014       17.3381887980    0   0   0
Al               5.7275500000        4.9602038014       17.3381887980    0   0   0
Al               8.5913250000        4.9602038014       17.3381887980    0   0   0
Al              11.4551000000        4.9602038014       17.3381887980    0   0   0
Al               4.2956625000        7.4403057022       17.3381887980    0   0   0
Al               7.1594375000        7.4403057022       17.3381887980    0   0   0
Al              10.0232125000        7.4403057022       17.3381887980    0   0   0
Al              12.8869875000        7.4403057022       17.3381887980    0   0   0
Al               1.4318551124        0.8265113193       19.6741501014
Al               4.2956298893        0.8265110984       19.6741500595
Al               7.1594049026        0.8265109467       19.6741501620
Al              10.0231800931        0.8265111270       19.6741501740
Al               2.8637423786        3.3067556426       19.6741117790
Al               5.7275172820        3.3067555725       19.6741119721
Al               8.5912926866        3.3067556149       19.6741120064
Al              11.4550677924        3.3067557323       19.6741118678
Al               4.2956297103        5.7869102601       19.6741296401
Al               7.1594050057        5.7869103528       19.6741297452
Al              10.0231802783        5.7869103294       19.6741296308
Al              12.8869549972        5.7869102027       19.6741295327
Al               5.7275174679        8.2671637397       19.6740715429
Al               8.5912926464        8.2671637894       19.6740714330
Al              11.4550675773        8.2671635383       19.6740713534
Al              14.3188423724        8.2671634944       19.6740714177
Al              11.4551347564        1.6532862427       22.0047840775
Al               2.8638095336        1.6532862491       22.0047840089
Al               5.7275844330        1.6532860257       22.0047840930
Al               8.5913596696        1.6532860496       22.0047841622
Al              12.8870221152        4.1335107405       22.0047917062
Al               4.2956967924        4.1335106818       22.0047917969
Al               7.1594720532        4.1335106186       22.0047919302
Al              10.0232473608        4.1335107161       22.0047918318
Al              14.3189094097        6.6136537638       22.0047898045
Al               5.7275844179        6.6136538671       22.0047898888
Al               8.5913597774        6.6136539484       22.0047898680
Al              11.4551347902        6.6136538051       22.0047897448
Al              15.7507969978        9.0939104625       22.0047729676
Al               7.1594721126        9.0939106964       22.0047729185
Al              10.0232471287        9.0939105340       22.0047728500
Al              12.8870220709        9.0939103356       22.0047728969
Al               0.0000058772       -0.0001564201       24.3672920626
Al               2.8637808178       -0.0001563744       24.3672920602
Al               5.7275558596       -0.0001565238       24.3672920649
Al               8.5913308805       -0.0001565679       24.3672921188
Al               1.4318934012        2.4800824943       24.3673385057
Al               4.2956682103        2.4800824490       24.3673385406
Al               7.1594433351        2.4800823055       24.3673387128
Al              10.0232185209        2.4800824098       24.3673385912
Al               2.8637807597        4.9602242566       24.3673524739
Al               5.7275556477        4.9602242156       24.3673526209
Al               8.5913309678        4.9602242468       24.3673527039
Al              11.4551060503        4.9602242331       24.3673525624
Al               4.2956682092        7.4404482922       24.3673438009
Al               7.1594432781        7.4404483585       24.3673438455
Al              10.0232184723        7.4404483188       24.3673437648
Al              12.8869933777        7.4404481760       24.3673437294



     Writing config-only to output data dir ./tmp/al111_4x4.save/ :
     XML data file
     NEW-OLD atomic charge density approx. for the potential

     negative rho (up, down):  3.566E-05 0.000E+00

     total cpu time spent up to now is    17261.4 secs

     Self-consistent Calculation

     iteration #  1     ecut=    60.00 Ry     beta= 0.30
     Davidson diagonalization with overlap
     ethr =  1.00E-06,  avg # of iterations =  2.0

     Threshold (ethr) on eigenvalues was too large:
     Diagonalizing with lowered threshold

     Davidson diagonalization with overlap
     ethr =  3.21E-09,  avg # of iterations =  6.7

     negative rho (up, down):  3.561E-05 0.000E+00

     total cpu time spent up to now is    17569.7 secs

     total energy              =   -3159.35068785 Ry
     estimated scf accuracy    <       0.00000929 Ry

     iteration #  2     ecut=    60.00 Ry     beta= 0.30
     Davidson diagonalization with overlap
     ethr =  3.87E-09,  avg # of iterations =  7.3

     negative rho (up, down):  3.559E-05 0.000E+00

     total cpu time spent up to now is    17740.3 secs

     total energy              =   -3159.35066470 Ry
     estimated scf accuracy    <       0.00139549 Ry

     iteration #  3     ecut=    60.00 Ry     beta= 0.30
     Davidson diagonalization with overlap
     ethr =  3.87E-09,  avg # of iterations =  6.9

     negative rho (up, down):  3.558E-05 0.000E+00

     total cpu time spent up to now is    17894.3 secs

     total energy              =   -3159.35069137 Ry
     estimated scf accuracy    <       0.00000248 Ry

     iteration #  4     ecut=    60.00 Ry     beta= 0.30
     Davidson diagonalization with overlap
     ethr =  1.03E-09,  avg # of iterations =  2.5

     negative rho (up, down):  3.557E-05 0.000E+00

     total cpu time spent up to now is    18031.2 secs

     total energy              =   -3159.35069169 Ry
     estimated scf accuracy    <       0.00000016 Ry

     iteration #  5     ecut=    60.00 Ry     beta= 0.30
     Davidson diagonalization with overlap
     ethr =  6.51E-11,  avg # of iterations =  5.5

     negative rho (up, down):  3.556E-05 0.000E+00

     total cpu time spent up to now is    18198.6 secs

     total energy              =   -3159.35069171 Ry
     estimated scf accuracy    <       0.00000023 Ry

     iteration #  6     ecut=    60.00 Ry     beta= 0.30
     Davidson diagonalization with overlap
     ethr =  6.51E-11,  avg # of iterations =  3.0

     negative rho (up, down):  3.556E-05 0.000E+00

     total cpu time spent up to now is    18332.7 secs

     total energy              =   -3159.35069169 Ry
     estimated scf accuracy    <       0.00000009 Ry

     iteration #  7     ecut=    60.00 Ry     beta= 0.30
     Davidson diagonalization with overlap
     ethr =  3.57E-11,  avg # of iterations =  2.0

     negative rho (up, down):  3.555E-05 0.000E+00

     total cpu time spent up to now is    18461.5 secs

     total energy              =   -3159.35069169 Ry
     estimated scf accuracy    <       0.00000002 Ry

     iteration #  8     ecut=    60.00 Ry     beta= 0.30
     Davidson diagonalization with overlap
     ethr =  9.40E-12,  avg # of iterations =  2.6

     negative rho (up, down):  3.555E-05 0.000E+00

     total cpu time spent up to now is    18587.1 secs

     total energy              =   -3159.35069169 Ry
     estimated scf accuracy    <          7.6E-09 Ry

     iteration #  9     ecut=    60.00 Ry     beta= 0.30
     Davidson diagonalization with overlap
     ethr =  3.16E-12,  avg # of iterations =  6.6

     negative rho (up, down):  3.555E-05 0.000E+00

     total cpu time spent up to now is    18775.4 secs

     total energy              =   -3159.35069169 Ry
     estimated scf accuracy    <       0.00000004 Ry

     iteration # 10     ecut=    60.00 Ry     beta= 0.30
     Davidson diagonalization with overlap
     ethr =  3.16E-12,  avg # of iterations =  2.0

     negative rho (up, down):  3.555E-05 0.000E+00

     total cpu time spent up to now is    18910.4 secs

     total energy              =   -3159.35069169 Ry
     estimated scf accuracy    <          9.1E-09 Ry

     iteration # 11     ecut=    60.00 Ry     beta= 0.30
     Davidson diagonalization with overlap
     ethr =  3.16E-12,  avg # of iterations =  5.0

     negative rho (up, down):  3.555E-05 0.000E+00

     total cpu time spent up to now is    19070.9 secs

     total energy              =   -3159.35069169 Ry
     estimated scf accuracy    <          5.5E-09 Ry

     iteration # 12     ecut=    60.00 Ry     beta= 0.30
     Davidson diagonalization with overlap
     ethr =  2.29E-12,  avg # of iterations =  2.0

     negative rho (up, down):  3.555E-05 0.000E+00

     total cpu time spent up to now is    19198.1 secs

     total energy              =   -3159.35069169 Ry
     estimated scf accuracy    <          6.0E-10 Ry

     iteration # 13     ecut=    60.00 Ry     beta= 0.30
     Davidson diagonalization with overlap
     ethr =  2.48E-13,  avg # of iterations =  3.8

     negative rho (up, down):  3.555E-05 0.000E+00

     total cpu time spent up to now is    19331.1 secs

     total energy              =   -3159.35069169 Ry
     estimated scf accuracy    <          3.3E-10 Ry

     iteration # 14     ecut=    60.00 Ry     beta= 0.30
     Davidson diagonalization with overlap
     ethr =  1.39E-13,  avg # of iterations =  5.1

     negative rho (up, down):  3.555E-05 0.000E+00

     total cpu time spent up to now is    19498.9 secs

     total energy              =   -3159.35069169 Ry
     estimated scf accuracy    <          3.9E-10 Ry

     iteration # 15     ecut=    60.00 Ry     beta= 0.30
     Davidson diagonalization with overlap
     ethr =  1.39E-13,  avg # of iterations =  1.9

     negative rho (up, down):  3.555E-05 0.000E+00

     total cpu time spent up to now is    19622.2 secs

     End of self-consistent calculation

          k = 0.0000 0.0000 0.0000 (237007 PWs)   bands (ev):

   -11.3844 -10.6708  -9.8895  -9.8894  -9.8894  -9.8894  -9.8892  -9.8892
    -9.5594  -9.1818  -9.1818  -9.1818  -9.1817  -9.1815  -9.1815  -8.0795
    -8.0794  -8.0794  -8.0794  -8.0792  -8.0792  -8.0548  -6.9465  -6.9465
    -6.9464  -6.9464  -6.9461  -6.9461  -6.5864  -6.5864  -6.5864  -6.5863
    -6.5861  -6.5861  -6.2520  -6.2520  -6.2520  -6.2520  -6.2517  -6.2517
    -6.1455  -5.5154  -5.5151  -5.5150  -5.4883  -5.4880  -5.4879  -5.1738
    -5.1738  -5.1737  -5.1737  -5.1735  -5.1735  -4.8342  -4.8339  -4.8338
    -4.8037  -4.8032  -4.8032  -4.6837  -4.6837  -4.6837  -4.6836  -4.6834
    -4.6834  -4.0991  -3.9117  -3.9114  -3.9113  -3.7265  -3.7265  -3.7265
    -3.7265  -3.7262  -3.7262  -3.6331  -3.6327  -3.6327  -2.6968  -2.6968
    -2.6968  -2.6968  -2.6966  -2.6966  -2.3940  -2.3937  -2.3937  -2.0124
    -2.0124  -2.0123  -2.0123  -2.0122  -2.0122  -1.9468  -1.9463  -1.9463
    -1.6816  -1.3208  -1.3208  -1.3207  -1.3207  -1.3206  -1.3206  -1.1968
    -1.1968  -1.1968  -1.1968  -1.1967  -1.1967  -0.6421  -0.6421  -0.6420
    -0.6419  -0.6419  -0.6419  -0.3316  -0.3316  -0.3316  -0.3315  -0.3314
    -0.3314  -0.3292  -0.3292  -0.3291  -0.3291  -0.3290  -0.3290  -0.3276
    -0.3272  -0.3271  -0.2617  -0.2613  -0.2613   0.2851   0.2851   0.2851
     0.2851   0.2852   0.2853   0.3912   0.3913   0.3913   0.3914   0.3914

          k = 0.0000 0.2887 0.0000 (236896 PWs)   bands (ev):

   -11.2905 -10.5773 -10.5415 -10.1684 -10.1684  -9.8312  -9.4664  -9.4596
    -9.4596  -9.4254  -9.4254  -9.0554  -8.7248  -8.7196  -8.7196  -8.3555
    -8.3555  -8.3512  -7.9625  -7.9510  -7.9510  -7.6203  -7.6203  -7.2545
    -7.2516  -7.2516  -7.2264  -6.8601  -6.8601  -6.8560  -6.8553  -6.8553
    -6.1634  -6.1634  -6.1627  -6.1615  -6.1615  -6.1316  -6.1316  -6.1309
    -6.1309  -6.0532  -5.7698  -5.7693  -5.7693  -5.4434  -5.4434  -5.3190
    -5.0894  -5.0849  -5.0848  -5.0825  -5.0825  -4.9549  -4.9549  -4.6980
    -4.6980  -4.6932  -4.6932  -4.3866  -4.3865  -4.2348  -4.2348  -4.0281
    -4.0281  -4.0238  -4.0238  -4.0110  -4.0012  -3.8817  -3.6860  -3.6476
    -3.6476  -3.3080  -3.2861  -3.1818  -3.1818  -2.9578  -2.9578  -2.9429
    -2.9429  -2.8442  -2.8442  -2.6542  -2.6542  -2.6057  -2.6056  -2.5994
    -2.5993  -2.2650  -2.2650  -2.2403  -2.2403  -2.2088  -2.1134  -2.1133
    -1.9335  -1.5938  -1.5577  -1.5577  -1.5048  -1.4924  -1.4924  -1.3789
    -1.3788  -1.2253  -1.2253  -1.0772  -1.0772  -0.9664  -0.9664  -0.9004
    -0.8760  -0.8759  -0.7027  -0.7026  -0.6748  -0.6466  -0.6466  -0.5640
    -0.5640  -0.5014  -0.3771  -0.3771  -0.0341  -0.0341  -0.0054  -0.0054
     0.0448   0.0448   0.2097   0.2446   0.2533   0.2533   0.4089   0.4089
     0.4591   0.4592   0.5369   0.5369   0.6023   0.6023   0.7420   0.7420

          k = 0.0000-0.5773 0.0000 (236880 PWs)   bands (ev):

   -11.0092 -11.0090 -10.2972 -10.2969 -10.2616 -10.2616  -9.5524  -9.5524
    -9.1879  -9.1877  -8.7785  -8.7785  -8.7784  -8.7784  -8.4477  -8.4477
    -8.0754  -8.0754  -8.0753  -8.0753  -8.0429  -8.0428  -7.6860  -7.6857
    -7.3431  -7.3431  -6.9807  -6.9807  -6.9806  -6.9806  -6.9515  -6.9515
    -6.5832  -6.5832  -6.5830  -6.5829  -6.2546  -6.2545  -5.8914  -5.8914
    -5.8911  -5.8911  -5.7771  -5.7768  -5.4989  -5.4989  -5.4988  -5.4988
    -5.0456  -5.0456  -4.8210  -4.8210  -4.8208  -4.8208  -4.7857  -4.7857
    -4.4434  -4.4434  -4.4121  -4.4121  -3.7774  -3.7774  -3.7472  -3.7469
    -3.7354  -3.7354  -3.7353  -3.7353  -3.7272  -3.7272  -3.6156  -3.6156
    -3.6156  -3.6156  -3.4227  -3.4226  -3.4226  -3.4223  -3.0450  -3.0450
    -3.0214  -3.0214  -3.0213  -3.0212  -2.9889  -2.9889  -2.8690  -2.8690
    -2.5890  -2.5890  -2.2770  -2.2769  -1.9473  -1.9473  -1.9472  -1.9471
    -1.6758  -1.6758  -1.6757  -1.6757  -1.6443  -1.6443  -1.5435  -1.5434
    -1.4230  -1.4230  -1.3316  -1.3314  -1.2560  -1.2560  -1.2558  -1.2558
    -0.9771  -0.9771  -0.9657  -0.9657  -0.8338  -0.8337  -0.6450  -0.6450
    -0.4393  -0.4392  -0.4282  -0.4282  -0.4282  -0.4282  -0.2416  -0.2416
    -0.2415  -0.2415   0.2564   0.2564   0.4662   0.4662   0.4663   0.4663
     0.4815   0.4815   0.4817   0.4817   0.9573   0.9576   0.9775   0.9775

          k = 0.2500-0.1443 0.0000 (236890 PWs)   bands (ev):

   -11.2905 -10.5773 -10.5414 -10.1685 -10.1685  -9.8312  -9.4664  -9.4597
    -9.4597  -9.4255  -9.4253  -9.0553  -8.7248  -8.7197  -8.7195  -8.3556
    -8.3556  -8.3510  -7.9625  -7.9510  -7.9508  -7.6204  -7.6203  -7.2544
    -7.2516  -7.2514  -7.2263  -6.8601  -6.8601  -6.8557  -6.8556  -6.8555
    -6.1634  -6.1632  -6.1624  -6.1618  -6.1617  -6.1317  -6.1315  -6.1312
    -6.1310  -6.0532  -5.7696  -5.7693  -5.7689  -5.4438  -5.4435  -5.3189
    -5.0891  -5.0852  -5.0851  -5.0825  -5.0822  -4.9549  -4.9549  -4.6984
    -4.6979  -4.6932  -4.6930  -4.3869  -4.3866  -4.2349  -4.2348  -4.0285
    -4.0280  -4.0237  -4.0234  -4.0110  -4.0008  -3.8816  -3.6856  -3.6479
    -3.6478  -3.3079  -3.2857  -3.1821  -3.1818  -2.9579  -2.9578  -2.9427
    -2.9424  -2.8443  -2.8441  -2.6541  -2.6539  -2.6061  -2.6057  -2.5996
    -2.5991  -2.2651  -2.2649  -2.2401  -2.2398  -2.2084  -2.1136  -2.1132
    -1.9334  -1.5938  -1.5583  -1.5581  -1.5044  -1.4928  -1.4923  -1.3792
    -1.3787  -1.2252  -1.2250  -1.0775  -1.0772  -0.9666  -0.9666  -0.9004
    -0.8764  -0.8760  -0.7030  -0.7024  -0.6743  -0.6471  -0.6468  -0.5641
    -0.5641  -0.5008  -0.3772  -0.3771  -0.0343  -0.0341  -0.0061  -0.0057
     0.0446   0.0449   0.2103   0.2449   0.2532   0.2533   0.4087   0.4090
     0.4587   0.4592   0.5372   0.5376   0.6022   0.6025   0.7418   0.7419

          k = 0.2500-0.7217 0.0000 (236847 PWs)   bands (ev):

   -11.1028 -10.7284 -10.7283 -10.3904 -10.0173 -10.0173  -9.6108  -9.6107
    -9.2806  -8.9098  -8.9098  -8.9042  -8.9041  -8.8707  -8.5022  -8.5020
    -8.1672  -7.8038  -7.8037  -7.8003  -7.8002  -7.7780  -7.7678  -7.7676
    -7.4099  -7.4099  -7.4024  -7.4021  -7.0718  -7.0693  -7.0691  -6.7078
    -6.7076  -6.7058  -6.7055  -6.3132  -6.3131  -5.9830  -5.9828  -5.8689
    -5.6238  -5.6235  -5.5898  -5.5894  -5.5888  -5.5018  -5.5017  -5.2462
    -5.2302  -5.2300  -5.2179  -4.9060  -4.9056  -4.5690  -4.5320  -4.5181
    -4.5179  -4.5152  -4.4132  -4.4131  -4.1753  -4.1751  -4.1640  -4.1638
    -3.8560  -3.8555  -3.8425  -3.8350  -3.7014  -3.6484  -3.4969  -3.4966
    -3.4834  -3.4834  -3.3679  -3.3641  -3.3640  -3.1276  -3.1271  -3.1159
    -3.0942  -2.8209  -2.7296  -2.7295  -2.6675  -2.6672  -2.6281  -2.6278
    -2.4876  -2.4355  -2.4354  -2.4085  -2.1342  -2.0798  -2.0794  -2.0144
    -2.0142  -1.9909  -1.9904  -1.7903  -1.7503  -1.6859  -1.5761  -1.5757
    -1.4187  -1.2849  -1.2847  -1.2490  -1.1927  -1.1922  -1.1572  -1.1567
    -1.0714  -1.0714  -1.0506  -0.8899  -0.8896  -0.5781  -0.5780  -0.5242
    -0.5235  -0.5227  -0.5224  -0.2631  -0.2628  -0.1824  -0.1822  -0.1161
    -0.0848  -0.0847  -0.0380   0.0536   0.0540   0.1803   0.1808   0.2003
     0.3845   0.4855   0.4861   0.5851   0.6332   0.6333   0.9084   0.9350

          k =-0.5000 0.2887 0.0000 (236880 PWs)   bands (ev):

   -11.0091 -11.0091 -10.2970 -10.2970 -10.2616 -10.2616  -9.5525  -9.5525
    -9.1878  -9.1878  -8.7785  -8.7785  -8.7783  -8.7783  -8.4478  -8.4478
    -8.0754  -8.0754  -8.0752  -8.0752  -8.0426  -8.0426  -7.6859  -7.6859
    -7.3429  -7.3429  -6.9807  -6.9807  -6.9805  -6.9805  -6.9516  -6.9516
    -6.5834  -6.5834  -6.5832  -6.5832  -6.2543  -6.2543  -5.8916  -5.8916
    -5.8914  -5.8914  -5.7769  -5.7769  -5.4989  -5.4989  -5.4987  -5.4987
    -5.0457  -5.0457  -4.8213  -4.8213  -4.8211  -4.8211  -4.7855  -4.7855
    -4.4431  -4.4431  -4.4118  -4.4118  -3.7772  -3.7772  -3.7470  -3.7470
    -3.7357  -3.7357  -3.7352  -3.7352  -3.7268  -3.7268  -3.6157  -3.6157
    -3.6155  -3.6155  -3.4229  -3.4229  -3.4226  -3.4226  -3.0451  -3.0451
    -3.0217  -3.0217  -3.0212  -3.0212  -2.9887  -2.9887  -2.8688  -2.8688
    -2.5887  -2.5887  -2.2764  -2.2764  -1.9476  -1.9476  -1.9471  -1.9471
    -1.6758  -1.6758  -1.6756  -1.6756  -1.6448  -1.6448  -1.5429  -1.5429
    -1.4229  -1.4229  -1.3315  -1.3315  -1.2564  -1.2564  -1.2560  -1.2560
    -0.9770  -0.9770  -0.9661  -0.9661  -0.8335  -0.8335  -0.6451  -0.6451
    -0.4386  -0.4386  -0.4286  -0.4286  -0.4280  -0.4280  -0.2422  -0.2422
    -0.2417  -0.2417   0.2561   0.2561   0.4656   0.4656   0.4661   0.4661
     0.4813   0.4813   0.4814   0.4814   0.9579   0.9579   0.9777   0.9777

          k =-0.5000 0.5773 0.0000 (236845 PWs)   bands (ev):

   -11.1028 -10.7284 -10.7282 -10.3903 -10.0175 -10.0172  -9.6109  -9.6108
    -9.2806  -8.9099  -8.9097  -8.9043  -8.9042  -8.8705  -8.5021  -8.5019
    -8.1670  -7.8038  -7.8037  -7.8002  -7.7999  -7.7780  -7.7679  -7.7679
    -7.4101  -7.4098  -7.4022  -7.4021  -7.0716  -7.0694  -7.0694  -6.7077
    -6.7075  -6.7056  -6.7055  -6.3132  -6.3131  -5.9831  -5.9831  -5.8689
    -5.6236  -5.6235  -5.5897  -5.5896  -5.5886  -5.5019  -5.5016  -5.2465
    -5.2301  -5.2298  -5.2183  -4.9059  -4.9058  -4.5693  -4.5325  -4.5182
    -4.5182  -4.5148  -4.4132  -4.4132  -4.1752  -4.1751  -4.1637  -4.1634
    -3.8558  -3.8558  -3.8421  -3.8350  -3.7013  -3.6487  -3.4965  -3.4962
    -3.4835  -3.4833  -3.3682  -3.3641  -3.3638  -3.1271  -3.1270  -3.1160
    -3.0944  -2.8205  -2.7297  -2.7297  -2.6672  -2.6671  -2.6278  -2.6277
    -2.4877  -2.4355  -2.4355  -2.4087  -2.1345  -2.0795  -2.0794  -2.0149
    -2.0148  -1.9905  -1.9904  -1.7903  -1.7501  -1.6863  -1.5758  -1.5756
    -1.4187  -1.2854  -1.2853  -1.2491  -1.1921  -1.1920  -1.1568  -1.1567
    -1.0715  -1.0713  -1.0504  -0.8895  -0.8892  -0.5784  -0.5783  -0.5237
    -0.5236  -0.5226  -0.5225  -0.2629  -0.2629  -0.1829  -0.1828  -0.1165
    -0.0848  -0.0848  -0.0383   0.0534   0.0535   0.1808   0.1809   0.2002
     0.3846   0.4860   0.4860   0.5848   0.6330   0.6332   0.9088   0.9350

          k =-0.2500-0.1443 0.0000 (236890 PWs)   bands (ev):

   -11.2905 -10.5773 -10.5414 -10.1685 -10.1685  -9.8312  -9.4664  -9.4597
    -9.4597  -9.4255  -9.4253  -9.0553  -8.7248  -8.7197  -8.7195  -8.3556
    -8.3556  -8.3510  -7.9625  -7.9510  -7.9508  -7.6204  -7.6203  -7.2544
    -7.2516  -7.2514  -7.2263  -6.8601  -6.8601  -6.8557  -6.8556  -6.8555
    -6.1634  -6.1632  -6.1624  -6.1618  -6.1617  -6.1317  -6.1315  -6.1312
    -6.1310  -6.0532  -5.7696  -5.7693  -5.7689  -5.4438  -5.4435  -5.3189
    -5.0891  -5.0852  -5.0851  -5.0825  -5.0822  -4.9549  -4.9549  -4.6984
    -4.6979  -4.6932  -4.6930  -4.3869  -4.3866  -4.2349  -4.2348  -4.0285
    -4.0280  -4.0237  -4.0234  -4.0110  -4.0008  -3.8816  -3.6856  -3.6479
    -3.6478  -3.3079  -3.2857  -3.1821  -3.1818  -2.9579  -2.9578  -2.9427
    -2.9424  -2.8443  -2.8441  -2.6541  -2.6539  -2.6061  -2.6057  -2.5996
    -2.5991  -2.2651  -2.2649  -2.2401  -2.2398  -2.2084  -2.1136  -2.1132
    -1.9334  -1.5938  -1.5583  -1.5581  -1.5044  -1.4928  -1.4924  -1.3792
    -1.3787  -1.2252  -1.2250  -1.0775  -1.0772  -0.9666  -0.9666  -0.9004
    -0.8764  -0.8760  -0.7030  -0.7024  -0.6743  -0.6471  -0.6468  -0.5641
    -0.5641  -0.5008  -0.3772  -0.3771  -0.0343  -0.0341  -0.0061  -0.0057
     0.0446   0.0449   0.2103   0.2449   0.2533   0.2533   0.4087   0.4090
     0.4587   0.4592   0.5373   0.5376   0.6022   0.6025   0.7418   0.7419

          k =-0.2500-0.7217 0.0000 (236847 PWs)   bands (ev):

   -11.1028 -10.7284 -10.7283 -10.3904 -10.0173 -10.0173  -9.6108  -9.6107
    -9.2806  -8.9098  -8.9098  -8.9042  -8.9041  -8.8707  -8.5022  -8.5020
    -8.1672  -7.8037  -7.8037  -7.8003  -7.8002  -7.7780  -7.7678  -7.7676
    -7.4099  -7.4099  -7.4024  -7.4021  -7.0718  -7.0693  -7.0691  -6.7078
    -6.7076  -6.7058  -6.7055  -6.3132  -6.3131  -5.9830  -5.9828  -5.8689
    -5.6238  -5.6235  -5.5898  -5.5894  -5.5888  -5.5018  -5.5017  -5.2462
    -5.2302  -5.2300  -5.2179  -4.9060  -4.9056  -4.5691  -4.5320  -4.5181
    -4.5179  -4.5152  -4.4132  -4.4131  -4.1753  -4.1751  -4.1640  -4.1638
    -3.8560  -3.8555  -3.8425  -3.8350  -3.7014  -3.6484  -3.4969  -3.4966
    -3.4834  -3.4834  -3.3679  -3.3641  -3.3640  -3.1276  -3.1271  -3.1159
    -3.0942  -2.8209  -2.7296  -2.7295  -2.6675  -2.6672  -2.6281  -2.6278
    -2.4876  -2.4355  -2.4354  -2.4085  -2.1341  -2.0798  -2.0795  -2.0144
    -2.0142  -1.9909  -1.9905  -1.7903  -1.7503  -1.6859  -1.5761  -1.5757
    -1.4187  -1.2848  -1.2847  -1.2490  -1.1927  -1.1921  -1.1572  -1.1567
    -1.0714  -1.0714  -1.0506  -0.8899  -0.8896  -0.5781  -0.5780  -0.5242
    -0.5235  -0.5227  -0.5224  -0.2631  -0.2628  -0.1824  -0.1822  -0.1161
    -0.0848  -0.0847  -0.0380   0.0536   0.0540   0.1803   0.1808   0.2003
     0.3845   0.4855   0.4861   0.5851   0.6332   0.6334   0.9084   0.9350

          k = 0.5000 0.2887 0.0000 (236880 PWs)   bands (ev):

   -11.0091 -11.0091 -10.2970 -10.2970 -10.2616 -10.2616  -9.5525  -9.5525
    -9.1878  -9.1878  -8.7785  -8.7785  -8.7783  -8.7783  -8.4478  -8.4478
    -8.0754  -8.0754  -8.0752  -8.0752  -8.0426  -8.0426  -7.6859  -7.6859
    -7.3429  -7.3429  -6.9807  -6.9807  -6.9805  -6.9805  -6.9516  -6.9516
    -6.5834  -6.5834  -6.5832  -6.5832  -6.2543  -6.2543  -5.8916  -5.8916
    -5.8914  -5.8914  -5.7769  -5.7769  -5.4989  -5.4989  -5.4987  -5.4987
    -5.0457  -5.0457  -4.8213  -4.8213  -4.8211  -4.8211  -4.7855  -4.7855
    -4.4431  -4.4431  -4.4118  -4.4118  -3.7772  -3.7772  -3.7470  -3.7470
    -3.7357  -3.7357  -3.7352  -3.7352  -3.7268  -3.7268  -3.6157  -3.6157
    -3.6155  -3.6155  -3.4229  -3.4229  -3.4226  -3.4226  -3.0451  -3.0451
    -3.0217  -3.0217  -3.0212  -3.0212  -2.9887  -2.9887  -2.8687  -2.8687
    -2.5887  -2.5887  -2.2764  -2.2764  -1.9476  -1.9476  -1.9471  -1.9471
    -1.6758  -1.6758  -1.6756  -1.6756  -1.6448  -1.6448  -1.5429  -1.5429
    -1.4228  -1.4228  -1.3315  -1.3315  -1.2564  -1.2564  -1.2560  -1.2560
    -0.9770  -0.9770  -0.9661  -0.9661  -0.8335  -0.8335  -0.6451  -0.6451
    -0.4386  -0.4386  -0.4286  -0.4286  -0.4280  -0.4280  -0.2422  -0.2422
    -0.2417  -0.2417   0.2561   0.2561   0.4656   0.4656   0.4661   0.4661
     0.4813   0.4813   0.4814   0.4814   0.9579   0.9585   0.9777   0.9777

     the Fermi energy is    -0.5232 ev

!    total energy              =   -3159.35069169 Ry
     total all-electron energy =    -38850.773218 Ry
     estimated scf accuracy    <          4.9E-11 Ry
     smearing contrib. (-TS)   =      -0.00921975 Ry
     internal energy E=F+TS    =   -3159.34147194 Ry

     The total energy is F=E-TS. E is the sum of the following terms:
     one-electron contribution =  -10704.90945379 Ry
     hartree contribution      =    5405.09791922 Ry
     xc contribution           =    -204.30080792 Ry
     ewald contribution        =    5119.03084807 Ry
     one-center paw contrib.   =   -2774.25997752 Ry

     convergence has been achieved in  15 iterations

     negative rho (up, down):  3.555E-05 0.000E+00

     Forces acting on atoms (cartesian axes, Ry/au):

     atom    1 type  1   force =    -0.00000122   -0.00002780   -0.00266388
     atom    2 type  1   force =    -0.00000122   -0.00002780   -0.00266388
     atom    3 type  1   force =    -0.00000122   -0.00002779   -0.00266389
     atom    4 type  1   force =    -0.00000121   -0.00002780   -0.00266388
     atom    5 type  1   force =    -0.00000121   -0.00000121   -0.00266207
     atom    6 type  1   force =    -0.00000122   -0.00000121   -0.00266207
     atom    7 type  1   force =    -0.00000122   -0.00000121   -0.00266207
     atom    8 type  1   force =    -0.00000122   -0.00000121   -0.00266208
     atom    9 type  1   force =    -0.00000121   -0.00000053   -0.00266170
     atom   10 type  1   force =    -0.00000122   -0.00000053   -0.00266170
     atom   11 type  1   force =    -0.00000123   -0.00000053   -0.00266170
     atom   12 type  1   force =    -0.00000122   -0.00000053   -0.00266171
     atom   13 type  1   force =    -0.00000121    0.00003049   -0.00264994
     atom   14 type  1   force =    -0.00000122    0.00003050   -0.00264994
     atom   15 type  1   force =    -0.00000122    0.00003050   -0.00264995
     atom   16 type  1   force =    -0.00000121    0.00003050   -0.00264995
     atom   17 type  1   force =     0.00000052   -0.00003535    0.00224957
     atom   18 type  1   force =     0.00000051   -0.00003535    0.00224956
     atom   19 type  1   force =     0.00000052   -0.00003535    0.00224956
     atom   20 type  1   force =     0.00000053   -0.00003535    0.00224957
     atom   21 type  1   force =     0.00000052   -0.00000262    0.00226071
     atom   22 type  1   force =     0.00000052   -0.00000261    0.00226072
     atom   23 type  1   force =     0.00000052   -0.00000261    0.00226075
     atom   24 type  1   force =     0.00000053   -0.00000262    0.00226074
     atom   25 type  1   force =     0.00000053    0.00000060    0.00225955
     atom   26 type  1   force =     0.00000052    0.00000060    0.00225959
     atom   27 type  1   force =     0.00000051    0.00000060    0.00225959
     atom   28 type  1   force =     0.00000052    0.00000060    0.00225955
     atom   29 type  1   force =     0.00000053    0.00002967    0.00225891
     atom   30 type  1   force =     0.00000051    0.00002968    0.00225892
     atom   31 type  1   force =     0.00000051    0.00002967    0.00225890
     atom   32 type  1   force =     0.00000053    0.00002967    0.00225890
     atom   33 type  1   force =     0.00000217    0.00000727   -0.00056820
     atom   34 type  1   force =     0.00000221    0.00000731   -0.00056819
     atom   35 type  1   force =     0.00000221    0.00000734   -0.00056820
     atom   36 type  1   force =     0.00000218    0.00000730   -0.00056820
     atom   37 type  1   force =     0.00000222   -0.00000525   -0.00056145
     atom   38 type  1   force =     0.00000223   -0.00000523   -0.00056146
     atom   39 type  1   force =     0.00000216   -0.00000524   -0.00056146
     atom   40 type  1   force =     0.00000214   -0.00000527   -0.00056146
     atom   41 type  1   force =     0.00000225    0.00000642   -0.00056340
     atom   42 type  1   force =     0.00000219    0.00000641   -0.00056339
     atom   43 type  1   force =     0.00000214    0.00000641   -0.00056339
     atom   44 type  1   force =     0.00000220    0.00000643   -0.00056339
     atom   45 type  1   force =     0.00000220   -0.00000250   -0.00056351
     atom   46 type  1   force =     0.00000216   -0.00000251   -0.00056349
     atom   47 type  1   force =     0.00000218   -0.00000246   -0.00056348
     atom   48 type  1   force =     0.00000222   -0.00000246   -0.00056350
     atom   49 type  1   force =    -0.00000192    0.00000323    0.00066987
     atom   50 type  1   force =    -0.00000188    0.00000323    0.00066988
     atom   51 type  1   force =    -0.00000188    0.00000326    0.00066988
     atom   52 type  1   force =    -0.00000191    0.00000326    0.00066987
     atom   53 type  1   force =    -0.00000190   -0.00000553    0.00067042
     atom   54 type  1   force =    -0.00000185   -0.00000553    0.00067040
     atom   55 type  1   force =    -0.00000189   -0.00000551    0.00067040
     atom   56 type  1   force =    -0.00000194   -0.00000552    0.00067041
     atom   57 type  1   force =    -0.00000187    0.00000952    0.00066807
     atom   58 type  1   force =    -0.00000187    0.00000951    0.00066806
     atom   59 type  1   force =    -0.00000192    0.00000950    0.00066807
     atom   60 type  1   force =    -0.00000193    0.00000952    0.00066808
     atom   61 type  1   force =    -0.00000189   -0.00000521    0.00066807
     atom   62 type  1   force =    -0.00000190   -0.00000525    0.00066808
     atom   63 type  1   force =    -0.00000190   -0.00000522    0.00066809
     atom   64 type  1   force =    -0.00000190   -0.00000519    0.00066809
     atom   65 type  1   force =     0.00000040    0.00000019    0.00030016
     atom   66 type  1   force =     0.00000042    0.00000018    0.00030015
     atom   67 type  1   force =     0.00000040    0.00000019    0.00030015
     atom   68 type  1   force =     0.00000040    0.00000020    0.00030016
     atom   69 type  1   force =     0.00000040   -0.00000685    0.00029601
     atom   70 type  1   force =     0.00000042   -0.00000685    0.00029601
     atom   71 type  1   force =     0.00000041   -0.00000683    0.00029598
     atom   72 type  1   force =     0.00000039   -0.00000684    0.00029600
     atom   73 type  1   force =     0.00000041    0.00000523    0.00029798
     atom   74 type  1   force =     0.00000043    0.00000523    0.00029796
     atom   75 type  1   force =     0.00000039    0.00000523    0.00029795
     atom   76 type  1   force =     0.00000038    0.00000523    0.00029797
     atom   77 type  1   force =     0.00000042    0.00000014    0.00029482
     atom   78 type  1   force =     0.00000042    0.00000013    0.00029481
     atom   79 type  1   force =     0.00000039    0.00000014    0.00029481
     atom   80 type  1   force =     0.00000040    0.00000016    0.00029482

     Total force =     0.003697     Total SCF correction =     0.000011


     Computing stress (Cartesian axis) and pressure


     negative rho (up, down):  3.555E-05 0.000E+00
          total   stress  (Ry/bohr**3)                   (kbar)     P=       -5.93
  -0.00006549   0.00000000   0.00000000           -9.63        0.00        0.00
   0.00000000  -0.00006552   0.00000000            0.00       -9.64        0.00
   0.00000000   0.00000000   0.00001008            0.00        0.00        1.48

     Energy error            =      1.6E-05 Ry
     Gradient error          =      6.7E-04 Ry/Bohr

     bfgs converged in   7 scf cycles and   6 bfgs steps
     (criteria: energy <  1.0E-04 Ry, force <  1.0E-03 Ry/Bohr)

     End of BFGS Geometry Optimization

     Final energy             =   -3159.3506916949 Ry

     File ./tmp/al111_4x4.bfgs deleted, as requested
Begin final coordinates

ATOMIC_POSITIONS (angstrom)
Al              11.4551572755        1.6534343352       14.9998275960    0   0   0
Al               2.8638322755        1.6534343352       14.9998275960    0   0   0
Al               5.7276072755        1.6534343352       14.9998275960    0   0   0
Al               8.5913822755        1.6534343352       14.9998275960    0   0   0
Al              12.8870447755        4.1335362359       14.9998275960    0   0   0
Al               4.2957197755        4.1335362359       14.9998275960    0   0   0
Al               7.1594947755        4.1335362359       14.9998275960    0   0   0
Al              10.0232697755        4.1335362359       14.9998275960    0   0   0
Al              14.3189322755        6.6136381366       14.9998275960    0   0   0
Al               5.7276072755        6.6136381366       14.9998275960    0   0   0
Al               8.5913822755        6.6136381366       14.9998275960    0   0   0
Al              11.4551572755        6.6136381366       14.9998275960    0   0   0
Al              15.7508197755        9.0937400373       14.9998275960    0   0   0
Al               7.1594947755        9.0937400373       14.9998275960    0   0   0
Al              10.0232697755        9.0937400373       14.9998275960    0   0   0
Al              12.8870447755        9.0937400373       14.9998275960    0   0   0
Al               0.0000000000        0.0000000000       17.3381887980    0   0   0
Al               2.8637750000        0.0000000000       17.3381887980    0   0   0
Al               5.7275500000        0.0000000000       17.3381887980    0   0   0
Al               8.5913250000        0.0000000000       17.3381887980    0   0   0
Al               1.4318875000        2.4801019007       17.3381887980    0   0   0
Al               4.2956625000        2.4801019007       17.3381887980    0   0   0
Al               7.1594375000        2.4801019007       17.3381887980    0   0   0
Al              10.0232125000        2.4801019007       17.3381887980    0   0   0
Al               2.8637750000        4.9602038014       17.3381887980    0   0   0
Al               5.7275500000        4.9602038014       17.3381887980    0   0   0
Al               8.5913250000        4.9602038014       17.3381887980    0   0   0
Al              11.4551000000        4.9602038014       17.3381887980    0   0   0
Al               4.2956625000        7.4403057022       17.3381887980    0   0   0
Al               7.1594375000        7.4403057022       17.3381887980    0   0   0
Al              10.0232125000        7.4403057022       17.3381887980    0   0   0
Al              12.8869875000        7.4403057022       17.3381887980    0   0   0
Al               1.4318551124        0.8265113193       19.6741501014
Al               4.2956298893        0.8265110984       19.6741500595
Al               7.1594049026        0.8265109467       19.6741501620
Al              10.0231800931        0.8265111270       19.6741501740
Al               2.8637423786        3.3067556426       19.6741117790
Al               5.7275172820        3.3067555725       19.6741119721
Al               8.5912926866        3.3067556149       19.6741120064
Al              11.4550677924        3.3067557323       19.6741118678
Al               4.2956297103        5.7869102601       19.6741296401
Al               7.1594050057        5.7869103528       19.6741297452
Al              10.0231802783        5.7869103294       19.6741296308
Al              12.8869549972        5.7869102027       19.6741295327
Al               5.7275174679        8.2671637397       19.6740715429
Al               8.5912926464        8.2671637894       19.6740714330
Al              11.4550675773        8.2671635383       19.6740713534
Al              14.3188423724        8.2671634944       19.6740714177
Al              11.4551347564        1.6532862427       22.0047840775
Al               2.8638095336        1.6532862491       22.0047840089
Al               5.7275844330        1.6532860257       22.0047840930
Al               8.5913596696        1.6532860496       22.0047841622
Al              12.8870221152        4.1335107405       22.0047917062
Al               4.2956967924        4.1335106818       22.0047917969
Al               7.1594720532        4.1335106186       22.0047919302
Al              10.0232473608        4.1335107161       22.0047918318
Al              14.3189094097        6.6136537638       22.0047898045
Al               5.7275844179        6.6136538671       22.0047898888
Al               8.5913597774        6.6136539484       22.0047898680
Al              11.4551347902        6.6136538051       22.0047897448
Al              15.7507969978        9.0939104625       22.0047729676
Al               7.1594721126        9.0939106964       22.0047729185
Al              10.0232471287        9.0939105340       22.0047728500
Al              12.8870220709        9.0939103356       22.0047728969
Al               0.0000058772       -0.0001564201       24.3672920626
Al               2.8637808178       -0.0001563744       24.3672920602
Al               5.7275558596       -0.0001565238       24.3672920649
Al               8.5913308805       -0.0001565679       24.3672921188
Al               1.4318934012        2.4800824943       24.3673385057
Al               4.2956682103        2.4800824490       24.3673385406
Al               7.1594433351        2.4800823055       24.3673387128
Al              10.0232185209        2.4800824098       24.3673385912
Al               2.8637807597        4.9602242566       24.3673524739
Al               5.7275556477        4.9602242156       24.3673526209
Al               8.5913309678        4.9602242468       24.3673527039
Al              11.4551060503        4.9602242331       24.3673525624
Al               4.2956682092        7.4404482922       24.3673438009
Al               7.1594432781        7.4404483585       24.3673438455
Al              10.0232184723        7.4404483188       24.3673437648
Al              12.8869933777        7.4404481760       24.3673437294
End final coordinates



     Writing all to output data dir ./tmp/al111_4x4.save/ :
     XML data file, charge density, pseudopotentials, collected wavefunctions

     init_run     :     99.52s CPU    103.60s WALL (       1 calls)
     electrons    :  17511.41s CPU  18187.41s WALL (       7 calls)
     update_pot   :     11.79s CPU     12.41s WALL (       6 calls)
     forces       :    294.91s CPU    306.41s WALL (       7 calls)
     stress       :   1117.92s CPU   1143.75s WALL (       7 calls)

     Called by init_run:
     wfcinit      :     92.29s CPU     96.52s WALL (       1 calls)
     potinit      :      1.99s CPU      2.09s WALL (       1 calls)
     hinit0       :      0.97s CPU      1.07s WALL (       1 calls)

     Called by electrons:
     c_bands      :  14847.03s CPU  15267.62s WALL (     122 calls)
     sum_band     :   2244.76s CPU   2399.21s WALL (     122 calls)
     v_of_rho     :     59.46s CPU     70.51s WALL (     124 calls)
     newd         :    202.29s CPU    292.87s WALL (     124 calls)
     PAW_pot      :    168.33s CPU    168.45s WALL (     130 calls)
     mix_rho      :     11.59s CPU     13.05s WALL (     122 calls)

     Called by c_bands:
     init_us_2    :    391.10s CPU    391.16s WALL (    2650 calls)
     cegterg      :  14013.08s CPU  14433.04s WALL (    1220 calls)

     Called by *egterg:
     cdiaghg      :    275.95s CPU    276.22s WALL (    6222 calls)
     h_psi        :   9233.38s CPU   9548.63s WALL (    6342 calls)
     s_psi        :   2445.46s CPU   2446.20s WALL (    6342 calls)
     g_psi        :     15.70s CPU     15.75s WALL (    5112 calls)

     Called by h_psi:
     h_psi:calbec :   2593.14s CPU   2602.19s WALL (    6342 calls)
     vloc_psi     :   4168.59s CPU   4442.29s WALL (    6342 calls)
                                        0.00s GPU  (    6342 calls)
     add_vuspsi   :   2454.07s CPU   2455.97s WALL (    6342 calls)

     General routines
     calbec       :   4486.58s CPU   4502.35s WALL (    8812 calls)
     fft          :     62.93s CPU     68.77s WALL (    1784 calls)
     ffts         :      1.99s CPU      2.25s WALL (     246 calls)
     fftw         :   4169.80s CPU   4496.09s WALL ( 1084050 calls)
     interpolate  :      4.65s CPU      5.07s WALL (     124 calls)

     Parallel routines

     PWSCF        :      5h18m CPU      5h30m WALL


   This run was terminated on:  16:53:35   3Jul2026            

=------------------------------------------------------------------------------=
   JOB DONE.
=------------------------------------------------------------------------------=
