94
Lattice="11.455100087583526 0.0 0.0 5.727550043791763 9.920838347152852 0.0 0.0 0.0 39.35310285308637" Properties=species:S:1:pos:R:3 pbc="T T T"
Al      11.45515728       1.65343434      14.99982760
Al       2.86383228       1.65343434      14.99982760
Al       5.72760728       1.65343434      14.99982760
Al       8.59138228       1.65343434      14.99982760
Al      12.88704478       4.13353624      14.99982760
Al       4.29571978       4.13353624      14.99982760
Al       7.15949478       4.13353624      14.99982760
Al      10.02326978       4.13353624      14.99982760
Al      14.31893228       6.61363814      14.99982760
Al       5.72760728       6.61363814      14.99982760
Al       8.59138228       6.61363814      14.99982760
Al      11.45515728       6.61363814      14.99982760
Al      15.75081978       9.09374004      14.99982760
Al       7.15949478       9.09374004      14.99982760
Al      10.02326978       9.09374004      14.99982760
Al      12.88704478       9.09374004      14.99982760
Al       0.00000000       0.00000000      17.33818880
Al       2.86377500       0.00000000      17.33818880
Al       5.72755000       0.00000000      17.33818880
Al       8.59132500       0.00000000      17.33818880
Al       1.43188750       2.48010190      17.33818880
Al       4.29566250       2.48010190      17.33818880
Al       7.15943750       2.48010190      17.33818880
Al      10.02321250       2.48010190      17.33818880
Al       2.86377500       4.96020380      17.33818880
Al       5.72755000       4.96020380      17.33818880
Al       8.59132500       4.96020380      17.33818880
Al      11.45510000       4.96020380      17.33818880
Al       4.29566250       7.44030570      17.33818880
Al       7.15943750       7.44030570      17.33818880
Al      10.02321250       7.44030570      17.33818880
Al      12.88698750       7.44030570      17.33818880
Al       1.43185511       0.82651132      19.67415010
Al       4.29562989       0.82651110      19.67415006
Al       7.15940490       0.82651095      19.67415016
Al      10.02318009       0.82651113      19.67415017
Al       2.86374238       3.30675564      19.67411178
Al       5.72751728       3.30675557      19.67411197
Al       8.59129269       3.30675561      19.67411201
Al      11.45506779       3.30675573      19.67411187
Al       4.29562971       5.78691026      19.67412964
Al       7.15940501       5.78691035      19.67412975
Al      10.02318028       5.78691033      19.67412963
Al      12.88695500       5.78691020      19.67412953
Al       5.72751747       8.26716374      19.67407154
Al       8.59129265       8.26716379      19.67407143
Al      11.45506758       8.26716354      19.67407135
Al      14.31884237       8.26716349      19.67407142
Al      11.45513476       1.65328624      22.00478408
Al       2.86380953       1.65328625      22.00478401
Al       5.72758443       1.65328603      22.00478409
Al       8.59135967       1.65328605      22.00478416
Al      12.88702212       4.13351074      22.00479171
Al       4.29569679       4.13351068      22.00479180
Al       7.15947205       4.13351062      22.00479193
Al      10.02324736       4.13351072      22.00479183
Al      14.31890941       6.61365376      22.00478980
Al       5.72758442       6.61365387      22.00478989
Al       8.59135978       6.61365395      22.00478987
Al      11.45513479       6.61365381      22.00478974
Al      15.75079700       9.09391046      22.00477297
Al       7.15947211       9.09391070      22.00477292
Al      10.02324713       9.09391053      22.00477285
Al      12.88702207       9.09391034      22.00477290
Al       0.00000588      -0.00015642      24.36729206
Al       2.86378082      -0.00015637      24.36729206
Al       5.72755586      -0.00015652      24.36729206
Al       8.59133088      -0.00015657      24.36729212
Al       1.43189340       2.48008249      24.36733851
Al       4.29566821       2.48008245      24.36733854
Al       7.15944334       2.48008231      24.36733871
Al      10.02321852       2.48008241      24.36733859
Al       2.86378076       4.96022426      24.36735247
Al       5.72755565       4.96022422      24.36735262
Al       8.59133097       4.96022425      24.36735270
Al      11.45510605       4.96022423      24.36735256
Al       4.29566821       7.44044829      24.36734380
Al       7.15944328       7.44044836      24.36734385
Al      10.02321847       7.44044832      24.36734376
Al      12.88699338       7.44044818      24.36734373
C        3.28982162       4.74153308      28.59509744
C        4.64932762       4.93398816      27.95767864
H        2.51798854       4.93582043      27.84084081
H        3.18299138       3.71280568      28.96019688
H        3.15825649       5.44064584      29.43006769
C        5.82616302       4.70533315      28.90902443
F        4.75092262       4.07420479      26.86735270
H        5.73758053       3.69261201      29.32832142
C        7.24091945       4.84383445      28.36605247
F        4.71256654       6.22419824      27.43701093
H        5.72772467       5.41044861      29.74721426
F        7.47411407       6.10271958      27.84824558
F        7.49750961       3.93126517      27.36117465
H        7.98684961       4.67327175      29.16036973
