
     Program PWSCF v.7.5 starts on 17Jul2026 at  8:22:13 

     This program is part of the open-source Quantum ESPRESSO suite
     for quantum simulation of materials; please cite
         "P. Giannozzi et al., J. Phys.:Condens. Matter 21 395502 (2009);
         "P. Giannozzi et al., J. Phys.:Condens. Matter 29 465901 (2017);
         "P. Giannozzi et al., J. Chem. Phys. 152 154105 (2020);
          URL http://www.quantum-espresso.org", 
     in publications or presentations arising from this work. More details at
     http://www.quantum-espresso.org/quote

     Parallel version (MPI), running on    24 processors

     MPI processes distributed on     1 nodes
     207705 MiB available memory on the printing compute node when the environment starts

     Reading input from limno2_li11_scf.in

     Current dimensions of program PWSCF are:
     Max number of different atomic species (ntypx) = 10
     Max number of k-points (npk) =  40000
     Max angular momentum in pseudopotentials (lmaxx) =  4
     file O.pbe-n-kjpaw_psl.0.1.UPF: wavefunction(s)  2P renormalized
     Message from routine setup:
     using ibrav=0 with symmetry is DISCOURAGED, use correct ibrav instead

     K-points division:     npool     =       4
     R & G space division:  proc/nbgrp/npool/nimage =       6
     Subspace diagonalization in iterative solution of the eigenvalue problem:
     one sub-group per band group will be used
     custom distributed-memory algorithm (size of sub-group:  2*  2 procs)


     Parallelization info
     --------------------
     sticks:   dense  smooth     PW     G-vecs:    dense   smooth      PW
     Min         716     360     98                92151    32588    4681
     Max         718     361    101                92162    32595    4690
     Sum        4303    2161    595               552931   195545   28097

     Using Slab Decomposition



     bravais-lattice index     =            0
     lattice parameter (alat)  =      11.4067  a.u.
     unit-cell volume          =    3112.7689 (a.u.)^3
     number of atoms/cell      =           47
     number of atomic types    =            3
     number of electrons       =       357.00
     number of Kohn-Sham states=          215
     kinetic-energy cutoff     =      60.0000  Ry
     charge density cutoff     =     480.0000  Ry
     scf convergence threshold =      1.0E-08
     mixing beta               =       0.3000
     number of iterations used =            8  plain     mixing
     Exchange-correlation= SLA  PW   PBX  PBC
                           (   1   4   3   4   0   0   0)
     Hubbard projectors: ortho-atomic
     Hubbard parameters of DFT+U (Dudarev formulation) in eV:
     U(Mn-3d) =  3.9000

     Internal variables: lda_plus_u =T, lda_plus_u_kind = 0

     Internal variables: orbital_resolved =F, hub_pot_fix =F, apply_U = F

     celldm(1)=  11.406687  celldm(2)=   0.000000  celldm(3)=   0.000000
     celldm(4)=   0.000000  celldm(5)=   0.000000  celldm(6)=   0.000000

     crystal axes: (cart. coord. in units of alat)
               a(1) = (   1.000000   0.000000   0.000000 )  
               a(2) = (  -0.500000   0.866025   0.000000 )  
               a(3) = (   0.000000   0.000000   2.421797 )  

     reciprocal axes: (cart. coord. in units 2 pi/alat)
               b(1) = (  1.000000  0.577350 -0.000000 )  
               b(2) = (  0.000000  1.154701  0.000000 )  
               b(3) = (  0.000000 -0.000000  0.412917 )  


     PseudoPot. # 1 for Li read from file:
     ./pseudo/li_pbe_v1.4.uspp.F.UPF
     MD5 check sum: e912e257baa3777c20ea3d68f190483c
     Pseudo is Ultrasoft, Zval =  3.0
     Generated by new atomic code, or converted to UPF format
     Using radial grid of  751 points,  5 beta functions with: 
                l(1) =   0
                l(2) =   0
                l(3) =   0
                l(4) =   1
                l(5) =   1
     Q(r) pseudized with 10 coefficients,  rinner =    1.150   1.150   1.150


     PseudoPot. # 2 for Mn read from file:
     ./pseudo/mn_pbe_v1.5.uspp.F.UPF
     MD5 check sum: 82ef2b46521d7a7d9e736dc3972e4928
     Pseudo is Ultrasoft + core correction, Zval = 15.0
     Generated by new atomic code, or converted to UPF format
     Using radial grid of  859 points,  6 beta functions with: 
                l(1) =   0
                l(2) =   0
                l(3) =   1
                l(4) =   1
                l(5) =   2
                l(6) =   2
     Q(r) pseudized with  8 coefficients,  rinner =    0.950   0.950   0.950
                                                       0.950   0.950

     PseudoPot. # 3 for O  read from file:
     ./pseudo/O.pbe-n-kjpaw_psl.0.1.UPF
     MD5 check sum: 0234752ac141de4415c5fc33072bef88
     Pseudo is Projector augmented-wave + core cor, Zval =  6.0
     Generated using "atomic" code by A. Dal Corso  v.5.0.99 svn rev. 10869
     Shape of augmentation charge: BESSEL
     Using radial grid of 1095 points,  4 beta functions with: 
                l(1) =   0
                l(2) =   0
                l(3) =   1
                l(4) =   1
     Q(r) pseudized with 0 coefficients 


     atomic species   valence    mass     pseudopotential
     Li                3.00     6.94000     Li( 1.00)
     Mn               15.00    54.93804     Mn( 1.00)
     O                 6.00    15.99900     O ( 1.00)

     Starting magnetic structure 
     atomic species   magnetization
     Li              0.000
     Mn              0.500
     O               0.000

      6 Sym. Ops. (no inversion) found ( 4 have fractional translation)



   Cartesian axes

     site n.     atom                  positions (alat units)
         1        Li     tau(   1) = (   0.0000100   0.2886809   0.4036456  )
         2        Li     tau(   2) = (  -0.0004550   0.0002627   1.2102079  )
         3        Li     tau(   3) = (   0.2500000   0.1448488   2.0188513  )
         4        Mn     tau(   4) = (   0.0018597  -0.0010737   0.0085370  )
         5        Mn     tau(   5) = (   0.2500000   0.1421925   0.7987734  )
         6        Mn     tau(   6) = (   0.0000002   0.2886752   1.6145175  )
         7        O      tau(   7) = (  -0.0274836   0.0158677   0.6300571  )
         8        O      tau(   8) = (   0.2500000   0.1760874   0.1772027  )
         9        O      tau(   9) = (   0.2500000   0.1212532   1.4264829  )
        10        O      tau(  10) = (  -0.0137859   0.2807158   1.0013994  )
        11        O      tau(  11) = (   0.0137777   0.2966297   2.2276605  )
        12        O      tau(  12) = (   0.0199973  -0.0115455   1.8025479  )
        13        Li     tau(  13) = (  -0.2500000   0.4324873   1.2102079  )
        14        Li     tau(  14) = (   0.0004428   0.5770946   2.0188513  )
        15        Mn     tau(  15) = (  -0.2500000   0.4351601   0.0085370  )
        16        Mn     tau(  16) = (  -0.0018577   0.5784228   0.7987734  )
        17        Mn     tau(  17) = (  -0.2500000   0.7216878   1.6145044  )
        18        O      tau(  18) = (  -0.2500000   0.4012774   0.6300571  )
        19        O      tau(  19) = (   0.0274962   0.5614754   0.1772027  )
        20        O      tau(  20) = (  -0.0199916   0.5888924   1.4264829  )
        21        O      tau(  21) = (  -0.2500000   0.7216878   0.9601744  )
        22        O      tau(  22) = (  -0.2500000   0.7216878   2.2689263  )
        23        O      tau(  23) = (  -0.2500000   0.4561036   1.8025479  )
        24        Li     tau(  24) = (   0.4999900   0.2886809   0.4036456  )
        25        Li     tau(  25) = (   0.5004550   0.0002627   1.2102079  )
        26        Li     tau(  26) = (   0.7500000   0.1443376   2.0342687  )
        27        Mn     tau(  27) = (   0.4981403  -0.0010737   0.0085370  )
        28        Mn     tau(  28) = (   0.7500000   0.1443376   0.8180248  )
        29        Mn     tau(  29) = (   0.4999998   0.2886752   1.6145175  )
        30        O      tau(  30) = (   0.5274836   0.0158677   0.6300571  )
        31        O      tau(  31) = (   0.7500000   0.1443376   0.1660955  )
        32        O      tau(  32) = (   0.7500000   0.1443376   1.4528922  )
        33        O      tau(  33) = (   0.5137859   0.2807158   1.0013994  )
        34        O      tau(  34) = (   0.4862223   0.2966297   2.2276605  )
        35        O      tau(  35) = (   0.4800027  -0.0115455   1.8025479  )
        36        Li     tau(  36) = (   0.2500000   0.7216763   0.4036456  )
        37        Li     tau(  37) = (   0.2500000   0.4330127   1.1948064  )
        38        Li     tau(  38) = (   0.4995572   0.5770946   2.0188513  )
        39        Mn     tau(  39) = (   0.2500000   0.4330127  -0.0107970  )
        40        Mn     tau(  40) = (   0.5018577   0.5784228   0.7987734  )
        41        Mn     tau(  41) = (   0.2500000   0.7216876   1.6145175  )
        42        O      tau(  42) = (   0.2500000   0.4330127   0.6412020  )
        43        O      tau(  43) = (   0.4725038   0.5614754   0.1772027  )
        44        O      tau(  44) = (   0.5199916   0.5888924   1.4264829  )
        45        O      tau(  45) = (   0.2500000   0.7376064   1.0013994  )
        46        O      tau(  46) = (   0.2500000   0.7057787   2.2276605  )
        47        O      tau(  47) = (   0.2500000   0.4330127   1.7761466  )

     number of k points=     7  Marzari-Vanderbilt smearing, width (Ry)=  0.0200
                       cart. coord. in units 2pi/alat
        k(    1) = (   0.0000000   0.0000000   0.0000000), wk =   0.0370370
        k(    2) = (   0.0000000   0.0000000   0.1376389), wk =   0.0740741
        k(    3) = (   0.0000000   0.3849002   0.0000000), wk =   0.2222222
        k(    4) = (   0.0000000   0.3849002   0.1376389), wk =   0.2222222
        k(    5) = (   0.3333333   0.5773503   0.0000000), wk =   0.0740741
        k(    6) = (   0.3333333   0.5773503   0.1376389), wk =   0.1481481
        k(    7) = (   0.0000000  -0.3849002   0.1376389), wk =   0.2222222

     Dense  grid:   552931 G-vectors     FFT dimensions: (  80,  80, 200)

     Smooth grid:   195545 G-vectors     FFT dimensions: (  60,  60, 144)

     Estimated max dynamical RAM per process >     300.94 MB

     Estimated total dynamical RAM >       6.26 GB

     Atomic positions and unit cell read from directory:
     ./tmp/limno2_li11.save/


     Check: negative core charge=   -0.000015
     Generating pointlists ...
     new r_m :   0.1443 (alat units)  1.6464 (a.u.) for type    1
     new r_m :   0.1313 (alat units)  1.4979 (a.u.) for type    2
     new r_m :   0.1313 (alat units)  1.4979 (a.u.) for type    3

     The initial density is read from file :
     ./tmp/limno2_li11.save/charge-density


     negative rho (up, down):  0.000E+00 1.750E-03

     STARTING HUBBARD OCCUPATIONS:

     =================== HUBBARD OCCUPATIONS ===================
     ------------------------ ATOM    4 ------------------------
     Tr[ns(  4)] (up, down, total) =   4.61919  0.46219  5.08138
     Atomic magnetic moment for atom   4 =   4.15700
     SPIN  1
     eigenvalues:
       0.642  0.991  0.993  0.996  0.996
     eigenvectors (columns):
       0.052  0.000 -0.739  0.000  0.672
      -0.628  0.379  0.377 -0.326  0.463
       0.362  0.657 -0.217 -0.565 -0.267
      -0.344 -0.565 -0.257 -0.657 -0.257
       0.595 -0.326  0.446 -0.379  0.444
     occupation matrix ns (before diag.):
       0.994  0.012 -0.007  0.006 -0.010
       0.012  0.856  0.079 -0.075  0.132
      -0.007  0.079  0.947  0.046 -0.075
       0.006 -0.075  0.046  0.953  0.072
      -0.010  0.132 -0.075  0.072  0.870
     SPIN  2
     eigenvalues:
       0.038  0.048  0.050  0.144  0.182
     eigenvectors (columns):
      -0.712  0.700  0.000 -0.000  0.055
       0.403  0.458  0.302  0.398 -0.614
      -0.233 -0.264  0.523  0.690  0.355
      -0.263 -0.240  0.690 -0.523 -0.351
       0.455  0.415  0.398 -0.302  0.609
     occupation matrix ns (before diag.):
       0.044 -0.002  0.001 -0.004  0.008
      -0.002  0.113 -0.002  0.010 -0.063
       0.001 -0.002  0.110 -0.051  0.010
      -0.004  0.010 -0.051  0.091 -0.012
       0.008 -0.063  0.010 -0.012  0.105
     ------------------------ ATOM    5 ------------------------
     Tr[ns(  5)] (up, down, total) =   4.61921  0.46218  5.08139
     Atomic magnetic moment for atom   5 =   4.15704
     SPIN  1
     eigenvalues:
       0.642  0.991  0.993  0.996  0.996
     eigenvectors (columns):
      -0.052  0.000 -0.739  0.000  0.672
      -0.000  0.758  0.000  0.652 -0.000
       0.725 -0.000  0.435  0.000  0.534
      -0.687 -0.000  0.515 -0.000  0.513
      -0.000 -0.652  0.000  0.758 -0.000
     occupation matrix ns (before diag.):
       0.994  0.000  0.014 -0.012  0.000
       0.000  0.993  0.000 -0.000  0.002
       0.014  0.000  0.810  0.176  0.000
      -0.012 -0.000  0.176  0.828 -0.000
       0.000  0.002  0.000 -0.000  0.994
     SPIN  2
     eigenvalues:
       0.038  0.048  0.050  0.144  0.182
     eigenvectors (columns):
      -0.712  0.700  0.000  0.000  0.055
       0.000 -0.000  0.604 -0.797  0.000
       0.466  0.529 -0.000 -0.000 -0.709
       0.526  0.480 -0.000  0.000  0.703
       0.000 -0.000  0.797  0.604 -0.000
     occupation matrix ns (before diag.):
       0.044  0.000 -0.002  0.009  0.000
       0.000  0.109  0.000 -0.000 -0.045
      -0.002  0.000  0.114 -0.069  0.000
       0.009 -0.000 -0.069  0.112 -0.000
       0.000 -0.045  0.000 -0.000  0.084
     ------------------------ ATOM    6 ------------------------
     Tr[ns(  6)] (up, down, total) =   4.65183  0.44492  5.09675
     Atomic magnetic moment for atom   6 =   4.20692
     SPIN  1
     eigenvalues:
       0.676  0.992  0.993  0.996  0.996
     eigenvectors (columns):
       0.059  0.000  0.691  0.000  0.720
       0.640  0.363  0.394  0.344 -0.430
       0.370 -0.628  0.227 -0.596 -0.248
      -0.335  0.596  0.281 -0.628 -0.242
      -0.581 -0.344  0.486  0.363 -0.420
     occupation matrix ns (before diag.):
       0.993 -0.013 -0.007  0.006  0.010
      -0.013  0.864 -0.075  0.068  0.119
      -0.007 -0.075  0.950  0.041  0.068
       0.006  0.068  0.041  0.958 -0.062
       0.010  0.119  0.068 -0.062  0.887
     SPIN  2
     eigenvalues:
       0.036  0.047  0.048  0.139  0.176
     eigenvectors (columns):
      -0.719 -0.692  0.000 -0.000 -0.064
      -0.388  0.461 -0.299 -0.401 -0.622
      -0.224  0.266  0.518  0.694 -0.359
      -0.266  0.244  0.694 -0.518  0.346
      -0.460  0.423 -0.401  0.299  0.600
     occupation matrix ns (before diag.):
       0.042  0.002  0.001 -0.005 -0.009
       0.002  0.110  0.002 -0.010 -0.061
       0.001  0.002  0.107 -0.049 -0.010
      -0.005 -0.010 -0.049  0.087  0.011
      -0.009 -0.061 -0.010  0.011  0.099
     ------------------------ ATOM   15 ------------------------
     Tr[ns( 15)] (up, down, total) =   4.61919  0.46219  5.08138
     Atomic magnetic moment for atom  15 =   4.15700
     SPIN  1
     eigenvalues:
       0.642  0.991  0.993  0.996  0.996
     eigenvectors (columns):
      -0.052  0.000 -0.739  0.000  0.672
      -0.000  0.758  0.000  0.652 -0.000
       0.725 -0.000  0.435  0.000  0.534
      -0.687 -0.000  0.515 -0.000  0.513
      -0.000 -0.652  0.000  0.758 -0.000
     occupation matrix ns (before diag.):
       0.994  0.000  0.014 -0.012  0.000
       0.000  0.993  0.000 -0.000  0.002
       0.014  0.000  0.810  0.176  0.000
      -0.012 -0.000  0.176  0.828 -0.000
       0.000  0.002  0.000 -0.000  0.994
     SPIN  2
     eigenvalues:
       0.038  0.048  0.050  0.144  0.182
     eigenvectors (columns):
      -0.712  0.700  0.000  0.000  0.055
       0.000 -0.000  0.604 -0.797  0.000
       0.466  0.529 -0.000 -0.000 -0.709
       0.526  0.480 -0.000  0.000  0.703
       0.000 -0.000  0.797  0.604 -0.000
     occupation matrix ns (before diag.):
       0.044  0.000 -0.002  0.009  0.000
       0.000  0.109  0.000 -0.000 -0.045
      -0.002  0.000  0.114 -0.069  0.000
       0.009 -0.000 -0.069  0.112 -0.000
       0.000 -0.045  0.000 -0.000  0.084
     ------------------------ ATOM   16 ------------------------
     Tr[ns( 16)] (up, down, total) =   4.61921  0.46218  5.08139
     Atomic magnetic moment for atom  16 =   4.15704
     SPIN  1
     eigenvalues:
       0.642  0.991  0.993  0.996  0.996
     eigenvectors (columns):
       0.052  0.000 -0.739  0.000  0.672
      -0.628  0.379  0.377 -0.326  0.463
       0.362  0.657 -0.218 -0.564 -0.267
      -0.343 -0.564 -0.257 -0.657 -0.256
       0.595 -0.326  0.446 -0.379  0.444
     occupation matrix ns (before diag.):
       0.994  0.012 -0.007  0.006 -0.010
       0.012  0.856  0.079 -0.075  0.132
      -0.007  0.079  0.947  0.046 -0.075
       0.006 -0.075  0.046  0.953  0.072
      -0.010  0.132 -0.075  0.072  0.870
     SPIN  2
     eigenvalues:
       0.038  0.048  0.050  0.144  0.182
     eigenvectors (columns):
      -0.712  0.700  0.000 -0.000  0.055
       0.403  0.458  0.302  0.398 -0.614
      -0.233 -0.264  0.523  0.690  0.355
      -0.263 -0.240  0.690 -0.523 -0.351
       0.455  0.415  0.398 -0.302  0.609
     occupation matrix ns (before diag.):
       0.044 -0.002  0.001 -0.004  0.008
      -0.002  0.113 -0.002  0.010 -0.063
       0.001 -0.002  0.110 -0.051  0.010
      -0.004  0.010 -0.051  0.091 -0.012
       0.008 -0.063  0.010 -0.012  0.105
     ------------------------ ATOM   17 ------------------------
     Tr[ns( 17)] (up, down, total) =   4.17867  0.84454  5.02321
     Atomic magnetic moment for atom  17 =   3.33413
     SPIN  1
     eigenvalues:
       0.596  0.596  0.995  0.995  0.996
     eigenvectors (columns):
      -0.000 -0.000  0.000  0.000 -1.000
       0.012 -0.823 -0.332  0.461 -0.000
      -0.823 -0.012 -0.461 -0.332 -0.000
       0.568  0.008 -0.668 -0.481 -0.000
      -0.008  0.568 -0.481  0.668 -0.000
     occupation matrix ns (before diag.):
       0.996  0.000  0.000  0.000  0.000
       0.000  0.725  0.000 -0.000  0.186
       0.000  0.000  0.725  0.186  0.000
       0.000 -0.000  0.186  0.866 -0.000
       0.000  0.186  0.000 -0.000  0.866
     SPIN  2
     eigenvalues:
       0.089  0.090  0.090  0.288  0.288
     eigenvectors (columns):
       1.000 -0.000  0.000  0.000  0.000
      -0.000 -0.353 -0.479 -0.064 -0.802
      -0.000 -0.479  0.353 -0.802  0.064
      -0.000 -0.647  0.477  0.593 -0.048
      -0.000 -0.477 -0.647  0.048  0.593
     occupation matrix ns (before diag.):
       0.089  0.000 -0.000  0.000  0.000
       0.000  0.218  0.000 -0.000 -0.095
      -0.000  0.000  0.218 -0.095  0.000
       0.000 -0.000 -0.095  0.160 -0.000
       0.000 -0.095  0.000 -0.000  0.160
     ------------------------ ATOM   27 ------------------------
     Tr[ns( 27)] (up, down, total) =   4.61919  0.46219  5.08138
     Atomic magnetic moment for atom  27 =   4.15700
     SPIN  1
     eigenvalues:
       0.642  0.991  0.993  0.996  0.996
     eigenvectors (columns):
       0.052  0.000  0.739  0.000  0.672
       0.628  0.379  0.377  0.326 -0.463
       0.362 -0.657  0.217 -0.565 -0.267
      -0.344  0.565  0.257 -0.657 -0.257
      -0.595 -0.326  0.446  0.379 -0.444
     occupation matrix ns (before diag.):
       0.994 -0.012 -0.007  0.006  0.010
      -0.012  0.856 -0.079  0.075  0.132
      -0.007 -0.079  0.947  0.046  0.075
       0.006  0.075  0.046  0.953 -0.072
       0.010  0.132  0.075 -0.072  0.870
     SPIN  2
     eigenvalues:
       0.038  0.048  0.050  0.144  0.182
     eigenvectors (columns):
      -0.712  0.700 -0.000 -0.000 -0.055
      -0.403 -0.458  0.302 -0.398 -0.614
      -0.233 -0.264 -0.523  0.690 -0.355
      -0.263 -0.240 -0.690 -0.523  0.351
      -0.455 -0.415  0.398  0.302  0.609
     occupation matrix ns (before diag.):
       0.044  0.002  0.001 -0.004 -0.008
       0.002  0.113  0.002 -0.010 -0.063
       0.001  0.002  0.110 -0.051 -0.010
      -0.004 -0.010 -0.051  0.091  0.012
      -0.008 -0.063 -0.010  0.012  0.105
     ------------------------ ATOM   28 ------------------------
     Tr[ns( 28)] (up, down, total) =   4.15922  0.87032  5.02954
     Atomic magnetic moment for atom  28 =   3.28890
     SPIN  1
     eigenvalues:
       0.589  0.589  0.994  0.994  0.994
     eigenvectors (columns):
       0.000 -0.000  0.000  0.000  1.000
       0.005 -0.819 -0.337  0.464  0.000
       0.819  0.005 -0.464 -0.337  0.000
      -0.573 -0.003 -0.663 -0.481  0.000
      -0.003  0.573 -0.481  0.663  0.000
     occupation matrix ns (before diag.):
       0.994  0.000  0.000  0.000  0.000
       0.000  0.722  0.000 -0.000  0.190
       0.000  0.000  0.722  0.190  0.000
       0.000 -0.000  0.190  0.861 -0.000
       0.000  0.190  0.000 -0.000  0.861
     SPIN  2
     eigenvalues:
       0.091  0.091  0.091  0.298  0.298
     eigenvectors (columns):
       1.000  0.000  0.000  0.000  0.000
      -0.000  0.353 -0.479 -0.069 -0.801
      -0.000  0.479  0.353 -0.801  0.069
      -0.000  0.647  0.477  0.593 -0.051
      -0.000  0.477 -0.647  0.051  0.593
     occupation matrix ns (before diag.):
       0.091  0.000 -0.000  0.000  0.000
       0.000  0.225  0.000 -0.000 -0.099
      -0.000  0.000  0.225 -0.099  0.000
       0.000 -0.000 -0.099  0.165 -0.000
       0.000 -0.099  0.000 -0.000  0.165
     ------------------------ ATOM   29 ------------------------
     Tr[ns( 29)] (up, down, total) =   4.65183  0.44492  5.09675
     Atomic magnetic moment for atom  29 =   4.20692
     SPIN  1
     eigenvalues:
       0.676  0.992  0.993  0.996  0.996
     eigenvectors (columns):
       0.059 -0.000 -0.691  0.000 -0.720
      -0.640 -0.363  0.394 -0.344 -0.430
       0.370 -0.628 -0.227 -0.596  0.248
      -0.335  0.596 -0.281 -0.628  0.242
       0.581  0.344  0.486 -0.363 -0.420
     occupation matrix ns (before diag.):
       0.993  0.013 -0.007  0.006 -0.010
       0.013  0.864  0.075 -0.068  0.119
      -0.007  0.075  0.950  0.041 -0.068
       0.006 -0.068  0.041  0.958  0.062
      -0.010  0.119 -0.068  0.062  0.887
     SPIN  2
     eigenvalues:
       0.036  0.047  0.048  0.139  0.176
     eigenvectors (columns):
      -0.719 -0.692 -0.000 -0.000  0.064
       0.388 -0.461 -0.299  0.401 -0.622
      -0.224  0.266 -0.518  0.694  0.359
      -0.266  0.244 -0.694 -0.518 -0.346
       0.460 -0.423 -0.401 -0.299  0.600
     occupation matrix ns (before diag.):
       0.042 -0.002  0.001 -0.005  0.009
      -0.002  0.110 -0.002  0.010 -0.061
       0.001 -0.002  0.107 -0.049  0.010
      -0.005  0.010 -0.049  0.087 -0.011
       0.009 -0.061  0.010 -0.011  0.099
     ------------------------ ATOM   39 ------------------------
     Tr[ns( 39)] (up, down, total) =   4.15919  0.87033  5.02953
     Atomic magnetic moment for atom  39 =   3.28886
     SPIN  1
     eigenvalues:
       0.589  0.589  0.994  0.994  0.994
     eigenvectors (columns):
       0.000 -0.000  0.000  0.000  1.000
       0.005 -0.819 -0.337  0.464  0.000
       0.819  0.005 -0.464 -0.337  0.000
      -0.573 -0.003 -0.663 -0.481  0.000
      -0.003  0.573 -0.481  0.663  0.000
     occupation matrix ns (before diag.):
       0.994  0.000  0.000  0.000  0.000
       0.000  0.722  0.000 -0.000  0.190
       0.000  0.000  0.722  0.190  0.000
       0.000 -0.000  0.190  0.861 -0.000
       0.000  0.190  0.000 -0.000  0.861
     SPIN  2
     eigenvalues:
       0.091  0.091  0.091  0.298  0.298
     eigenvectors (columns):
       1.000  0.000  0.000  0.000  0.000
      -0.000  0.353 -0.479 -0.069 -0.801
      -0.000  0.479  0.353 -0.801  0.069
      -0.000  0.647  0.477  0.593 -0.051
      -0.000  0.477 -0.647  0.051  0.593
     occupation matrix ns (before diag.):
       0.091  0.000 -0.000  0.000  0.000
       0.000  0.225  0.000 -0.000 -0.099
      -0.000  0.000  0.225 -0.099  0.000
       0.000 -0.000 -0.099  0.165 -0.000
       0.000 -0.099  0.000 -0.000  0.165
     ------------------------ ATOM   40 ------------------------
     Tr[ns( 40)] (up, down, total) =   4.61921  0.46218  5.08139
     Atomic magnetic moment for atom  40 =   4.15704
     SPIN  1
     eigenvalues:
       0.642  0.991  0.993  0.996  0.996
     eigenvectors (columns):
       0.052  0.000  0.739  0.000  0.672
       0.628  0.379  0.377  0.326 -0.463
       0.362 -0.657  0.218 -0.564 -0.267
      -0.343  0.564  0.257 -0.657 -0.256
      -0.595 -0.326  0.446  0.379 -0.444
     occupation matrix ns (before diag.):
       0.994 -0.012 -0.007  0.006  0.010
      -0.012  0.856 -0.079  0.075  0.132
      -0.007 -0.079  0.947  0.046  0.075
       0.006  0.075  0.046  0.953 -0.072
       0.010  0.132  0.075 -0.072  0.870
     SPIN  2
     eigenvalues:
       0.038  0.048  0.050  0.144  0.182
     eigenvectors (columns):
      -0.712  0.700 -0.000 -0.000 -0.055
      -0.403 -0.458  0.302 -0.398 -0.614
      -0.233 -0.264 -0.523  0.690 -0.355
      -0.263 -0.240 -0.690 -0.523  0.351
      -0.455 -0.415  0.398  0.302  0.609
     occupation matrix ns (before diag.):
       0.044  0.002  0.001 -0.004 -0.008
       0.002  0.113  0.002 -0.010 -0.063
       0.001  0.002  0.110 -0.051 -0.010
      -0.004 -0.010 -0.051  0.091  0.012
      -0.008 -0.063 -0.010  0.012  0.105
     ------------------------ ATOM   41 ------------------------
     Tr[ns( 41)] (up, down, total) =   4.65183  0.44492  5.09675
     Atomic magnetic moment for atom  41 =   4.20692
     SPIN  1
     eigenvalues:
       0.676  0.992  0.993  0.996  0.996
     eigenvectors (columns):
       0.059  0.000 -0.691  0.000 -0.720
       0.000  0.726  0.000  0.688 -0.000
      -0.739 -0.000  0.455 -0.000 -0.497
       0.671 -0.000  0.562 -0.000 -0.485
       0.000 -0.688 -0.000  0.726 -0.000
     occupation matrix ns (before diag.):
       0.993  0.000  0.015 -0.011  0.000
       0.000  0.994  0.000 -0.000  0.002
       0.015  0.000  0.820  0.158  0.000
      -0.011 -0.000  0.158  0.851 -0.000
       0.000  0.002  0.000 -0.000  0.994
     SPIN  2
     eigenvalues:
       0.036  0.047  0.048  0.139  0.176
     eigenvectors (columns):
      -0.719  0.692  0.000  0.000  0.064
       0.000  0.000  0.598 -0.801  0.000
       0.448  0.532 -0.000 -0.000 -0.718
       0.531  0.488 -0.000  0.000  0.693
       0.000  0.000  0.801  0.598 -0.000
     occupation matrix ns (before diag.):
       0.042  0.000 -0.002  0.010  0.000
       0.000  0.106  0.000 -0.000 -0.044
      -0.002  0.000  0.111 -0.067  0.000
       0.010 -0.000 -0.067  0.106 -0.000
       0.000 -0.044  0.000 -0.000  0.080

     Number of occupied Hubbard levels =   60.8608

     Atomic wfc used for Hubbard projectors are orthogonalized

     Starting wfcs from file
     Checking if some PAW data can be deallocated... 

     total cpu time spent up to now is        7.8 secs

     Self-consistent Calculation

     iteration #  1     ecut=    60.00 Ry     beta= 0.30
     Davidson diagonalization with overlap
     ethr =  1.00E-05,  avg # of iterations =  1.0

     =================== HUBBARD OCCUPATIONS ===================
     ------------------------ ATOM    4 ------------------------
     Tr[ns(  4)] (up, down, total) =   4.61920  0.46219  5.08139
     Atomic magnetic moment for atom   4 =   4.15701
     SPIN  1
     eigenvalues:
       0.642  0.991  0.993  0.996  0.996
     eigenvectors (columns):
       0.052  0.000 -0.739  0.000  0.672
      -0.628  0.379  0.377 -0.326  0.463
       0.362  0.657 -0.217 -0.565 -0.267
      -0.344 -0.565 -0.257 -0.657 -0.257
       0.595 -0.326  0.446 -0.379  0.444
     occupation matrix ns (before diag.):
       0.994  0.012 -0.007  0.006 -0.010
       0.012  0.856  0.079 -0.075  0.132
      -0.007  0.079  0.947  0.046 -0.075
       0.006 -0.075  0.046  0.953  0.072
      -0.010  0.132 -0.075  0.072  0.870
     SPIN  2
     eigenvalues:
       0.038  0.048  0.050  0.144  0.182
     eigenvectors (columns):
      -0.712  0.700  0.000 -0.000  0.055
       0.403  0.458  0.302  0.398 -0.614
      -0.233 -0.264  0.523  0.690  0.355
      -0.263 -0.240  0.690 -0.523 -0.351
       0.455  0.415  0.398 -0.302  0.609
     occupation matrix ns (before diag.):
       0.044 -0.002  0.001 -0.004  0.008
      -0.002  0.113 -0.002  0.010 -0.063
       0.001 -0.002  0.110 -0.051  0.010
      -0.004  0.010 -0.051  0.091 -0.012
       0.008 -0.063  0.010 -0.012  0.105
     ------------------------ ATOM    5 ------------------------
     Tr[ns(  5)] (up, down, total) =   4.61917  0.46217  5.08134
     Atomic magnetic moment for atom   5 =   4.15699
     SPIN  1
     eigenvalues:
       0.642  0.991  0.993  0.996  0.996
     eigenvectors (columns):
      -0.052  0.000 -0.739  0.000  0.672
      -0.000  0.759  0.000  0.652 -0.000
       0.725 -0.000  0.435  0.000  0.534
      -0.687 -0.000  0.515 -0.000  0.513
      -0.000 -0.652  0.000  0.759 -0.000
     occupation matrix ns (before diag.):
       0.994  0.000  0.014 -0.012  0.000
       0.000  0.993  0.000 -0.000  0.002
       0.014  0.000  0.810  0.176  0.000
      -0.012 -0.000  0.176  0.828 -0.000
       0.000  0.002  0.000 -0.000  0.994
     SPIN  2
     eigenvalues:
       0.038  0.048  0.050  0.144  0.182
     eigenvectors (columns):
      -0.712  0.700  0.000  0.000  0.055
       0.000 -0.000  0.604 -0.797  0.000
       0.466  0.529 -0.000 -0.000 -0.709
       0.526  0.480 -0.000  0.000  0.703
       0.000 -0.000  0.797  0.604 -0.000
     occupation matrix ns (before diag.):
       0.044  0.000 -0.002  0.009  0.000
       0.000  0.109  0.000 -0.000 -0.045
      -0.002  0.000  0.114 -0.069  0.000
       0.009 -0.000 -0.069  0.112 -0.000
       0.000 -0.045  0.000 -0.000  0.084
     ------------------------ ATOM    6 ------------------------
     Tr[ns(  6)] (up, down, total) =   4.65187  0.44492  5.09678
     Atomic magnetic moment for atom   6 =   4.20695
     SPIN  1
     eigenvalues:
       0.676  0.992  0.993  0.996  0.996
     eigenvectors (columns):
       0.059  0.000  0.691  0.000  0.720
       0.640  0.363  0.394  0.344 -0.430
       0.370 -0.628  0.227 -0.596 -0.248
      -0.335  0.596  0.281 -0.628 -0.242
      -0.581 -0.344  0.486  0.363 -0.420
     occupation matrix ns (before diag.):
       0.993 -0.013 -0.007  0.006  0.010
      -0.013  0.864 -0.075  0.068  0.119
      -0.007 -0.075  0.950  0.041  0.068
       0.006  0.068  0.041  0.958 -0.062
       0.010  0.119  0.068 -0.062  0.887
     SPIN  2
     eigenvalues:
       0.036  0.047  0.048  0.139  0.176
     eigenvectors (columns):
      -0.719 -0.692  0.000 -0.000 -0.064
      -0.388  0.461 -0.299 -0.401 -0.622
      -0.224  0.266  0.518  0.694 -0.359
      -0.266  0.244  0.694 -0.518  0.346
      -0.460  0.423 -0.401  0.299  0.600
     occupation matrix ns (before diag.):
       0.042  0.002  0.001 -0.005 -0.009
       0.002  0.110  0.002 -0.010 -0.061
       0.001  0.002  0.107 -0.049 -0.010
      -0.005 -0.010 -0.049  0.087  0.011
      -0.009 -0.061 -0.010  0.011  0.099
     ------------------------ ATOM   15 ------------------------
     Tr[ns( 15)] (up, down, total) =   4.61920  0.46219  5.08139
     Atomic magnetic moment for atom  15 =   4.15701
     SPIN  1
     eigenvalues:
       0.642  0.991  0.993  0.996  0.996
     eigenvectors (columns):
      -0.052  0.000 -0.739  0.000  0.672
      -0.000  0.758  0.000  0.652 -0.000
       0.725 -0.000  0.435  0.000  0.534
      -0.687 -0.000  0.515 -0.000  0.513
      -0.000 -0.652  0.000  0.758 -0.000
     occupation matrix ns (before diag.):
       0.994  0.000  0.014 -0.012  0.000
       0.000  0.993  0.000 -0.000  0.002
       0.014  0.000  0.810  0.176  0.000
      -0.012 -0.000  0.176  0.828 -0.000
       0.000  0.002  0.000 -0.000  0.994
     SPIN  2
     eigenvalues:
       0.038  0.048  0.050  0.144  0.182
     eigenvectors (columns):
      -0.712  0.700  0.000  0.000  0.055
       0.000 -0.000  0.604 -0.797  0.000
       0.466  0.529 -0.000 -0.000 -0.709
       0.526  0.480 -0.000  0.000  0.703
       0.000 -0.000  0.797  0.604 -0.000
     occupation matrix ns (before diag.):
       0.044  0.000 -0.002  0.009  0.000
       0.000  0.109  0.000 -0.000 -0.045
      -0.002  0.000  0.114 -0.069  0.000
       0.009 -0.000 -0.069  0.112 -0.000
       0.000 -0.045  0.000 -0.000  0.084
     ------------------------ ATOM   16 ------------------------
     Tr[ns( 16)] (up, down, total) =   4.61917  0.46217  5.08134
     Atomic magnetic moment for atom  16 =   4.15699
     SPIN  1
     eigenvalues:
       0.642  0.991  0.993  0.996  0.996
     eigenvectors (columns):
       0.052  0.000 -0.739  0.000  0.672
      -0.628  0.379  0.377 -0.326  0.463
       0.362  0.657 -0.218 -0.564 -0.267
      -0.343 -0.564 -0.257 -0.657 -0.256
       0.595 -0.326  0.446 -0.379  0.444
     occupation matrix ns (before diag.):
       0.994  0.012 -0.007  0.006 -0.010
       0.012  0.856  0.080 -0.075  0.132
      -0.007  0.080  0.947  0.046 -0.075
       0.006 -0.075  0.046  0.953  0.072
      -0.010  0.132 -0.075  0.072  0.870
     SPIN  2
     eigenvalues:
       0.038  0.048  0.050  0.144  0.182
     eigenvectors (columns):
      -0.712  0.700  0.000 -0.000  0.055
       0.403  0.458  0.302  0.398 -0.614
      -0.233 -0.264  0.523  0.690  0.355
      -0.263 -0.240  0.690 -0.523 -0.351
       0.455  0.415  0.398 -0.302  0.609
     occupation matrix ns (before diag.):
       0.044 -0.002  0.001 -0.004  0.008
      -0.002  0.113 -0.002  0.010 -0.063
       0.001 -0.002  0.110 -0.051  0.010
      -0.004  0.010 -0.051  0.091 -0.012
       0.008 -0.063  0.010 -0.012  0.105
     ------------------------ ATOM   17 ------------------------
     Tr[ns( 17)] (up, down, total) =   4.17868  0.84454  5.02322
     Atomic magnetic moment for atom  17 =   3.33414
     SPIN  1
     eigenvalues:
       0.596  0.596  0.995  0.995  0.996
     eigenvectors (columns):
      -0.000 -0.000  0.000  0.000 -1.000
       0.012 -0.823 -0.332  0.461 -0.000
      -0.823 -0.012 -0.461 -0.332 -0.000
       0.568  0.008 -0.668 -0.481 -0.000
      -0.008  0.568 -0.481  0.668 -0.000
     occupation matrix ns (before diag.):
       0.996  0.000  0.000  0.000  0.000
       0.000  0.725  0.000 -0.000  0.186
       0.000  0.000  0.725  0.186  0.000
       0.000 -0.000  0.186  0.866 -0.000
       0.000  0.186  0.000 -0.000  0.866
     SPIN  2
     eigenvalues:
       0.089  0.090  0.090  0.288  0.288
     eigenvectors (columns):
       1.000  0.000  0.000  0.000  0.000
      -0.000  0.353 -0.479 -0.064 -0.802
      -0.000  0.479  0.353 -0.802  0.064
      -0.000  0.647  0.477  0.593 -0.048
      -0.000  0.477 -0.647  0.048  0.593
     occupation matrix ns (before diag.):
       0.089  0.000 -0.000  0.000  0.000
       0.000  0.218  0.000 -0.000 -0.095
      -0.000  0.000  0.218 -0.095  0.000
       0.000 -0.000 -0.095  0.160 -0.000
       0.000 -0.095  0.000 -0.000  0.160
     ------------------------ ATOM   27 ------------------------
     Tr[ns( 27)] (up, down, total) =   4.61920  0.46219  5.08139
     Atomic magnetic moment for atom  27 =   4.15701
     SPIN  1
     eigenvalues:
       0.642  0.991  0.993  0.996  0.996
     eigenvectors (columns):
       0.052  0.000  0.739  0.000  0.672
       0.628  0.379  0.377  0.326 -0.463
       0.362 -0.657  0.217 -0.565 -0.267
      -0.344  0.565  0.257 -0.657 -0.257
      -0.595 -0.326  0.446  0.379 -0.444
     occupation matrix ns (before diag.):
       0.994 -0.012 -0.007  0.006  0.010
      -0.012  0.856 -0.079  0.075  0.132
      -0.007 -0.079  0.947  0.046  0.075
       0.006  0.075  0.046  0.953 -0.072
       0.010  0.132  0.075 -0.072  0.870
     SPIN  2
     eigenvalues:
       0.038  0.048  0.050  0.144  0.182
     eigenvectors (columns):
      -0.712  0.700 -0.000 -0.000 -0.055
      -0.403 -0.458  0.302 -0.398 -0.614
      -0.233 -0.264 -0.523  0.690 -0.355
      -0.263 -0.240 -0.690 -0.523  0.351
      -0.455 -0.415  0.398  0.302  0.609
     occupation matrix ns (before diag.):
       0.044  0.002  0.001 -0.004 -0.008
       0.002  0.113  0.002 -0.010 -0.063
       0.001  0.002  0.110 -0.051 -0.010
      -0.004 -0.010 -0.051  0.091  0.012
      -0.008 -0.063 -0.010  0.012  0.105
     ------------------------ ATOM   28 ------------------------
     Tr[ns( 28)] (up, down, total) =   4.15922  0.87032  5.02954
     Atomic magnetic moment for atom  28 =   3.28889
     SPIN  1
     eigenvalues:
       0.589  0.589  0.994  0.994  0.994
     eigenvectors (columns):
       0.000 -0.000  0.000  0.000  1.000
       0.005 -0.819 -0.337  0.464  0.000
       0.819  0.005 -0.464 -0.337  0.000
      -0.573 -0.003 -0.663 -0.481  0.000
      -0.003  0.573 -0.481  0.663  0.000
     occupation matrix ns (before diag.):
       0.994  0.000  0.000  0.000  0.000
       0.000  0.722  0.000 -0.000  0.190
       0.000  0.000  0.722  0.190  0.000
       0.000 -0.000  0.190  0.861 -0.000
       0.000  0.190  0.000 -0.000  0.861
     SPIN  2
     eigenvalues:
       0.091  0.091  0.091  0.298  0.298
     eigenvectors (columns):
       1.000  0.000  0.000  0.000  0.000
      -0.000  0.353 -0.479 -0.069 -0.801
      -0.000  0.479  0.353 -0.801  0.069
      -0.000  0.647  0.477  0.593 -0.051
      -0.000  0.477 -0.647  0.051  0.593
     occupation matrix ns (before diag.):
       0.091  0.000 -0.000  0.000  0.000
       0.000  0.225  0.000 -0.000 -0.099
      -0.000  0.000  0.225 -0.099  0.000
       0.000 -0.000 -0.099  0.165 -0.000
       0.000 -0.099  0.000 -0.000  0.165
     ------------------------ ATOM   29 ------------------------
     Tr[ns( 29)] (up, down, total) =   4.65187  0.44492  5.09678
     Atomic magnetic moment for atom  29 =   4.20695
     SPIN  1
     eigenvalues:
       0.676  0.992  0.993  0.996  0.996
     eigenvectors (columns):
       0.059 -0.000 -0.691  0.000 -0.720
      -0.640 -0.363  0.394 -0.344 -0.430
       0.370 -0.628 -0.227 -0.596  0.248
      -0.335  0.596 -0.281 -0.628  0.242
       0.581  0.344  0.486 -0.363 -0.420
     occupation matrix ns (before diag.):
       0.993  0.013 -0.007  0.006 -0.010
       0.013  0.864  0.075 -0.068  0.119
      -0.007  0.075  0.950  0.041 -0.068
       0.006 -0.068  0.041  0.958  0.062
      -0.010  0.119 -0.068  0.062  0.887
     SPIN  2
     eigenvalues:
       0.036  0.047  0.048  0.139  0.176
     eigenvectors (columns):
      -0.719 -0.692 -0.000 -0.000  0.064
       0.388 -0.461 -0.299  0.401 -0.622
      -0.224  0.266 -0.518  0.694  0.359
      -0.266  0.244 -0.694 -0.518 -0.346
       0.460 -0.423 -0.401 -0.299  0.600
     occupation matrix ns (before diag.):
       0.042 -0.002  0.001 -0.005  0.009
      -0.002  0.110 -0.002  0.010 -0.061
       0.001 -0.002  0.107 -0.049  0.010
      -0.005  0.010 -0.049  0.087 -0.011
       0.009 -0.061  0.010 -0.011  0.099
     ------------------------ ATOM   39 ------------------------
     Tr[ns( 39)] (up, down, total) =   4.15920  0.87033  5.02953
     Atomic magnetic moment for atom  39 =   3.28886
     SPIN  1
     eigenvalues:
       0.589  0.589  0.994  0.994  0.994
     eigenvectors (columns):
       0.000 -0.000  0.000  0.000  1.000
       0.005 -0.819 -0.337  0.464  0.000
       0.819  0.005 -0.464 -0.337  0.000
      -0.573 -0.003 -0.663 -0.481  0.000
      -0.003  0.573 -0.481  0.663  0.000
     occupation matrix ns (before diag.):
       0.994  0.000  0.000  0.000  0.000
       0.000  0.722  0.000 -0.000  0.190
       0.000  0.000  0.722  0.190  0.000
       0.000 -0.000  0.190  0.861 -0.000
       0.000  0.190  0.000 -0.000  0.861
     SPIN  2
     eigenvalues:
       0.091  0.091  0.091  0.298  0.298
     eigenvectors (columns):
       1.000  0.000  0.000  0.000  0.000
      -0.000  0.353 -0.479 -0.069 -0.801
      -0.000  0.479  0.353 -0.801  0.069
      -0.000  0.647  0.477  0.593 -0.051
      -0.000  0.477 -0.647  0.051  0.593
     occupation matrix ns (before diag.):
       0.091  0.000 -0.000  0.000  0.000
       0.000  0.225  0.000 -0.000 -0.099
      -0.000  0.000  0.225 -0.099  0.000
       0.000 -0.000 -0.099  0.165 -0.000
       0.000 -0.099  0.000 -0.000  0.165
     ------------------------ ATOM   40 ------------------------
     Tr[ns( 40)] (up, down, total) =   4.61917  0.46217  5.08134
     Atomic magnetic moment for atom  40 =   4.15699
     SPIN  1
     eigenvalues:
       0.642  0.991  0.993  0.996  0.996
     eigenvectors (columns):
       0.052  0.000  0.739  0.000  0.672
       0.628  0.379  0.377  0.326 -0.463
       0.362 -0.657  0.218 -0.564 -0.267
      -0.343  0.564  0.257 -0.657 -0.256
      -0.595 -0.326  0.446  0.379 -0.444
     occupation matrix ns (before diag.):
       0.994 -0.012 -0.007  0.006  0.010
      -0.012  0.856 -0.080  0.075  0.132
      -0.007 -0.080  0.947  0.046  0.075
       0.006  0.075  0.046  0.953 -0.072
       0.010  0.132  0.075 -0.072  0.870
     SPIN  2
     eigenvalues:
       0.038  0.048  0.050  0.144  0.182
     eigenvectors (columns):
      -0.712  0.700 -0.000 -0.000 -0.055
      -0.403 -0.458  0.302 -0.398 -0.614
      -0.233 -0.264 -0.523  0.690 -0.355
      -0.263 -0.240 -0.690 -0.523  0.351
      -0.455 -0.415  0.398  0.302  0.609
     occupation matrix ns (before diag.):
       0.044  0.002  0.001 -0.004 -0.008
       0.002  0.113  0.002 -0.010 -0.063
       0.001  0.002  0.110 -0.051 -0.010
      -0.004 -0.010 -0.051  0.091  0.012
      -0.008 -0.063 -0.010  0.012  0.105
     ------------------------ ATOM   41 ------------------------
     Tr[ns( 41)] (up, down, total) =   4.65187  0.44492  5.09678
     Atomic magnetic moment for atom  41 =   4.20695
     SPIN  1
     eigenvalues:
       0.676  0.992  0.993  0.996  0.996
     eigenvectors (columns):
       0.059  0.000 -0.691  0.000 -0.720
       0.000  0.726  0.000  0.688 -0.000
      -0.739 -0.000  0.455 -0.000 -0.497
       0.671 -0.000  0.562 -0.000 -0.485
       0.000 -0.688 -0.000  0.726 -0.000
     occupation matrix ns (before diag.):
       0.993  0.000  0.015 -0.011  0.000
       0.000  0.994  0.000 -0.000  0.002
       0.015  0.000  0.820  0.158  0.000
      -0.011 -0.000  0.158  0.851 -0.000
       0.000  0.002  0.000 -0.000  0.994
     SPIN  2
     eigenvalues:
       0.036  0.047  0.048  0.139  0.176
     eigenvectors (columns):
      -0.719  0.692  0.000  0.000  0.064
       0.000  0.000  0.598 -0.801  0.000
       0.448  0.532 -0.000 -0.000 -0.718
       0.531  0.488 -0.000  0.000  0.693
       0.000  0.000  0.801  0.598 -0.000
     occupation matrix ns (before diag.):
       0.042  0.000 -0.002  0.010  0.000
       0.000  0.106  0.000 -0.000 -0.044
      -0.002  0.000  0.111 -0.067  0.000
       0.010 -0.000 -0.067  0.106 -0.000
       0.000 -0.044  0.000 -0.000  0.080

     Number of occupied Hubbard levels =   60.8608

     Threshold (ethr) on eigenvalues was too large:
     Diagonalizing with lowered threshold

     Davidson diagonalization with overlap
     ethr =  1.56E-11,  avg # of iterations =  1.0

     negative rho (up, down):  0.000E+00 1.750E-03

     total cpu time spent up to now is       40.5 secs

     total energy              =   -3694.91784059 Ry
     estimated scf accuracy    <       0.00000006 Ry

     total magnetization       =    47.00 Bohr mag/cell
     absolute magnetization    =    50.63 Bohr mag/cell

     iteration #  2     ecut=    60.00 Ry     beta= 0.30
     Davidson diagonalization with overlap
     ethr =  1.60E-11,  avg # of iterations =  2.4

     negative rho (up, down):  0.000E+00 1.750E-03

     total cpu time spent up to now is       62.0 secs

     total energy              =   -3694.91784050 Ry
     estimated scf accuracy    <       0.00000430 Ry

     total magnetization       =    47.00 Bohr mag/cell
     absolute magnetization    =    50.63 Bohr mag/cell

     iteration #  3     ecut=    60.00 Ry     beta= 0.30
     Davidson diagonalization with overlap
     ethr =  1.60E-11,  avg # of iterations =  2.1

     negative rho (up, down):  0.000E+00 1.750E-03

     Magnetic moment per site  (integrated on atomic sphere of radius R)
     atom   1 (R=0.144)  charge=  2.1552  magn=  0.0046
     atom   2 (R=0.144)  charge=  2.1675  magn=  0.0048
     atom   3 (R=0.144)  charge=  2.1674  magn=  0.0048
     atom   4 (R=0.131)  charge= 11.8299  magn=  3.5683
     atom   5 (R=0.131)  charge= 11.8292  magn=  3.5680
     atom   6 (R=0.131)  charge= 11.8417  magn=  3.6060
     atom   7 (R=0.131)  charge=  5.2892  magn= -0.0398
     atom   8 (R=0.131)  charge=  5.2896  magn= -0.0398
     atom   9 (R=0.131)  charge=  5.2847  magn= -0.0148
     atom  10 (R=0.131)  charge=  5.2841  magn=  0.0049
     atom  11 (R=0.131)  charge=  5.2833  magn=  0.0049
     atom  12 (R=0.131)  charge=  5.2852  magn= -0.0148
     atom  13 (R=0.144)  charge=  2.1675  magn=  0.0048
     atom  14 (R=0.144)  charge=  2.1674  magn=  0.0048
     atom  15 (R=0.131)  charge= 11.8299  magn=  3.5683
     atom  16 (R=0.131)  charge= 11.8292  magn=  3.5680
     atom  17 (R=0.131)  charge= 11.7422  magn=  2.9102
     atom  18 (R=0.131)  charge=  5.2892  magn= -0.0398
     atom  19 (R=0.131)  charge=  5.2896  magn= -0.0398
     atom  20 (R=0.131)  charge=  5.2847  magn= -0.0148
     atom  21 (R=0.131)  charge=  5.3058  magn= -0.1454
     atom  22 (R=0.131)  charge=  5.3060  magn= -0.1454
     atom  23 (R=0.131)  charge=  5.2852  magn= -0.0148
     atom  24 (R=0.144)  charge=  2.1552  magn=  0.0046
     atom  25 (R=0.144)  charge=  2.1675  magn=  0.0048
     atom  26 (R=0.144)  charge=  2.1271  magn= -0.0057
     atom  27 (R=0.131)  charge= 11.8299  magn=  3.5683
     atom  28 (R=0.131)  charge= 11.7491  magn=  2.8724
     atom  29 (R=0.131)  charge= 11.8417  magn=  3.6060
     atom  30 (R=0.131)  charge=  5.2892  magn= -0.0398
     atom  31 (R=0.131)  charge=  5.3057  magn= -0.1327
     atom  32 (R=0.131)  charge=  5.3039  magn= -0.1322
     atom  33 (R=0.131)  charge=  5.2841  magn=  0.0049
     atom  34 (R=0.131)  charge=  5.2833  magn=  0.0049
     atom  35 (R=0.131)  charge=  5.2852  magn= -0.0148
     atom  36 (R=0.144)  charge=  2.1552  magn=  0.0046
     atom  37 (R=0.144)  charge=  2.1272  magn= -0.0057
     atom  38 (R=0.144)  charge=  2.1674  magn=  0.0048
     atom  39 (R=0.131)  charge= 11.7492  magn=  2.8723
     atom  40 (R=0.131)  charge= 11.8292  magn=  3.5680
     atom  41 (R=0.131)  charge= 11.8417  magn=  3.6060
     atom  42 (R=0.131)  charge=  5.3061  magn= -0.1327
     atom  43 (R=0.131)  charge=  5.2896  magn= -0.0398
     atom  44 (R=0.131)  charge=  5.2847  magn= -0.0148
     atom  45 (R=0.131)  charge=  5.2841  magn=  0.0049
     atom  46 (R=0.131)  charge=  5.2833  magn=  0.0049
     atom  47 (R=0.131)  charge=  5.3047  magn= -0.1322

     total cpu time spent up to now is       82.8 secs

     End of self-consistent calculation

     =================== HUBBARD OCCUPATIONS ===================
     ------------------------ ATOM    4 ------------------------
     Tr[ns(  4)] (up, down, total) =   4.61918  0.46219  5.08137
     Atomic magnetic moment for atom   4 =   4.15699
     SPIN  1
     eigenvalues:
       0.642  0.991  0.993  0.996  0.996
     eigenvectors (columns):
       0.052  0.000 -0.739  0.000  0.672
      -0.628  0.379  0.377 -0.326  0.463
       0.362  0.657 -0.217 -0.565 -0.267
      -0.344 -0.565 -0.257 -0.657 -0.257
       0.595 -0.326  0.446 -0.379  0.444
     occupation matrix ns (before diag.):
       0.994  0.012 -0.007  0.006 -0.010
       0.012  0.856  0.079 -0.075  0.132
      -0.007  0.079  0.947  0.046 -0.075
       0.006 -0.075  0.046  0.953  0.072
      -0.010  0.132 -0.075  0.072  0.870
     SPIN  2
     eigenvalues:
       0.038  0.048  0.050  0.144  0.182
     eigenvectors (columns):
      -0.712  0.700  0.000 -0.000  0.055
       0.403  0.458  0.302  0.398 -0.614
      -0.233 -0.264  0.523  0.690  0.355
      -0.263 -0.240  0.690 -0.523 -0.351
       0.455  0.415  0.398 -0.302  0.609
     occupation matrix ns (before diag.):
       0.044 -0.002  0.001 -0.004  0.008
      -0.002  0.113 -0.002  0.010 -0.063
       0.001 -0.002  0.110 -0.051  0.010
      -0.004  0.010 -0.051  0.091 -0.012
       0.008 -0.063  0.010 -0.012  0.105
     ------------------------ ATOM    5 ------------------------
     Tr[ns(  5)] (up, down, total) =   4.61922  0.46218  5.08139
     Atomic magnetic moment for atom   5 =   4.15704
     SPIN  1
     eigenvalues:
       0.642  0.991  0.993  0.996  0.996
     eigenvectors (columns):
      -0.052  0.000 -0.739  0.000  0.672
      -0.000  0.758  0.000  0.652 -0.000
       0.725 -0.000  0.435  0.000  0.534
      -0.687 -0.000  0.515 -0.000  0.513
      -0.000 -0.652  0.000  0.758 -0.000
     occupation matrix ns (before diag.):
       0.994  0.000  0.014 -0.012  0.000
       0.000  0.993  0.000 -0.000  0.002
       0.014  0.000  0.810  0.176  0.000
      -0.012 -0.000  0.176  0.828 -0.000
       0.000  0.002  0.000 -0.000  0.994
     SPIN  2
     eigenvalues:
       0.038  0.048  0.050  0.144  0.182
     eigenvectors (columns):
      -0.712  0.700  0.000  0.000  0.055
       0.000 -0.000  0.604 -0.797  0.000
       0.466  0.529 -0.000 -0.000 -0.709
       0.526  0.480 -0.000  0.000  0.703
       0.000 -0.000  0.797  0.604 -0.000
     occupation matrix ns (before diag.):
       0.044  0.000 -0.002  0.009  0.000
       0.000  0.109  0.000 -0.000 -0.045
      -0.002  0.000  0.114 -0.069  0.000
       0.009 -0.000 -0.069  0.112 -0.000
       0.000 -0.045  0.000 -0.000  0.084
     ------------------------ ATOM    6 ------------------------
     Tr[ns(  6)] (up, down, total) =   4.65184  0.44492  5.09676
     Atomic magnetic moment for atom   6 =   4.20693
     SPIN  1
     eigenvalues:
       0.676  0.992  0.993  0.996  0.996
     eigenvectors (columns):
       0.059  0.000  0.691  0.000  0.720
       0.640  0.363  0.394  0.344 -0.430
       0.370 -0.628  0.227 -0.596 -0.248
      -0.335  0.596  0.281 -0.628 -0.242
      -0.581 -0.344  0.486  0.363 -0.420
     occupation matrix ns (before diag.):
       0.993 -0.013 -0.007  0.006  0.010
      -0.013  0.864 -0.075  0.068  0.119
      -0.007 -0.075  0.950  0.041  0.068
       0.006  0.068  0.041  0.958 -0.062
       0.010  0.119  0.068 -0.062  0.887
     SPIN  2
     eigenvalues:
       0.036  0.047  0.048  0.139  0.176
     eigenvectors (columns):
      -0.719 -0.692  0.000 -0.000 -0.064
      -0.388  0.461 -0.299 -0.401 -0.622
      -0.224  0.266  0.518  0.694 -0.359
      -0.266  0.244  0.694 -0.518  0.346
      -0.460  0.423 -0.401  0.299  0.600
     occupation matrix ns (before diag.):
       0.042  0.002  0.001 -0.005 -0.009
       0.002  0.110  0.002 -0.010 -0.061
       0.001  0.002  0.107 -0.049 -0.010
      -0.005 -0.010 -0.049  0.087  0.011
      -0.009 -0.061 -0.010  0.011  0.099
     ------------------------ ATOM   15 ------------------------
     Tr[ns( 15)] (up, down, total) =   4.61918  0.46219  5.08137
     Atomic magnetic moment for atom  15 =   4.15699
     SPIN  1
     eigenvalues:
       0.642  0.991  0.993  0.996  0.996
     eigenvectors (columns):
      -0.052  0.000 -0.739  0.000  0.672
      -0.000  0.758  0.000  0.652 -0.000
       0.725 -0.000  0.435  0.000  0.534
      -0.687 -0.000  0.515 -0.000  0.513
      -0.000 -0.652  0.000  0.758 -0.000
     occupation matrix ns (before diag.):
       0.994  0.000  0.014 -0.012  0.000
       0.000  0.993  0.000 -0.000  0.002
       0.014  0.000  0.810  0.176  0.000
      -0.012 -0.000  0.176  0.828 -0.000
       0.000  0.002  0.000 -0.000  0.994
     SPIN  2
     eigenvalues:
       0.038  0.048  0.050  0.144  0.182
     eigenvectors (columns):
      -0.712  0.700  0.000  0.000  0.055
       0.000 -0.000  0.604 -0.797  0.000
       0.466  0.529 -0.000 -0.000 -0.709
       0.526  0.480 -0.000  0.000  0.703
       0.000 -0.000  0.797  0.604 -0.000
     occupation matrix ns (before diag.):
       0.044  0.000 -0.002  0.009  0.000
       0.000  0.109  0.000 -0.000 -0.045
      -0.002  0.000  0.114 -0.069  0.000
       0.009 -0.000 -0.069  0.112 -0.000
       0.000 -0.045  0.000 -0.000  0.084
     ------------------------ ATOM   16 ------------------------
     Tr[ns( 16)] (up, down, total) =   4.61922  0.46218  5.08139
     Atomic magnetic moment for atom  16 =   4.15704
     SPIN  1
     eigenvalues:
       0.642  0.991  0.993  0.996  0.996
     eigenvectors (columns):
       0.052  0.000 -0.739  0.000  0.672
      -0.628  0.379  0.377 -0.326  0.463
       0.362  0.657 -0.218 -0.564 -0.267
      -0.343 -0.564 -0.257 -0.657 -0.256
       0.595 -0.326  0.446 -0.379  0.444
     occupation matrix ns (before diag.):
       0.994  0.012 -0.007  0.006 -0.010
       0.012  0.856  0.079 -0.075  0.132
      -0.007  0.079  0.947  0.046 -0.075
       0.006 -0.075  0.046  0.953  0.072
      -0.010  0.132 -0.075  0.072  0.870
     SPIN  2
     eigenvalues:
       0.038  0.048  0.050  0.144  0.182
     eigenvectors (columns):
      -0.712  0.700  0.000 -0.000  0.055
       0.403  0.458  0.302  0.398 -0.614
      -0.233 -0.264  0.523  0.690  0.355
      -0.263 -0.240  0.690 -0.523 -0.351
       0.455  0.415  0.398 -0.302  0.609
     occupation matrix ns (before diag.):
       0.044 -0.002  0.001 -0.004  0.008
      -0.002  0.113 -0.002  0.010 -0.063
       0.001 -0.002  0.110 -0.051  0.010
      -0.004  0.010 -0.051  0.091 -0.012
       0.008 -0.063  0.010 -0.012  0.105
     ------------------------ ATOM   17 ------------------------
     Tr[ns( 17)] (up, down, total) =   4.17867  0.84453  5.02320
     Atomic magnetic moment for atom  17 =   3.33414
     SPIN  1
     eigenvalues:
       0.596  0.596  0.995  0.995  0.996
     eigenvectors (columns):
      -0.000 -0.000  0.000  0.000 -1.000
       0.012 -0.823 -0.332  0.461 -0.000
      -0.823 -0.012 -0.461 -0.332 -0.000
       0.568  0.008 -0.668 -0.481 -0.000
      -0.008  0.568 -0.481  0.668 -0.000
     occupation matrix ns (before diag.):
       0.996  0.000  0.000  0.000  0.000
       0.000  0.725  0.000 -0.000  0.186
       0.000  0.000  0.725  0.186  0.000
       0.000 -0.000  0.186  0.866 -0.000
       0.000  0.186  0.000 -0.000  0.866
     SPIN  2
     eigenvalues:
       0.089  0.090  0.090  0.288  0.288
     eigenvectors (columns):
       1.000  0.000  0.000  0.000  0.000
      -0.000  0.353 -0.479 -0.064 -0.802
      -0.000  0.479  0.353 -0.802  0.064
      -0.000  0.647  0.477  0.593 -0.048
      -0.000  0.477 -0.647  0.048  0.593
     occupation matrix ns (before diag.):
       0.089  0.000 -0.000  0.000  0.000
       0.000  0.218  0.000 -0.000 -0.095
      -0.000  0.000  0.218 -0.095  0.000
       0.000 -0.000 -0.095  0.160 -0.000
       0.000 -0.095  0.000 -0.000  0.160
     ------------------------ ATOM   27 ------------------------
     Tr[ns( 27)] (up, down, total) =   4.61918  0.46219  5.08137
     Atomic magnetic moment for atom  27 =   4.15699
     SPIN  1
     eigenvalues:
       0.642  0.991  0.993  0.996  0.996
     eigenvectors (columns):
       0.052  0.000  0.739  0.000  0.672
       0.628  0.379  0.377  0.326 -0.463
       0.362 -0.657  0.217 -0.565 -0.267
      -0.344  0.565  0.257 -0.657 -0.257
      -0.595 -0.326  0.446  0.379 -0.444
     occupation matrix ns (before diag.):
       0.994 -0.012 -0.007  0.006  0.010
      -0.012  0.856 -0.079  0.075  0.132
      -0.007 -0.079  0.947  0.046  0.075
       0.006  0.075  0.046  0.953 -0.072
       0.010  0.132  0.075 -0.072  0.870
     SPIN  2
     eigenvalues:
       0.038  0.048  0.050  0.144  0.182
     eigenvectors (columns):
      -0.712  0.700 -0.000 -0.000 -0.055
      -0.403 -0.458  0.302 -0.398 -0.614
      -0.233 -0.264 -0.523  0.690 -0.355
      -0.263 -0.240 -0.690 -0.523  0.351
      -0.455 -0.415  0.398  0.302  0.609
     occupation matrix ns (before diag.):
       0.044  0.002  0.001 -0.004 -0.008
       0.002  0.113  0.002 -0.010 -0.063
       0.001  0.002  0.110 -0.051 -0.010
      -0.004 -0.010 -0.051  0.091  0.012
      -0.008 -0.063 -0.010  0.012  0.105
     ------------------------ ATOM   28 ------------------------
     Tr[ns( 28)] (up, down, total) =   4.15922  0.87032  5.02954
     Atomic magnetic moment for atom  28 =   3.28890
     SPIN  1
     eigenvalues:
       0.589  0.589  0.994  0.994  0.994
     eigenvectors (columns):
       0.000 -0.000  0.000  0.000  1.000
       0.005 -0.819 -0.337  0.464  0.000
       0.819  0.005 -0.464 -0.337  0.000
      -0.573 -0.003 -0.663 -0.481  0.000
      -0.003  0.573 -0.481  0.663  0.000
     occupation matrix ns (before diag.):
       0.994  0.000  0.000  0.000  0.000
       0.000  0.722  0.000 -0.000  0.190
       0.000  0.000  0.722  0.190  0.000
       0.000 -0.000  0.190  0.861 -0.000
       0.000  0.190  0.000 -0.000  0.861
     SPIN  2
     eigenvalues:
       0.091  0.091  0.091  0.298  0.298
     eigenvectors (columns):
       1.000  0.000  0.000  0.000  0.000
      -0.000  0.353 -0.479 -0.069 -0.801
      -0.000  0.479  0.353 -0.801  0.069
      -0.000  0.647  0.477  0.593 -0.051
      -0.000  0.477 -0.647  0.051  0.593
     occupation matrix ns (before diag.):
       0.091  0.000 -0.000  0.000  0.000
       0.000  0.225  0.000 -0.000 -0.099
      -0.000  0.000  0.225 -0.099  0.000
       0.000 -0.000 -0.099  0.165 -0.000
       0.000 -0.099  0.000 -0.000  0.165
     ------------------------ ATOM   29 ------------------------
     Tr[ns( 29)] (up, down, total) =   4.65184  0.44492  5.09676
     Atomic magnetic moment for atom  29 =   4.20693
     SPIN  1
     eigenvalues:
       0.676  0.992  0.993  0.996  0.996
     eigenvectors (columns):
       0.059 -0.000 -0.691  0.000 -0.720
      -0.640 -0.363  0.394 -0.344 -0.430
       0.370 -0.628 -0.227 -0.596  0.248
      -0.335  0.596 -0.281 -0.628  0.242
       0.581  0.344  0.486 -0.363 -0.420
     occupation matrix ns (before diag.):
       0.993  0.013 -0.007  0.006 -0.010
       0.013  0.864  0.075 -0.068  0.119
      -0.007  0.075  0.950  0.041 -0.068
       0.006 -0.068  0.041  0.958  0.062
      -0.010  0.119 -0.068  0.062  0.887
     SPIN  2
     eigenvalues:
       0.036  0.047  0.048  0.139  0.176
     eigenvectors (columns):
      -0.719 -0.692 -0.000 -0.000  0.064
       0.388 -0.461 -0.299  0.401 -0.622
      -0.224  0.266 -0.518  0.694  0.359
      -0.266  0.244 -0.694 -0.518 -0.346
       0.460 -0.423 -0.401 -0.299  0.600
     occupation matrix ns (before diag.):
       0.042 -0.002  0.001 -0.005  0.009
      -0.002  0.110 -0.002  0.010 -0.061
       0.001 -0.002  0.107 -0.049  0.010
      -0.005  0.010 -0.049  0.087 -0.011
       0.009 -0.061  0.010 -0.011  0.099
     ------------------------ ATOM   39 ------------------------
     Tr[ns( 39)] (up, down, total) =   4.15919  0.87033  5.02953
     Atomic magnetic moment for atom  39 =   3.28886
     SPIN  1
     eigenvalues:
       0.589  0.589  0.994  0.994  0.994
     eigenvectors (columns):
       0.000 -0.000  0.000  0.000  1.000
       0.005 -0.819 -0.337  0.464  0.000
       0.819  0.005 -0.464 -0.337  0.000
      -0.573 -0.003 -0.663 -0.481  0.000
      -0.003  0.573 -0.481  0.663  0.000
     occupation matrix ns (before diag.):
       0.994  0.000  0.000  0.000  0.000
       0.000  0.722  0.000 -0.000  0.190
       0.000  0.000  0.722  0.190  0.000
       0.000 -0.000  0.190  0.861 -0.000
       0.000  0.190  0.000 -0.000  0.861
     SPIN  2
     eigenvalues:
       0.091  0.091  0.091  0.298  0.298
     eigenvectors (columns):
       1.000 -0.000  0.000  0.000  0.000
      -0.000 -0.353 -0.479 -0.069 -0.801
      -0.000 -0.479  0.353 -0.801  0.069
      -0.000 -0.647  0.477  0.593 -0.051
      -0.000 -0.477 -0.647  0.051  0.593
     occupation matrix ns (before diag.):
       0.091  0.000 -0.000  0.000  0.000
       0.000  0.225  0.000 -0.000 -0.099
      -0.000  0.000  0.225 -0.099  0.000
       0.000 -0.000 -0.099  0.165 -0.000
       0.000 -0.099  0.000 -0.000  0.165
     ------------------------ ATOM   40 ------------------------
     Tr[ns( 40)] (up, down, total) =   4.61922  0.46218  5.08139
     Atomic magnetic moment for atom  40 =   4.15704
     SPIN  1
     eigenvalues:
       0.642  0.991  0.993  0.996  0.996
     eigenvectors (columns):
       0.052  0.000  0.739  0.000  0.672
       0.628  0.379  0.377  0.326 -0.463
       0.362 -0.657  0.218 -0.564 -0.267
      -0.343  0.564  0.257 -0.657 -0.256
      -0.595 -0.326  0.446  0.379 -0.444
     occupation matrix ns (before diag.):
       0.994 -0.012 -0.007  0.006  0.010
      -0.012  0.856 -0.079  0.075  0.132
      -0.007 -0.079  0.947  0.046  0.075
       0.006  0.075  0.046  0.953 -0.072
       0.010  0.132  0.075 -0.072  0.870
     SPIN  2
     eigenvalues:
       0.038  0.048  0.050  0.144  0.182
     eigenvectors (columns):
      -0.712  0.700 -0.000 -0.000 -0.055
      -0.403 -0.458  0.302 -0.398 -0.614
      -0.233 -0.264 -0.523  0.690 -0.355
      -0.263 -0.240 -0.690 -0.523  0.351
      -0.455 -0.415  0.398  0.302  0.609
     occupation matrix ns (before diag.):
       0.044  0.002  0.001 -0.004 -0.008
       0.002  0.113  0.002 -0.010 -0.063
       0.001  0.002  0.110 -0.051 -0.010
      -0.004 -0.010 -0.051  0.091  0.012
      -0.008 -0.063 -0.010  0.012  0.105
     ------------------------ ATOM   41 ------------------------
     Tr[ns( 41)] (up, down, total) =   4.65184  0.44492  5.09676
     Atomic magnetic moment for atom  41 =   4.20693
     SPIN  1
     eigenvalues:
       0.676  0.992  0.993  0.996  0.996
     eigenvectors (columns):
       0.059  0.000 -0.691  0.000 -0.720
       0.000  0.726  0.000  0.688 -0.000
      -0.739 -0.000  0.455 -0.000 -0.497
       0.671 -0.000  0.562 -0.000 -0.485
       0.000 -0.688 -0.000  0.726 -0.000
     occupation matrix ns (before diag.):
       0.993  0.000  0.015 -0.011  0.000
       0.000  0.994  0.000 -0.000  0.002
       0.015  0.000  0.820  0.158  0.000
      -0.011 -0.000  0.158  0.851 -0.000
       0.000  0.002  0.000 -0.000  0.994
     SPIN  2
     eigenvalues:
       0.036  0.047  0.048  0.139  0.176
     eigenvectors (columns):
      -0.719  0.692  0.000  0.000  0.064
       0.000  0.000  0.598 -0.801  0.000
       0.448  0.532 -0.000 -0.000 -0.718
       0.531  0.488 -0.000  0.000  0.693
       0.000  0.000  0.801  0.598 -0.000
     occupation matrix ns (before diag.):
       0.042  0.000 -0.002  0.010  0.000
       0.000  0.106  0.000 -0.000 -0.044
      -0.002  0.000  0.111 -0.067  0.000
       0.010 -0.000 -0.067  0.106 -0.000
       0.000 -0.044  0.000 -0.000  0.080

     Number of occupied Hubbard levels =   60.8608

 ------ SPIN UP ------------


          k = 0.0000 0.0000 0.0000 ( 24363 PWs)   bands (ev):

   -73.9630 -73.7607 -73.7605 -73.1089 -73.1088 -73.1030 -73.1030 -73.1029
   -73.1029 -73.0191 -73.0133 -73.0133 -42.6350 -42.6350 -42.6229 -42.4375
   -42.4375 -42.4374 -42.4374 -42.4240 -42.4239 -42.0317 -42.0317 -41.9801
   -41.9801 -41.9801 -41.9801 -41.9215 -41.8703 -41.8703 -41.7402 -41.7402
   -41.7327 -41.7327 -41.7327 -41.7327 -41.7099 -41.7099 -41.7098 -41.7098
   -41.7024 -41.7024 -41.6768 -41.6622 -41.6622 -41.6398 -41.6398 -41.6250
   -36.3618 -36.3613 -35.6928 -35.6807 -35.6807 -35.6337 -35.6333 -35.6214
   -35.6214 -35.6209 -35.6209 -10.3681 -10.3045 -10.2797  -9.5381  -9.5292
    -9.4578  -9.4281  -9.3891  -9.3823  -8.9715  -8.9715  -8.8819  -8.8819
    -8.8815  -8.8227  -8.8227  -8.8218  -8.8218  -8.7351  -8.6897  -8.6614
    -8.6614  -8.6593  -8.6593   1.0976   1.0976   1.1514   1.1514   1.1591
     1.1591   1.3363   1.5595   1.5842   1.8695   2.0702   2.0844   2.5447
     2.5447   2.5548   2.5548   2.5654   2.5654   2.6020   2.7158   2.8599
     2.9380   2.9380   2.9577   2.9577   2.9887   2.9887   3.1411   3.1411
     3.1902   3.2055   3.2205   3.2205   3.2582   3.3452   3.4289   3.4289
     3.6301   3.6301   3.7784   3.7784   3.8161   3.8164   3.8779   3.8779
     4.2558   4.2558   4.2681   4.2681   4.2708   4.2708   4.6910   4.6911
     4.6938   4.6938   4.7253   4.7253   4.7312   4.7312   4.7819   4.8066
     4.8066   4.8205   4.8205   4.8254   4.8254   4.9903   5.0559   5.1834
     5.3663   5.4366   5.4390   5.4390   5.5614   5.5895   5.6061   5.6061
     5.6081   5.6081   5.7089   5.7089   5.7126   5.7126   5.7503   5.7579
     5.8668   5.8757   5.8757   5.9461   5.9461   5.9832   6.0084   6.0084
     6.0112   6.1039   6.1118   6.1213   6.1213   6.2314   6.5161   6.5703
     6.8765   6.8765   6.9946   6.9946   7.0197   7.0197   7.0386   8.3916
     8.3916   8.5234   8.5234   8.5504   8.6328   8.7748   8.7748   8.7960
     8.8355   8.8742   9.2676   9.4446   9.4446   9.4864   9.4864   9.5634
     9.5634   9.8046   9.8046  10.1108  10.1108  10.2247  10.2247

          k = 0.0000 0.0000 0.1376 ( 24398 PWs)   bands (ev):

   -73.9630 -73.7607 -73.7606 -73.1089 -73.1088 -73.1030 -73.1030 -73.1029
   -73.1029 -73.0191 -73.0133 -73.0133 -42.6351 -42.6351 -42.6229 -42.4375
   -42.4375 -42.4374 -42.4374 -42.4240 -42.4239 -42.0317 -42.0317 -41.9801
   -41.9801 -41.9801 -41.9801 -41.9215 -41.8703 -41.8703 -41.7402 -41.7402
   -41.7327 -41.7327 -41.7327 -41.7327 -41.7099 -41.7099 -41.7098 -41.7098
   -41.7024 -41.7024 -41.6768 -41.6622 -41.6622 -41.6398 -41.6398 -41.6250
   -36.3618 -36.3614 -35.6928 -35.6807 -35.6807 -35.6337 -35.6334 -35.6214
   -35.6214 -35.6209 -35.6209 -10.3583 -10.3275 -10.2664  -9.5399  -9.5225
    -9.4558  -9.4404  -9.3941  -9.3727  -8.9719  -8.9719  -8.8825  -8.8749
    -8.8749  -8.8462  -8.8462  -8.8038  -8.8038  -8.7243  -8.6989  -8.6683
    -8.6683  -8.6535  -8.6535   1.1064   1.1064   1.1292   1.1292   1.1725
     1.1725   1.3733   1.4690   1.6365   1.8816   2.0265   2.1093   2.5432
     2.5432   2.5575   2.5575   2.5642   2.5642   2.6216   2.7384   2.8075
     2.9339   2.9339   2.9682   2.9682   2.9830   2.9830   3.1367   3.1367
     3.1800   3.2247   3.2273   3.2273   3.2491   3.4176   3.4176   3.4202
     3.6584   3.6584   3.6626   3.7483   3.7483   3.8881   3.8881   3.9192
     4.2547   4.2547   4.2691   4.2691   4.2705   4.2705   4.6910   4.6911
     4.6949   4.6949   4.7249   4.7249   4.7310   4.7310   4.7819   4.8096
     4.8096   4.8171   4.8171   4.8241   4.8241   4.9518   5.1062   5.1633
     5.3093   5.4484   5.4484   5.4973   5.5464   5.5574   5.5574   5.6370
     5.6587   5.6587   5.7037   5.7037   5.7098   5.7098   5.7197   5.7636
     5.8859   5.8938   5.8938   5.9100   5.9341   5.9341   5.9939   5.9939
     6.0278   6.0646   6.1274   6.1274   6.1696   6.2307   6.4460   6.7309
     6.8759   6.8759   6.9571   6.9992   6.9992   7.0156   7.0156   8.3477
     8.3477   8.5176   8.6110   8.6110   8.6938   8.7340   8.7340   8.7387
     8.7671   9.0355   9.2016   9.4367   9.4367   9.4989   9.4989   9.5559
     9.5559   9.8041   9.8041  10.1329  10.1329  10.2016  10.2016

          k = 0.0000 0.3849 0.0000 ( 24424 PWs)   bands (ev):

   -73.9627 -73.7604 -73.7603 -73.1073 -73.1073 -73.1039 -73.1038 -73.1026
   -73.1026 -73.0176 -73.0142 -73.0129 -42.6349 -42.6346 -42.6229 -42.4372
   -42.4372 -42.4367 -42.4366 -42.4240 -42.4240 -42.0206 -42.0206 -41.9905
   -41.9905 -41.9799 -41.9799 -41.9104 -41.8806 -41.8700 -41.7372 -41.7372
   -41.7307 -41.7306 -41.7266 -41.7266 -41.7177 -41.7176 -41.7134 -41.7134
   -41.7063 -41.7062 -41.6729 -41.6624 -41.6578 -41.6460 -41.6406 -41.6298
   -36.3616 -36.3612 -35.6902 -35.6831 -35.6806 -35.6310 -35.6307 -35.6238
   -35.6235 -35.6212 -35.6209 -10.1541 -10.1019 -10.0663  -9.6973  -9.6666
    -9.6076  -9.4691  -9.4218  -9.3993  -8.9768  -8.9459  -8.9137  -8.8915
    -8.8714  -8.8646  -8.8462  -8.8229  -8.8112  -8.7573  -8.7287  -8.6983
    -8.6824  -8.6791  -8.6762   1.5231   1.5559   1.5868   1.5940   1.6101
     1.6412   1.7143   1.9122   1.9583   2.1592   2.2173   2.2509   2.2691
     2.3246   2.3412   2.3845   2.4109   2.4568   2.6833   2.7310   2.7723
     2.8122   2.8228   2.8955   2.9091   2.9152   2.9204   2.9792   3.0551
     3.1196   3.1445   3.1806   3.2050   3.2694   3.3179   3.3251   3.4208
     3.4308   3.4734   3.5510   3.6249   3.6767   3.6984   3.7180   3.7497
     3.7732   3.8927   3.9043   3.9597   3.9784   4.0700   4.1763   4.2046
     4.2338   4.2716   4.2851   4.3125   4.3901   4.3903   4.4504   4.9809
     4.9818   5.0603   5.0939   5.1513   5.1686   5.2048   5.2468   5.3018
     5.3193   5.3305   5.3491   5.3990   5.4261   5.4696   5.5051   5.5955
     5.6419   5.7096   5.7400   5.7731   5.8057   5.8945   5.8998   5.9287
     5.9441   6.0645   6.2136   6.2789   6.2990   6.3499   6.4110   6.4329
     6.4483   6.4781   6.5003   6.5376   6.5512   6.6121   6.6696   6.6898
     6.7265   6.8544   6.9706   7.0367   7.0453   7.0492   7.1364   7.8894
     8.0776   8.1063   8.1443   8.2188   8.2349   8.3370   8.5773   8.6711
     8.6986   8.8412   8.9786   9.0185   9.0968   9.1900   9.3635   9.3757
     9.4265   9.4402   9.7255   9.7443   9.9051  10.0598  10.1451

          k = 0.0000 0.3849 0.1376 ( 24420 PWs)   bands (ev):

   -73.9627 -73.7604 -73.7603 -73.1073 -73.1073 -73.1039 -73.1038 -73.1026
   -73.1026 -73.0176 -73.0142 -73.0129 -42.6349 -42.6346 -42.6229 -42.4372
   -42.4372 -42.4367 -42.4366 -42.4240 -42.4240 -42.0206 -42.0206 -41.9905
   -41.9905 -41.9799 -41.9799 -41.9104 -41.8806 -41.8700 -41.7372 -41.7372
   -41.7307 -41.7306 -41.7266 -41.7266 -41.7177 -41.7176 -41.7134 -41.7134
   -41.7063 -41.7062 -41.6729 -41.6624 -41.6578 -41.6460 -41.6406 -41.6298
   -36.3616 -36.3612 -35.6902 -35.6831 -35.6806 -35.6310 -35.6307 -35.6238
   -35.6235 -35.6212 -35.6209 -10.1462 -10.1178 -10.0584  -9.6921  -9.6714
    -9.6088  -9.4566  -9.4405  -9.3921  -8.9767  -8.9457  -8.9138  -8.9002
    -8.8683  -8.8632  -8.8400  -8.8251  -8.8141  -8.7446  -8.7357  -8.6996
    -8.6811  -8.6804  -8.6780   1.5191   1.5675   1.5791   1.5945   1.6122
     1.6416   1.7507   1.8139   2.0202   2.1610   2.2216   2.2554   2.2573
     2.3225   2.3480   2.3857   2.4084   2.4582   2.6667   2.7360   2.7526
     2.7955   2.8623   2.8955   2.9088   2.9156   2.9288   2.9921   3.0356
     3.1243   3.1431   3.1881   3.1983   3.2994   3.3196   3.3220   3.3534
     3.4320   3.5006   3.5436   3.6497   3.6655   3.6966   3.7231   3.7650
     3.7875   3.8615   3.8725   3.9671   4.0138   4.0573   4.1743   4.2096
     4.2433   4.2632   4.2848   4.3231   4.3825   4.3855   4.4434   4.9616
     4.9779   5.1172   5.1202   5.1506   5.1545   5.1863   5.2419   5.2760
     5.3135   5.3269   5.3519   5.4029   5.4158   5.5020   5.5170   5.5995
     5.6410   5.6903   5.7582   5.7589   5.7741   5.8585   5.8941   5.9651
     5.9833   6.0359   6.1799   6.2842   6.3513   6.3532   6.4296   6.4362
     6.4661   6.5070   6.5123   6.5398   6.5546   6.5964   6.6156   6.6801
     6.6883   6.8525   6.9821   7.0256   7.0290   7.0661   7.1494   7.9223
     8.0651   8.0897   8.1677   8.1746   8.2636   8.3861   8.4958   8.7077
     8.7346   8.7799   8.9907   9.0322   9.0505   9.2363   9.3640   9.3831
     9.4217   9.4442   9.6948   9.7289   9.9402  10.0375  10.1645

          k = 0.3333 0.5774 0.0000 ( 24462 PWs)   bands (ev):

   -73.9626 -73.7602 -73.7602 -73.1058 -73.1057 -73.1051 -73.1051 -73.1025
   -73.1025 -73.0157 -73.0157 -73.0127 -42.6346 -42.6346 -42.6229 -42.4367
   -42.4367 -42.4367 -42.4366 -42.4240 -42.4240 -42.0075 -42.0075 -42.0034
   -42.0033 -41.9796 -41.9796 -41.8953 -41.8953 -41.8696 -41.7316 -41.7315
   -41.7307 -41.7307 -41.7280 -41.7280 -41.7173 -41.7172 -41.7140 -41.7139
   -41.7124 -41.7123 -41.6670 -41.6670 -41.6540 -41.6504 -41.6366 -41.6366
   -36.3615 -36.3612 -35.6866 -35.6866 -35.6805 -35.6275 -35.6273 -35.6271
   -35.6270 -35.6211 -35.6209  -9.8775  -9.8661  -9.8589  -9.8588  -9.7914
    -9.7912  -9.5629  -9.4905  -9.4904  -8.9816  -8.9814  -8.9231  -8.8899
    -8.8657  -8.8655  -8.8273  -8.8273  -8.8130  -8.7612  -8.7610  -8.7023
    -8.7022  -8.6710  -8.6537   1.8922   1.8922   1.9325   1.9464   1.9464
     1.9530   2.0277   2.0279   2.0846   2.1446   2.2187   2.2188   2.4234
     2.4235   2.4659   2.4671   2.4672   2.4905   2.6082   2.6082   2.6703
     2.6703   2.7308   2.7527   2.7527   2.7772   2.7811   2.9415   2.9416
     3.0685   3.0940   3.0940   3.2278   3.2813   3.2831   3.2833   3.2874
     3.3102   3.3105   3.4449   3.4451   3.4558   3.5066   3.5814   3.5817
     3.8391   3.8808   3.8928   3.8930   3.9611   3.9611   4.0134   4.0634
     4.0635   4.1001   4.1087   4.1210   4.1210   4.1805   4.1807   4.7628
     4.7629   4.7911   5.1177   5.1201   5.1201   5.1898   5.1990   5.2035
     5.2036   5.2575   5.2575   5.3736   5.3754   5.3755   6.0400   6.0849
     6.0922   6.0922   6.1096   6.1223   6.1341   6.1341   6.1675   6.1675
     6.2125   6.2147   6.2148   6.2723   6.2724   6.4056   6.4056   6.4641
     6.4643   6.4652   6.4765   6.5773   6.5775   6.5872   6.8370   6.8371
     6.8971   6.9337   6.9923   6.9923   7.0207   7.0207   7.0708   7.9130
     7.9584   7.9585   8.0813   8.0814   8.1417   8.1824   8.1825   8.2119
     8.8399   8.8399   8.8652   9.0243   9.0244   9.0684   9.0726   9.1416
     9.1417   9.4248   9.4248   9.6880   9.8619   9.8619  10.0047

          k = 0.3333 0.5774 0.1376 ( 24495 PWs)   bands (ev):

   -73.9626 -73.7602 -73.7602 -73.1058 -73.1057 -73.1051 -73.1051 -73.1025
   -73.1025 -73.0157 -73.0157 -73.0127 -42.6346 -42.6346 -42.6229 -42.4367
   -42.4367 -42.4367 -42.4366 -42.4240 -42.4240 -42.0075 -42.0075 -42.0034
   -42.0033 -41.9796 -41.9796 -41.8953 -41.8953 -41.8696 -41.7316 -41.7315
   -41.7307 -41.7307 -41.7280 -41.7280 -41.7173 -41.7172 -41.7140 -41.7139
   -41.7124 -41.7123 -41.6670 -41.6670 -41.6540 -41.6504 -41.6366 -41.6366
   -36.3615 -36.3612 -35.6866 -35.6866 -35.6805 -35.6275 -35.6273 -35.6271
   -35.6270 -35.6211 -35.6209  -9.8748  -9.8690  -9.8584  -9.8584  -9.7921
    -9.7919  -9.5626  -9.4900  -9.4900  -8.9820  -8.9818  -8.9244  -8.8889
    -8.8669  -8.8667  -8.8280  -8.8279  -8.8130  -8.7567  -8.7565  -8.7049
    -8.7048  -8.6687  -8.6559   1.8926   1.8927   1.9355   1.9462   1.9462
     1.9492   2.0269   2.0271   2.0875   2.1427   2.2195   2.2196   2.4114
     2.4115   2.4555   2.4881   2.4882   2.5013   2.6031   2.6031   2.6631
     2.6631   2.7387   2.7543   2.7543   2.7603   2.7893   2.9420   2.9421
     3.0704   3.0943   3.0943   3.2240   3.2829   3.2860   3.2878   3.2880
     3.3041   3.3044   3.4504   3.4506   3.4672   3.4972   3.5783   3.5785
     3.8404   3.8763   3.8926   3.8928   3.9576   3.9576   4.0215   4.0619
     4.0620   4.0744   4.1256   4.1256   4.1296   4.1813   4.1815   4.7629
     4.7631   4.7913   5.1162   5.1162   5.1176   5.1526   5.2181   5.2182
     5.2520   5.2520   5.2654   5.3405   5.3675   5.3676   6.0380   6.0744
     6.0966   6.0967   6.1040   6.1107   6.1108   6.1210   6.1774   6.1774
     6.2187   6.2188   6.2397   6.2788   6.2790   6.3622   6.3622   6.4480
     6.4652   6.5007   6.5010   6.6418   6.6446   6.6447   6.7791   6.7792
     6.8802   6.9266   6.9759   6.9759   7.0314   7.0315   7.0609   7.9079
     7.9439   7.9440   8.1152   8.1153   8.1557   8.1635   8.1636   8.2008
     8.8620   8.8621   8.8946   8.9976   8.9976   9.0137   9.1037   9.1505
     9.1506   9.4266   9.4266   9.6919   9.8586   9.8587   9.9998

          k = 0.0000-0.3849 0.1376 ( 24420 PWs)   bands (ev):

   -73.9627 -73.7604 -73.7603 -73.1073 -73.1073 -73.1039 -73.1038 -73.1026
   -73.1026 -73.0176 -73.0142 -73.0129 -42.6349 -42.6346 -42.6229 -42.4372
   -42.4372 -42.4367 -42.4366 -42.4240 -42.4240 -42.0206 -42.0206 -41.9905
   -41.9905 -41.9799 -41.9799 -41.9104 -41.8806 -41.8700 -41.7372 -41.7372
   -41.7307 -41.7306 -41.7266 -41.7266 -41.7177 -41.7176 -41.7134 -41.7134
   -41.7063 -41.7062 -41.6729 -41.6624 -41.6578 -41.6460 -41.6406 -41.6298
   -36.3616 -36.3612 -35.6902 -35.6831 -35.6806 -35.6310 -35.6307 -35.6238
   -35.6235 -35.6212 -35.6209 -10.1468 -10.1167 -10.0589  -9.6976  -9.6641
    -9.6088  -9.4691  -9.4277  -9.3942  -8.9765  -8.9460  -8.9134  -8.8933
    -8.8724  -8.8606  -8.8518  -8.8256  -8.8094  -8.7482  -8.7262  -8.7007
    -8.6836  -8.6836  -8.6752   1.5304   1.5439   1.5915   1.5951   1.6189
     1.6339   1.7323   1.8489   1.9991   2.1623   2.2233   2.2453   2.2717
     2.3146   2.3505   2.3758   2.4342   2.4421   2.6788   2.7266   2.7635
     2.7902   2.8732   2.8972   2.9056   2.9170   2.9226   2.9491   3.0613
     3.1450   3.1771   3.1820   3.2021   3.2085   3.3207   3.3304   3.3764
     3.4374   3.5409   3.5645   3.6039   3.6730   3.6892   3.7068   3.7546
     3.7783   3.8538   3.9166   3.9854   3.9913   4.0542   4.1779   4.1983
     4.2342   4.2706   4.3201   4.3329   4.3465   4.3592   4.4740   4.9782
     4.9970   5.0767   5.1007   5.1374   5.1679   5.1988   5.2040   5.3046
     5.3283   5.3464   5.3731   5.3948   5.4023   5.4808   5.4997   5.6114
     5.6270   5.6945   5.6998   5.7874   5.8491   5.8873   5.8886   5.9107
     5.9604   6.0894   6.1775   6.2716   6.3446   6.3768   6.4013   6.4358
     6.4610   6.4747   6.5106   6.5361   6.5367   6.6033   6.6418   6.6748
     6.7349   6.8508   6.9948   7.0170   7.0216   7.0630   7.1488   7.9387
     8.0564   8.0879   8.1490   8.1762   8.2723   8.3300   8.5748   8.6737
     8.7010   8.8703   8.9142   9.0429   9.0979   9.1987   9.3645   9.3911
     9.4252   9.4419   9.7032   9.7229   9.9303  10.0639  10.1433

 ------ SPIN DOWN ----------


          k = 0.0000 0.0000 0.0000 ( 24363 PWs)   bands (ev):

   -70.0752 -69.9254 -69.9252 -68.3615 -68.3614 -68.3543 -68.3543 -68.3542
   -68.3542 -68.2232 -68.2160 -68.2160 -38.8484 -38.8484 -38.8351 -38.7054
   -38.7054 -38.7053 -38.7053 -38.6823 -38.6822 -37.7262 -37.7261 -37.6555
   -37.6555 -37.6554 -37.6554 -37.5392 -37.4688 -37.4688 -36.9811 -36.9811
   -36.9810 -36.9810 -36.9478 -36.9477 -36.9083 -36.9082 -36.8783 -36.8783
   -36.8782 -36.8782 -36.8570 -36.8570 -36.8290 -36.8223 -36.7974 -36.7974
   -36.3689 -36.3685 -35.6845 -35.6722 -35.6722 -35.6253 -35.6252 -35.6128
   -35.6128 -35.6125 -35.6125 -10.3888 -10.3342 -10.2926  -9.7201  -9.7138
    -9.6193  -9.3674  -9.3617  -9.3218  -8.8794  -8.8162  -8.8162  -8.7899
    -8.7899  -8.7786  -8.7786  -8.7247  -8.7155  -8.7155  -8.6822  -8.5736
    -8.5736  -8.5682  -8.5682   2.6681   2.6681   2.7281   2.7281   2.7555
     2.7555   2.9428   3.1004   3.2341   3.2813   3.4293   3.4293   3.4519
     3.6739   3.7488   3.7488   3.8020   3.8020   3.8102   3.8498   3.9818
     4.6518   4.6518   4.7405   4.7532   4.7664   4.7664   4.7932   4.7932
     4.8400   4.8400   4.8587   4.8587   4.9377   4.9377   5.3105   5.3105
     5.3391   5.4049   5.4645   5.4645   5.5049   5.5718   5.5718   5.6767
     5.8172   5.8172   5.8226   5.8226   5.9082   5.9465   5.9927   6.0505
     6.0505   6.0864   6.0943   6.0943   6.1186   6.1186   6.1701   6.3064
     6.3112   6.3317   6.3473   6.3473   6.7961   6.7961   6.9079   6.9079
     6.9353   6.9353   6.9959  10.9168  10.9567  10.9567  11.0351  11.0526
    11.1078  11.1078  11.1667  11.1667  11.6344  11.6344  11.6637  11.6637
    11.7120  11.7120  11.9420  11.9420  12.0909  12.0909  12.1042  12.1157
    12.1311  12.2201  12.2201  12.4989  12.5060  12.5498  12.5809  12.5809
    12.6142  12.6142  12.7032  12.7032  12.7891  12.7918  12.8731  12.8731
    12.8924  12.8924  12.9141  12.9141  12.9190  12.9380  12.9652  13.0313
    13.2145  13.2145  13.2388  13.2388  13.3326  13.3326  13.4186  13.4186
    13.4216  13.4216  13.4819  13.4906  13.5355  13.5355  13.5844

          k = 0.0000 0.0000 0.1376 ( 24398 PWs)   bands (ev):

   -70.0752 -69.9253 -69.9252 -68.3615 -68.3614 -68.3543 -68.3543 -68.3542
   -68.3542 -68.2232 -68.2160 -68.2160 -38.8484 -38.8484 -38.8351 -38.7054
   -38.7054 -38.7053 -38.7053 -38.6823 -38.6822 -37.7262 -37.7261 -37.6555
   -37.6555 -37.6554 -37.6554 -37.5392 -37.4688 -37.4688 -36.9811 -36.9811
   -36.9810 -36.9810 -36.9478 -36.9477 -36.9083 -36.9082 -36.8783 -36.8783
   -36.8782 -36.8782 -36.8570 -36.8570 -36.8290 -36.8223 -36.7974 -36.7974
   -36.3689 -36.3685 -35.6846 -35.6722 -35.6722 -35.6253 -35.6252 -35.6128
   -35.6128 -35.6125 -35.6125 -10.3813 -10.3494 -10.2848  -9.7204  -9.7131
    -9.6188  -9.3808  -9.3466  -9.3247  -8.8807  -8.8161  -8.8161  -8.7903
    -8.7903  -8.7782  -8.7782  -8.7156  -8.7156  -8.7146  -8.6908  -8.5726
    -8.5726  -8.5692  -8.5692   2.6781   2.6781   2.7045   2.7045   2.7691
     2.7691   2.9633   3.0734   3.2417   3.3294   3.4667   3.4667   3.4888
     3.5191   3.6150   3.6150   3.6685   3.9165   3.9165   3.9760   4.1817
     4.4757   4.6089   4.6089   4.7697   4.7697   4.8212   4.8212   4.8469
     4.8469   4.8638   4.8638   4.9078   4.9078   5.0314   5.2320   5.3105
     5.3308   5.3308   5.4481   5.4481   5.5814   5.5930   5.5930   5.6673
     5.7547   5.7547   5.8820   5.8820   5.9051   5.9329   5.9577   5.9833
     6.0065   6.0065   6.0777   6.0777   6.1730   6.2057   6.2057   6.3057
     6.3099   6.3099   6.3357   6.5803   6.7952   6.7952   6.8790   6.9129
     6.9129   6.9311   6.9311  10.9178  10.9647  10.9647  11.0335  11.0534
    11.0980  11.0980  11.1684  11.1684  11.6371  11.6371  11.6595  11.6595
    11.7108  11.7108  11.9419  11.9419  12.0979  12.1222  12.1222  12.1232
    12.1314  12.1913  12.1913  12.4839  12.5254  12.5522  12.5793  12.5793
    12.6164  12.6164  12.7025  12.7025  12.7891  12.7918  12.8738  12.8738
    12.8812  12.8812  12.9190  12.9228  12.9228  12.9354  12.9702  13.0397
    13.2133  13.2133  13.2403  13.2403  13.3324  13.3324  13.4131  13.4131
    13.4309  13.4309  13.4723  13.5026  13.5276  13.5276  13.5821

          k = 0.0000 0.3849 0.0000 ( 24424 PWs)   bands (ev):

   -70.0755 -69.9256 -69.9256 -68.3603 -68.3602 -68.3561 -68.3560 -68.3546
   -68.3545 -68.2220 -68.2178 -68.2163 -38.8481 -38.8476 -38.8350 -38.7051
   -38.7050 -38.7044 -38.7044 -38.6822 -38.6822 -37.7111 -37.7110 -37.6698
   -37.6697 -37.6552 -37.6551 -37.5240 -37.4831 -37.4684 -36.9813 -36.9812
   -36.9738 -36.9737 -36.9546 -36.9545 -36.9023 -36.9022 -36.8853 -36.8852
   -36.8790 -36.8789 -36.8566 -36.8488 -36.8295 -36.8227 -36.8053 -36.7985
   -36.3689 -36.3686 -35.6820 -35.6749 -35.6723 -35.6227 -35.6226 -35.6155
   -35.6153 -35.6128 -35.6126 -10.2042 -10.1624 -10.1056  -9.8338  -9.8169
    -9.7310  -9.4380  -9.4090  -9.3779  -8.9167  -8.8676  -8.8544  -8.8335
    -8.7968  -8.7895  -8.7643  -8.7614  -8.7270  -8.6947  -8.6589  -8.6077
    -8.5908  -8.5586  -8.5512   3.0029   3.0367   3.1537   3.1649   3.2396
     3.2842   3.3351   3.4528   3.5060   3.5468   3.5788   3.6030   3.6625
     3.6764   3.7072   3.7584   3.7994   3.8365   3.8639   4.0510   4.0856
     4.3744   4.4077   4.4293   4.4897   4.5568   4.5776   4.6069   4.6199
     4.7011   4.7016   4.7721   4.9162   4.9185   4.9620   5.0045   5.0075
     5.0183   5.1594   5.1789   5.1881   5.2511   5.2968   5.3605   5.4540
     5.5488   5.5796   5.7019   5.7733   5.7805   5.8781   5.8798   5.8885
     5.9004   5.9715   6.0745   6.0922   6.0992   6.1910   6.2563   6.3140
     6.3819   6.4562   6.4861   6.4933   6.5591   6.5928   6.6225   6.6812
     6.7357   6.7380   7.0594  10.9945  11.1331  11.1614  11.2133  11.2511
    11.3404  11.3837  11.4084  11.4507  11.6146  11.6846  11.7036  11.7676
    11.8689  11.8911  11.9142  11.9761  11.9903  12.0661  12.1784  12.2212
    12.2280  12.2440  12.2897  12.4147  12.4555  12.4686  12.4826  12.5145
    12.5310  12.5667  12.5998  12.6413  12.6448  12.6466  12.7011  12.7217
    12.7257  12.7599  12.7671  12.7775  12.7917  12.8571  12.8830  12.9185
    12.9362  12.9573  13.0261  13.1251  13.1346  13.1881  13.2272  13.2388
    13.3033  13.3040  13.3138  13.3791  13.4122  13.4480  13.5285

          k = 0.0000 0.3849 0.1376 ( 24420 PWs)   bands (ev):

   -70.0755 -69.9256 -69.9256 -68.3603 -68.3602 -68.3561 -68.3560 -68.3546
   -68.3545 -68.2220 -68.2178 -68.2163 -38.8481 -38.8476 -38.8350 -38.7051
   -38.7050 -38.7044 -38.7044 -38.6822 -38.6822 -37.7111 -37.7110 -37.6698
   -37.6697 -37.6552 -37.6551 -37.5240 -37.4831 -37.4684 -36.9813 -36.9812
   -36.9738 -36.9737 -36.9546 -36.9545 -36.9023 -36.9022 -36.8853 -36.8852
   -36.8790 -36.8789 -36.8566 -36.8488 -36.8295 -36.8227 -36.8053 -36.7985
   -36.3689 -36.3686 -35.6820 -35.6749 -35.6723 -35.6227 -35.6226 -35.6155
   -35.6153 -35.6128 -35.6126 -10.1990 -10.1710 -10.1022  -9.8326  -9.8177
    -9.7312  -9.4352  -9.4136  -9.3761  -8.9168  -8.8676  -8.8605  -8.8230
    -8.8014  -8.7962  -8.7631  -8.7566  -8.7257  -8.6884  -8.6659  -8.6025
    -8.5955  -8.5601  -8.5498   2.9772   3.0870   3.1291   3.1598   3.2357
     3.3013   3.3813   3.3890   3.5131   3.5187   3.5897   3.6446   3.6516
     3.6557   3.7099   3.7609   3.7732   3.8715   3.9095   3.9374   4.1997
     4.3223   4.3957   4.4263   4.5216   4.5561   4.5664   4.5771   4.6528
     4.6755   4.7187   4.7700   4.9092   4.9191   4.9711   4.9826   4.9909
     5.0453   5.0903   5.1869   5.2482   5.2930   5.3048   5.3467   5.4310
     5.5698   5.5798   5.6881   5.7693   5.7751   5.7867   5.8926   5.9492
     5.9563   5.9582   6.1103   6.1261   6.1695   6.1704   6.1951   6.3322
     6.3379   6.3586   6.4203   6.5244   6.5437   6.5827   6.6640   6.6648
     6.7489   6.8176   7.0461  10.9943  11.1323  11.1579  11.2143  11.2517
    11.3502  11.3779  11.4050  11.4530  11.6274  11.6842  11.7028  11.7615
    11.8282  11.8966  11.9264  11.9754  12.0143  12.0696  12.1776  12.1795
    12.2220  12.2483  12.3262  12.4217  12.4489  12.4711  12.4790  12.5005
    12.5564  12.5701  12.5912  12.6347  12.6434  12.6505  12.6962  12.7309
    12.7388  12.7519  12.7521  12.7665  12.8033  12.8556  12.8886  12.9120
    12.9443  12.9526  13.0254  13.1256  13.1339  13.1850  13.2248  13.2384
    13.3042  13.3116  13.3140  13.3799  13.4211  13.4338  13.5334

          k = 0.3333 0.5774 0.0000 ( 24462 PWs)   bands (ev):

   -70.0757 -69.9257 -69.9257 -68.3587 -68.3587 -68.3580 -68.3579 -68.3547
   -68.3546 -68.2201 -68.2201 -68.2164 -38.8476 -38.8476 -38.8350 -38.7045
   -38.7044 -38.7044 -38.7044 -38.6822 -38.6822 -37.6931 -37.6930 -37.6876
   -37.6875 -37.6548 -37.6548 -37.5034 -37.5034 -37.4680 -36.9810 -36.9809
   -36.9664 -36.9662 -36.9623 -36.9621 -36.8949 -36.8948 -36.8926 -36.8926
   -36.8798 -36.8798 -36.8554 -36.8398 -36.8398 -36.8134 -36.8134 -36.8004
   -36.3689 -36.3686 -35.6785 -35.6785 -35.6723 -35.6193 -35.6192 -35.6190
   -35.6188 -35.6128 -35.6127  -9.9910  -9.9836  -9.9584  -9.9583  -9.8810
    -9.8809  -9.5213  -9.4592  -9.4592  -8.9314  -8.9312  -8.8668  -8.8198
    -8.7956  -8.7955  -8.7813  -8.7421  -8.7419  -8.6550  -8.6549  -8.6128
    -8.6128  -8.5549  -8.5418   3.3857   3.3857   3.4364   3.4705   3.4768
     3.5242   3.5243   3.5522   3.5523   3.7792   3.7794   3.8035   3.8356
     3.8449   3.8452   3.9436   3.9769   3.9770   3.9993   3.9995   4.0691
     4.0864   4.0864   4.2369   4.2430   4.2432   4.4222   4.4774   4.4775
     4.5352   4.6773   4.6774   4.6923   4.8902   4.8902   4.9068   4.9986
     4.9986   5.0183   5.0240   5.0881   5.0882   5.1045   5.1334   5.1334
     5.3965   5.4811   5.4812   5.7785   5.7785   5.8072   5.8682   5.8683
     5.8697   5.8935   5.8935   6.0010   6.0176   6.0763   6.0766   6.2701
     6.3594   6.3595   6.5795   6.6148   6.6148   6.7265   6.7296   6.7296
     6.8045   6.8046   6.8081  11.2520  11.2521  11.2911  11.4102  11.4103
    11.4224  11.4361  11.4735  11.4735  11.7598  11.7598  11.8040  11.9846
    12.0149  12.0150  12.0461  12.0594  12.0594  12.0854  12.1011  12.1012
    12.1192  12.1594  12.1594  12.2332  12.2332  12.2819  12.4645  12.5262
    12.5319  12.5320  12.5850  12.5850  12.6408  12.6408  12.6491  12.6491
    12.6920  12.7578  12.7579  12.7848  12.8017  12.8017  12.8017  12.8491
    12.8492  12.8771  12.9479  12.9481  13.0117  13.0117  13.1280  13.1281
    13.1602  13.2561  13.2688  13.2931  13.2933  13.3434  13.3434

          k = 0.3333 0.5774 0.1376 ( 24495 PWs)   bands (ev):

   -70.0757 -69.9257 -69.9257 -68.3587 -68.3587 -68.3580 -68.3579 -68.3547
   -68.3546 -68.2201 -68.2201 -68.2164 -38.8476 -38.8476 -38.8350 -38.7045
   -38.7044 -38.7044 -38.7044 -38.6822 -38.6822 -37.6931 -37.6930 -37.6876
   -37.6875 -37.6548 -37.6548 -37.5034 -37.5034 -37.4680 -36.9810 -36.9809
   -36.9664 -36.9662 -36.9623 -36.9621 -36.8949 -36.8948 -36.8926 -36.8926
   -36.8798 -36.8798 -36.8554 -36.8398 -36.8398 -36.8134 -36.8134 -36.8004
   -36.3689 -36.3686 -35.6785 -35.6785 -35.6723 -35.6193 -35.6192 -35.6190
   -35.6188 -35.6128 -35.6127  -9.9893  -9.9854  -9.9582  -9.9582  -9.8813
    -9.8811  -9.5212  -9.4590  -9.4589  -8.9316  -8.9314  -8.8678  -8.8188
    -8.7958  -8.7957  -8.7815  -8.7436  -8.7435  -8.6488  -8.6486  -8.6172
    -8.6171  -8.5526  -8.5441   3.3858   3.3858   3.4366   3.4657   3.4864
     3.5267   3.5269   3.5537   3.5539   3.7733   3.7734   3.7857   3.8435
     3.8437   3.8448   3.9321   3.9323   3.9521   4.0259   4.0458   4.0458
     4.0710   4.0710   4.2747   4.2749   4.2779   4.4293   4.5151   4.5152
     4.5952   4.6553   4.6554   4.6920   4.8182   4.8366   4.8366   4.9374
     4.9712   4.9712   5.0455   5.0455   5.0495   5.1674   5.2203   5.2204
     5.4077   5.4986   5.4986   5.7831   5.7831   5.7853   5.8525   5.8526
     5.8880   5.8880   5.8980   5.9581   6.0827   6.1068   6.1070   6.2470
     6.3217   6.3217   6.5686   6.6375   6.6375   6.7219   6.7219   6.7444
     6.7950   6.8018   6.8019  11.2530  11.2530  11.2931  11.4117  11.4118
    11.4218  11.4356  11.4721  11.4721  11.7610  11.7610  11.8107  11.9815
    12.0106  12.0107  12.0440  12.0601  12.0601  12.0682  12.0990  12.0991
    12.1182  12.1435  12.1435  12.2591  12.2592  12.3102  12.4554  12.5256
    12.5321  12.5322  12.5814  12.5814  12.6409  12.6409  12.6487  12.6487
    12.6923  12.7575  12.7575  12.7840  12.8039  12.8041  12.8041  12.8434
    12.8435  12.8837  12.9092  12.9843  13.0229  13.0229  13.1154  13.1155
    13.1487  13.2552  13.2714  13.2940  13.2941  13.3435  13.3435

          k = 0.0000-0.3849 0.1376 ( 24420 PWs)   bands (ev):

   -70.0755 -69.9256 -69.9256 -68.3603 -68.3602 -68.3561 -68.3560 -68.3546
   -68.3545 -68.2220 -68.2178 -68.2163 -38.8481 -38.8476 -38.8350 -38.7051
   -38.7050 -38.7044 -38.7044 -38.6822 -38.6822 -37.7111 -37.7110 -37.6698
   -37.6697 -37.6552 -37.6551 -37.5240 -37.4831 -37.4684 -36.9813 -36.9812
   -36.9738 -36.9737 -36.9546 -36.9545 -36.9023 -36.9022 -36.8853 -36.8852
   -36.8790 -36.8789 -36.8566 -36.8488 -36.8295 -36.8227 -36.8053 -36.7985
   -36.3689 -36.3686 -35.6820 -35.6749 -35.6723 -35.6227 -35.6226 -35.6155
   -35.6153 -35.6128 -35.6126 -10.1992 -10.1707 -10.1024  -9.8344  -9.8159
    -9.7308  -9.4423  -9.4035  -9.3795  -8.9167  -8.8671  -8.8537  -8.8320
    -8.8040  -8.8011  -8.7522  -8.7515  -8.7333  -8.6836  -8.6687  -8.6098
    -8.5897  -8.5562  -8.5533   2.9896   3.0554   3.1490   3.1912   3.2121
     3.2910   3.3370   3.4625   3.5035   3.5448   3.5852   3.5952   3.6043
     3.6741   3.7139   3.7500   3.8002   3.8635   3.9199   3.9659   4.2157
     4.2380   4.4099   4.4530   4.5385   4.5577   4.5697   4.6175   4.6684
     4.6861   4.7633   4.7980   4.8187   4.8867   4.9135   4.9535   5.0053
     5.0388   5.0845   5.2180   5.2502   5.2814   5.3398   5.3706   5.4083
     5.5725   5.6038   5.6855   5.7339   5.7695   5.7966   5.8968   5.9061
     5.9721   6.0136   6.0386   6.1134   6.1440   6.1814   6.2592   6.3008
     6.3627   6.4112   6.4339   6.5284   6.5368   6.5521   6.6235   6.6915
     6.7229   6.9184   6.9714  10.9938  11.1348  11.1584  11.2143  11.2552
    11.3419  11.3834  11.4000  11.4550  11.6312  11.6854  11.7081  11.7635
    11.8218  11.8861  11.9390  11.9718  12.0082  12.0563  12.1901  12.2070
    12.2125  12.2543  12.3076  12.4152  12.4479  12.4674  12.4837  12.5057
    12.5449  12.5691  12.5951  12.6354  12.6455  12.6512  12.7041  12.7162
    12.7265  12.7506  12.7646  12.7681  12.7992  12.8628  12.8816  12.9209
    12.9386  12.9636  13.0211  13.1251  13.1343  13.2108  13.2157  13.2389
    13.2975  13.3066  13.3111  13.3802  13.4059  13.4551  13.5272

     the Fermi energy is     8.9052 ev

!    total energy              =   -3694.91784061 Ry
     estimated scf accuracy    <          4.1E-09 Ry
     smearing contrib. (-TS)   =      -0.00575141 Ry
     internal energy E=F+TS    =   -3694.91208920 Ry

     The total energy is F=E-TS. E is the sum of the following terms:
     one-electron contribution =   -2090.58155240 Ry
     hartree contribution      =    1193.07447173 Ry
     xc contribution           =    -536.95502362 Ry
     ewald contribution        =   -2033.38067912 Ry
     Hubbard energy            =       1.33481282 Ry
     one-center paw contrib.   =    -228.40411861 Ry

     total magnetization       =    47.00 Bohr mag/cell
     absolute magnetization    =    50.63 Bohr mag/cell

     convergence has been achieved in   3 iterations

     Writing all to output data dir ./tmp/limno2_li11.save/ :
     XML data file, charge density, pseudopotentials, collected wavefunctions

     init_run     :      7.18s CPU      7.54s WALL (       1 calls)
     electrons    :     71.68s CPU     74.99s WALL (       1 calls)

     Called by init_run:
     wfcinit      :      4.56s CPU      4.76s WALL (       1 calls)
     potinit      :      1.12s CPU      1.19s WALL (       1 calls)
     hinit0       :      1.08s CPU      1.10s WALL (       1 calls)

     Called by electrons:
     c_bands      :     59.65s CPU     62.04s WALL (       4 calls)
     sum_band     :      9.16s CPU      9.80s WALL (       4 calls)
     v_of_rho     :      1.49s CPU      1.61s WALL (       4 calls)
     newd         :      0.84s CPU      1.04s WALL (       4 calls)
     PAW_pot      :      1.16s CPU      1.17s WALL (       4 calls)
     mix_rho      :      0.06s CPU      0.07s WALL (       4 calls)

     Called by c_bands:
     init_us_2    :      0.60s CPU      0.63s WALL (      36 calls)
     cegterg      :     57.76s CPU     60.13s WALL (      16 calls)

     Called by *egterg:
     cdiaghg      :      5.95s CPU      6.17s WALL (      36 calls)
     h_psi        :     30.44s CPU     32.08s WALL (      44 calls)
     s_psi        :      6.45s CPU      6.49s WALL (      48 calls)
     g_psi        :      0.08s CPU      0.08s WALL (      28 calls)

     Called by h_psi:
     h_psi:calbec :      5.68s CPU      5.77s WALL (      44 calls)
     vloc_psi     :     16.98s CPU     18.28s WALL (      44 calls)
                                        0.00s GPU  (      44 calls)
     add_vuspsi   :      5.51s CPU      5.51s WALL (      44 calls)
     vhpsi        :      2.18s CPU      2.19s WALL (      44 calls)

     General routines
     calbec       :     10.50s CPU     10.67s WALL (     124 calls)
     fft          :      1.08s CPU      1.17s WALL (      96 calls)
     ffts         :      0.38s CPU      0.39s WALL (      16 calls)
     fftw         :     18.34s CPU     19.82s WALL (   18242 calls)
     interpolate  :      0.44s CPU      0.45s WALL (       8 calls)

     Parallel routines

     Hubbard U routines
     new_ns       :      0.45s CPU      0.47s WALL (       4 calls)
     vhpsi        :      2.18s CPU      2.19s WALL (      44 calls)

     PWSCF        :   1m19.32s CPU   1m23.50s WALL


   This run was terminated on:   8:23:36  17Jul2026            

=------------------------------------------------------------------------------=
   JOB DONE.
=------------------------------------------------------------------------------=
