
     Program PWSCF v.7.5 starts on 16Jul2026 at 23:32:20 

     This program is part of the open-source Quantum ESPRESSO suite
     for quantum simulation of materials; please cite
         "P. Giannozzi et al., J. Phys.:Condens. Matter 21 395502 (2009);
         "P. Giannozzi et al., J. Phys.:Condens. Matter 29 465901 (2017);
         "P. Giannozzi et al., J. Chem. Phys. 152 154105 (2020);
          URL http://www.quantum-espresso.org", 
     in publications or presentations arising from this work. More details at
     http://www.quantum-espresso.org/quote

     Parallel version (MPI), running on    24 processors

     MPI processes distributed on     1 nodes
     210030 MiB available memory on the printing compute node when the environment starts

     Reading input from limno2_super_scf.in

     Current dimensions of program PWSCF are:
     Max number of different atomic species (ntypx) = 10
     Max number of k-points (npk) =  40000
     Max angular momentum in pseudopotentials (lmaxx) =  4
     file O.pbe-n-kjpaw_psl.0.1.UPF: wavefunction(s)  2P renormalized
     Found identity + ( -0.0000  0.5000  0.0000) symmetry
     This is a supercell, fractional translations are disabled
     Message from routine setup:
     using ibrav=0 with symmetry is DISCOURAGED, use correct ibrav instead

     K-points division:     npool     =       4
     R & G space division:  proc/nbgrp/npool/nimage =       6
     Subspace diagonalization in iterative solution of the eigenvalue problem:
     one sub-group per band group will be used
     custom distributed-memory algorithm (size of sub-group:  2*  2 procs)


     Parallelization info
     --------------------
     sticks:   dense  smooth     PW     G-vecs:    dense   smooth      PW
     Min         716     360     98                92151    32588    4681
     Max         718     361    101                92162    32595    4690
     Sum        4303    2161    595               552931   195545   28097

     Using Slab Decomposition



     bravais-lattice index     =            0
     lattice parameter (alat)  =      11.4067  a.u.
     unit-cell volume          =    3112.7689 (a.u.)^3
     number of atoms/cell      =           48
     number of atomic types    =            3
     number of electrons       =       360.00
     number of Kohn-Sham states=          216
     kinetic-energy cutoff     =      60.0000  Ry
     charge density cutoff     =     480.0000  Ry
     scf convergence threshold =      1.0E-08
     mixing beta               =       0.3000
     number of iterations used =            8  plain     mixing
     Exchange-correlation= SLA  PW   PBX  PBC
                           (   1   4   3   4   0   0   0)
     Hubbard projectors: ortho-atomic
     Hubbard parameters of DFT+U (Dudarev formulation) in eV:
     U(Mn-3d) =  3.9000

     Internal variables: lda_plus_u =T, lda_plus_u_kind = 0

     Internal variables: orbital_resolved =F, hub_pot_fix =F, apply_U = F

     celldm(1)=  11.406687  celldm(2)=   0.000000  celldm(3)=   0.000000
     celldm(4)=   0.000000  celldm(5)=   0.000000  celldm(6)=   0.000000

     crystal axes: (cart. coord. in units of alat)
               a(1) = (   1.000000   0.000000   0.000000 )  
               a(2) = (  -0.500000   0.866025   0.000000 )  
               a(3) = (   0.000000   0.000000   2.421797 )  

     reciprocal axes: (cart. coord. in units 2 pi/alat)
               b(1) = (  1.000000  0.577350 -0.000000 )  
               b(2) = (  0.000000  1.154701  0.000000 )  
               b(3) = (  0.000000 -0.000000  0.412917 )  


     PseudoPot. # 1 for Li read from file:
     ./pseudo/li_pbe_v1.4.uspp.F.UPF
     MD5 check sum: e912e257baa3777c20ea3d68f190483c
     Pseudo is Ultrasoft, Zval =  3.0
     Generated by new atomic code, or converted to UPF format
     Using radial grid of  751 points,  5 beta functions with: 
                l(1) =   0
                l(2) =   0
                l(3) =   0
                l(4) =   1
                l(5) =   1
     Q(r) pseudized with 10 coefficients,  rinner =    1.150   1.150   1.150


     PseudoPot. # 2 for Mn read from file:
     ./pseudo/mn_pbe_v1.5.uspp.F.UPF
     MD5 check sum: 82ef2b46521d7a7d9e736dc3972e4928
     Pseudo is Ultrasoft + core correction, Zval = 15.0
     Generated by new atomic code, or converted to UPF format
     Using radial grid of  859 points,  6 beta functions with: 
                l(1) =   0
                l(2) =   0
                l(3) =   1
                l(4) =   1
                l(5) =   2
                l(6) =   2
     Q(r) pseudized with  8 coefficients,  rinner =    0.950   0.950   0.950
                                                       0.950   0.950

     PseudoPot. # 3 for O  read from file:
     ./pseudo/O.pbe-n-kjpaw_psl.0.1.UPF
     MD5 check sum: 0234752ac141de4415c5fc33072bef88
     Pseudo is Projector augmented-wave + core cor, Zval =  6.0
     Generated using "atomic" code by A. Dal Corso  v.5.0.99 svn rev. 10869
     Shape of augmentation charge: BESSEL
     Using radial grid of 1095 points,  4 beta functions with: 
                l(1) =   0
                l(2) =   0
                l(3) =   1
                l(4) =   1
     Q(r) pseudized with 0 coefficients 


     atomic species   valence    mass     pseudopotential
     Li                3.00     6.94000     Li( 1.00)
     Mn               15.00    54.93804     Mn( 1.00)
     O                 6.00    15.99900     O ( 1.00)

     Starting magnetic structure 
     atomic species   magnetization
     Li              0.000
     Mn              0.500
     O               0.000

     12 Sym. Ops., with inversion, found



   Cartesian axes

     site n.     atom                  positions (alat units)
         1        Li     tau(   1) = (  -0.0000000   0.2886751   0.4036367  )
         2        Li     tau(   2) = (   0.0000000   0.0000000   1.2108984  )
         3        Li     tau(   3) = (   0.2500000   0.1443376   2.0181601  )
         4        Mn     tau(   4) = (   0.0000000   0.0000000   0.0000000  )
         5        Mn     tau(   5) = (   0.2500000   0.1443376   0.8072866  )
         6        Mn     tau(   6) = (  -0.0000000   0.2886751   1.6145103  )
         7        O      tau(   7) = (   0.0000000   0.0000000   0.6221833  )
         8        O      tau(   8) = (   0.2500000   0.1443376   0.1850957  )
         9        O      tau(   9) = (   0.2500000   0.1443376   1.4294243  )
        10        O      tau(  10) = (  -0.0000000   0.2886751   0.9923725  )
        11        O      tau(  11) = (  -0.0000000   0.2886751   2.2367012  )
        12        O      tau(  12) = (   0.0000000   0.0000000   1.7996136  )
        13        Li     tau(  13) = (  -0.2500000   0.7216878   0.4036367  )
        14        Li     tau(  14) = (  -0.2500000   0.4330127   1.2108984  )
        15        Li     tau(  15) = (   0.0000000   0.5773503   2.0181601  )
        16        Mn     tau(  16) = (  -0.2500000   0.4330127   0.0000000  )
        17        Mn     tau(  17) = (   0.0000000   0.5773503   0.8072866  )
        18        Mn     tau(  18) = (  -0.2500000   0.7216878   1.6145103  )
        19        O      tau(  19) = (  -0.2500000   0.4330127   0.6221833  )
        20        O      tau(  20) = (   0.0000000   0.5773503   0.1850957  )
        21        O      tau(  21) = (   0.0000000   0.5773503   1.4294243  )
        22        O      tau(  22) = (  -0.2500000   0.7216878   0.9923725  )
        23        O      tau(  23) = (  -0.2500000   0.7216878   2.2367012  )
        24        O      tau(  24) = (  -0.2500000   0.4330127   1.7996136  )
        25        Li     tau(  25) = (   0.5000000   0.2886751   0.4036367  )
        26        Li     tau(  26) = (   0.5000000   0.0000000   1.2108984  )
        27        Li     tau(  27) = (   0.7500000   0.1443376   2.0181601  )
        28        Mn     tau(  28) = (   0.5000000   0.0000000   0.0000000  )
        29        Mn     tau(  29) = (   0.7500000   0.1443376   0.8072866  )
        30        Mn     tau(  30) = (   0.5000000   0.2886751   1.6145103  )
        31        O      tau(  31) = (   0.5000000   0.0000000   0.6221833  )
        32        O      tau(  32) = (   0.7500000   0.1443376   0.1850957  )
        33        O      tau(  33) = (   0.7500000   0.1443376   1.4294243  )
        34        O      tau(  34) = (   0.5000000   0.2886751   0.9923725  )
        35        O      tau(  35) = (   0.5000000   0.2886751   2.2367012  )
        36        O      tau(  36) = (   0.5000000   0.0000000   1.7996136  )
        37        Li     tau(  37) = (   0.2500000   0.7216878   0.4036367  )
        38        Li     tau(  38) = (   0.2500000   0.4330127   1.2108984  )
        39        Li     tau(  39) = (   0.5000000   0.5773503   2.0181601  )
        40        Mn     tau(  40) = (   0.2500000   0.4330127   0.0000000  )
        41        Mn     tau(  41) = (   0.5000000   0.5773503   0.8072866  )
        42        Mn     tau(  42) = (   0.2500000   0.7216878   1.6145103  )
        43        O      tau(  43) = (   0.2500000   0.4330127   0.6221833  )
        44        O      tau(  44) = (   0.5000000   0.5773503   0.1850957  )
        45        O      tau(  45) = (   0.5000000   0.5773503   1.4294243  )
        46        O      tau(  46) = (   0.2500000   0.7216878   0.9923725  )
        47        O      tau(  47) = (   0.2500000   0.7216878   2.2367012  )
        48        O      tau(  48) = (   0.2500000   0.4330127   1.7996136  )

     number of k points=     7  Marzari-Vanderbilt smearing, width (Ry)=  0.0200
                       cart. coord. in units 2pi/alat
        k(    1) = (   0.0000000   0.0000000   0.0000000), wk =   0.0370370
        k(    2) = (   0.0000000   0.0000000   0.1376389), wk =   0.0740741
        k(    3) = (   0.0000000   0.3849002   0.0000000), wk =   0.2222222
        k(    4) = (   0.0000000   0.3849002   0.1376389), wk =   0.2222222
        k(    5) = (   0.3333333   0.5773503   0.0000000), wk =   0.0740741
        k(    6) = (   0.3333333   0.5773503   0.1376389), wk =   0.1481481
        k(    7) = (   0.0000000   0.3849002  -0.1376389), wk =   0.2222222

     Dense  grid:   552931 G-vectors     FFT dimensions: (  80,  80, 200)

     Smooth grid:   195545 G-vectors     FFT dimensions: (  60,  60, 144)

     Estimated max dynamical RAM per process >     302.24 MB

     Estimated total dynamical RAM >       6.29 GB

     Atomic positions and unit cell read from directory:
     ./tmp/limno2_super.save/


     Check: negative core charge=   -0.000015
     Generating pointlists ...
     new r_m :   0.1493 (alat units)  1.7036 (a.u.) for type    1
     new r_m :   0.1415 (alat units)  1.6135 (a.u.) for type    2
     new r_m :   0.1415 (alat units)  1.6135 (a.u.) for type    3

     The initial density is read from file :
     ./tmp/limno2_super.save/charge-density


     negative rho (up, down):  0.000E+00 1.701E-03

     STARTING HUBBARD OCCUPATIONS:

     =================== HUBBARD OCCUPATIONS ===================
     ------------------------ ATOM    4 ------------------------
     Tr[ns(  4)] (up, down, total) =   4.61186  0.47468  5.08654
     Atomic magnetic moment for atom   4 =   4.13718
     SPIN  1
     eigenvalues:
       0.813  0.813  0.995  0.995  0.996
     eigenvectors (columns):
      -0.000 -0.000  0.000  0.000 -1.000
      -0.150 -0.796 -0.350  0.471 -0.000
      -0.796  0.150 -0.471 -0.350 -0.000
       0.577 -0.109 -0.650 -0.483 -0.000
       0.109  0.577 -0.483  0.650 -0.000
     occupation matrix ns (before diag.):
       0.996  0.000  0.000  0.000  0.000
       0.000  0.876  0.000 -0.000  0.086
       0.000  0.000  0.876  0.086  0.000
       0.000 -0.000  0.086  0.932 -0.000
       0.000  0.086  0.000 -0.000  0.932
     SPIN  2
     eigenvalues:
       0.046  0.048  0.048  0.166  0.166
     eigenvectors (columns):
       1.000 -0.000  0.000  0.000  0.000
      -0.000 -0.390 -0.495 -0.118 -0.768
      -0.000 -0.495  0.390 -0.768  0.118
      -0.000 -0.610  0.481  0.622 -0.095
      -0.000 -0.481 -0.610  0.095  0.622
     occupation matrix ns (before diag.):
       0.046  0.000 -0.000  0.000  0.000
       0.000  0.119  0.000 -0.000 -0.058
      -0.000  0.000  0.119 -0.058  0.000
       0.000 -0.000 -0.058  0.095 -0.000
       0.000 -0.058  0.000 -0.000  0.095
     ------------------------ ATOM    5 ------------------------
     Tr[ns(  5)] (up, down, total) =   4.61185  0.47468  5.08653
     Atomic magnetic moment for atom   5 =   4.13716
     SPIN  1
     eigenvalues:
       0.813  0.813  0.995  0.995  0.996
     eigenvectors (columns):
      -0.000 -0.000  0.000 -0.000 -1.000
       0.405  0.701  0.292  0.509 -0.000
      -0.701  0.405 -0.509  0.292 -0.000
       0.508 -0.293 -0.702  0.404 -0.000
      -0.293 -0.508  0.404  0.702 -0.000
     occupation matrix ns (before diag.):
       0.996  0.000  0.000  0.000  0.000
       0.000  0.876  0.000 -0.000  0.086
       0.000  0.000  0.876  0.086 -0.000
       0.000 -0.000  0.086  0.932  0.000
       0.000  0.086 -0.000  0.000  0.932
     SPIN  2
     eigenvalues:
       0.046  0.048  0.048  0.166  0.166
     eigenvectors (columns):
       1.000  0.000  0.000  0.000 -0.000
       0.000  0.314 -0.546  0.673 -0.389
       0.000 -0.546 -0.314  0.389  0.673
       0.000 -0.673 -0.388 -0.315 -0.545
       0.000  0.388 -0.673 -0.545  0.315
     occupation matrix ns (before diag.):
       0.046  0.000  0.000 -0.000 -0.000
       0.000  0.119 -0.000  0.000 -0.058
       0.000 -0.000  0.119 -0.058  0.000
      -0.000  0.000 -0.058  0.095  0.000
      -0.000 -0.058  0.000  0.000  0.095
     ------------------------ ATOM    6 ------------------------
     Tr[ns(  6)] (up, down, total) =   4.61185  0.47468  5.08653
     Atomic magnetic moment for atom   6 =   4.13716
     SPIN  1
     eigenvalues:
       0.813  0.813  0.995  0.995  0.996
     eigenvectors (columns):
       0.000  0.000  0.000  0.000  1.000
       0.810 -0.000  0.587 -0.001  0.000
       0.000  0.810  0.001  0.587 -0.000
      -0.000 -0.587  0.002  0.810 -0.000
      -0.587  0.000  0.810 -0.002  0.000
     occupation matrix ns (before diag.):
       0.996  0.000 -0.000 -0.000  0.000
       0.000  0.876  0.000 -0.000  0.086
      -0.000  0.000  0.876  0.086  0.000
      -0.000 -0.000  0.086  0.932 -0.000
       0.000  0.086  0.000 -0.000  0.932
     SPIN  2
     eigenvalues:
       0.046  0.048  0.048  0.166  0.166
     eigenvectors (columns):
       1.000 -0.000  0.000  0.000  0.000
      -0.000 -0.630 -0.001 -0.000 -0.777
      -0.000 -0.001  0.630 -0.777  0.000
      -0.000 -0.001  0.777  0.630 -0.000
      -0.000 -0.777 -0.001  0.000  0.630
     occupation matrix ns (before diag.):
       0.046  0.000 -0.000  0.000  0.000
       0.000  0.119  0.000 -0.000 -0.058
      -0.000  0.000  0.119 -0.058  0.000
       0.000 -0.000 -0.058  0.095 -0.000
       0.000 -0.058  0.000 -0.000  0.095
     ------------------------ ATOM   16 ------------------------
     Tr[ns( 16)] (up, down, total) =   4.61185  0.47468  5.08654
     Atomic magnetic moment for atom  16 =   4.13717
     SPIN  1
     eigenvalues:
       0.813  0.813  0.995  0.995  0.996
     eigenvectors (columns):
      -0.000 -0.000  0.000 -0.000 -1.000
       0.405  0.701  0.292  0.509 -0.000
      -0.701  0.405 -0.509  0.292 -0.000
       0.508 -0.293 -0.702  0.403 -0.000
      -0.293 -0.508  0.403  0.702 -0.000
     occupation matrix ns (before diag.):
       0.996  0.000  0.000  0.000  0.000
       0.000  0.876  0.000 -0.000  0.086
       0.000  0.000  0.876  0.086 -0.000
       0.000 -0.000  0.086  0.932  0.000
       0.000  0.086 -0.000  0.000  0.932
     SPIN  2
     eigenvalues:
       0.046  0.048  0.048  0.166  0.166
     eigenvectors (columns):
       1.000 -0.000  0.000 -0.000  0.000
      -0.000  0.314  0.545  0.673  0.388
      -0.000 -0.545  0.314  0.388 -0.673
      -0.000 -0.673  0.388 -0.315  0.545
      -0.000  0.388  0.673 -0.545 -0.315
     occupation matrix ns (before diag.):
       0.046  0.000  0.000  0.000  0.000
       0.000  0.119 -0.000  0.000 -0.058
       0.000 -0.000  0.119 -0.058  0.000
       0.000  0.000 -0.058  0.095 -0.000
       0.000 -0.058  0.000 -0.000  0.095
     ------------------------ ATOM   17 ------------------------
     Tr[ns( 17)] (up, down, total) =   4.61186  0.47468  5.08654
     Atomic magnetic moment for atom  17 =   4.13718
     SPIN  1
     eigenvalues:
       0.813  0.813  0.995  0.995  0.996
     eigenvectors (columns):
      -0.000 -0.000  0.000  0.000 -1.000
      -0.150 -0.796 -0.350  0.471 -0.000
      -0.796  0.150 -0.471 -0.350 -0.000
       0.577 -0.109 -0.650 -0.483 -0.000
       0.109  0.577 -0.483  0.650 -0.000
     occupation matrix ns (before diag.):
       0.996  0.000  0.000  0.000  0.000
       0.000  0.876  0.000 -0.000  0.086
       0.000  0.000  0.876  0.086  0.000
       0.000 -0.000  0.086  0.932 -0.000
       0.000  0.086  0.000 -0.000  0.932
     SPIN  2
     eigenvalues:
       0.046  0.048  0.048  0.166  0.166
     eigenvectors (columns):
       1.000 -0.000  0.000  0.000  0.000
      -0.000 -0.390 -0.495 -0.118 -0.768
      -0.000 -0.495  0.390 -0.768  0.118
      -0.000 -0.610  0.481  0.622 -0.095
      -0.000 -0.481 -0.610  0.095  0.622
     occupation matrix ns (before diag.):
       0.046  0.000 -0.000  0.000  0.000
       0.000  0.119  0.000 -0.000 -0.058
      -0.000  0.000  0.119 -0.058  0.000
       0.000 -0.000 -0.058  0.095 -0.000
       0.000 -0.058  0.000 -0.000  0.095
     ------------------------ ATOM   18 ------------------------
     Tr[ns( 18)] (up, down, total) =   4.61185  0.47468  5.08653
     Atomic magnetic moment for atom  18 =   4.13716
     SPIN  1
     eigenvalues:
       0.813  0.813  0.995  0.995  0.996
     eigenvectors (columns):
      -0.000  0.000  0.000  0.000 -1.000
      -0.405  0.701 -0.294  0.508  0.000
      -0.701 -0.405 -0.508 -0.294 -0.000
       0.508  0.293 -0.701 -0.405 -0.000
       0.293 -0.508 -0.405  0.701  0.000
     occupation matrix ns (before diag.):
       0.996 -0.000  0.000  0.000 -0.000
      -0.000  0.876 -0.000  0.000  0.086
       0.000 -0.000  0.876  0.086  0.000
       0.000  0.000  0.086  0.932 -0.000
      -0.000  0.086  0.000 -0.000  0.932
     SPIN  2
     eigenvalues:
       0.046  0.048  0.048  0.166  0.166
     eigenvectors (columns):
       1.000 -0.000 -0.000 -0.000 -0.000
      -0.000 -0.315 -0.545  0.673  0.389
       0.000 -0.545  0.315 -0.389  0.673
       0.000 -0.673  0.389  0.315 -0.545
      -0.000 -0.389 -0.673 -0.545 -0.315
     occupation matrix ns (before diag.):
       0.046 -0.000  0.000 -0.000  0.000
      -0.000  0.119  0.000 -0.000 -0.058
       0.000  0.000  0.119 -0.058 -0.000
      -0.000 -0.000 -0.058  0.095 -0.000
       0.000 -0.058 -0.000 -0.000  0.095
     ------------------------ ATOM   28 ------------------------
     Tr[ns( 28)] (up, down, total) =   4.61185  0.47468  5.08654
     Atomic magnetic moment for atom  28 =   4.13717
     SPIN  1
     eigenvalues:
       0.813  0.813  0.995  0.995  0.996
     eigenvectors (columns):
       0.000  0.000  0.000  0.000  1.000
       0.810 -0.000  0.587 -0.002  0.000
       0.000  0.810  0.002  0.587 -0.000
      -0.000 -0.587  0.003  0.810 -0.000
      -0.587  0.000  0.810 -0.003  0.000
     occupation matrix ns (before diag.):
       0.996  0.000 -0.000 -0.000  0.000
       0.000  0.876  0.000 -0.000  0.086
      -0.000  0.000  0.876  0.086  0.000
      -0.000 -0.000  0.086  0.932 -0.000
       0.000  0.086  0.000 -0.000  0.932
     SPIN  2
     eigenvalues:
       0.046  0.048  0.048  0.166  0.166
     eigenvectors (columns):
       1.000  0.000 -0.000 -0.000  0.000
      -0.000 -0.630 -0.000 -0.000 -0.777
       0.000 -0.000  0.630 -0.777  0.000
       0.000 -0.001  0.777  0.630 -0.000
      -0.000 -0.777 -0.001  0.000  0.630
     occupation matrix ns (before diag.):
       0.046  0.000 -0.000 -0.000  0.000
       0.000  0.119  0.000 -0.000 -0.058
      -0.000  0.000  0.119 -0.058  0.000
      -0.000 -0.000 -0.058  0.095 -0.000
       0.000 -0.058  0.000 -0.000  0.095
     ------------------------ ATOM   29 ------------------------
     Tr[ns( 29)] (up, down, total) =   4.61185  0.47468  5.08653
     Atomic magnetic moment for atom  29 =   4.13716
     SPIN  1
     eigenvalues:
       0.813  0.813  0.995  0.995  0.996
     eigenvectors (columns):
      -0.000  0.000  0.000  0.000 -1.000
      -0.405  0.701 -0.294  0.508  0.000
      -0.701 -0.405 -0.508 -0.294 -0.000
       0.508  0.293 -0.701 -0.405 -0.000
       0.293 -0.508 -0.405  0.701  0.000
     occupation matrix ns (before diag.):
       0.996 -0.000  0.000  0.000 -0.000
      -0.000  0.876 -0.000  0.000  0.086
       0.000 -0.000  0.876  0.086  0.000
       0.000  0.000  0.086  0.932 -0.000
      -0.000  0.086  0.000 -0.000  0.932
     SPIN  2
     eigenvalues:
       0.046  0.048  0.048  0.166  0.166
     eigenvectors (columns):
       1.000 -0.000 -0.000 -0.000 -0.000
      -0.000 -0.315 -0.545  0.673  0.389
       0.000 -0.545  0.315 -0.389  0.673
       0.000 -0.673  0.389  0.315 -0.545
      -0.000 -0.389 -0.673 -0.545 -0.315
     occupation matrix ns (before diag.):
       0.046 -0.000  0.000 -0.000  0.000
      -0.000  0.119  0.000 -0.000 -0.058
       0.000  0.000  0.119 -0.058 -0.000
      -0.000 -0.000 -0.058  0.095 -0.000
       0.000 -0.058 -0.000 -0.000  0.095
     ------------------------ ATOM   30 ------------------------
     Tr[ns( 30)] (up, down, total) =   4.61186  0.47468  5.08654
     Atomic magnetic moment for atom  30 =   4.13718
     SPIN  1
     eigenvalues:
       0.813  0.813  0.995  0.995  0.996
     eigenvectors (columns):
      -0.000 -0.000  0.000  0.000 -1.000
      -0.150 -0.796 -0.350  0.471 -0.000
      -0.796  0.150 -0.471 -0.350 -0.000
       0.577 -0.109 -0.650 -0.483 -0.000
       0.109  0.577 -0.483  0.650 -0.000
     occupation matrix ns (before diag.):
       0.996  0.000  0.000  0.000  0.000
       0.000  0.876  0.000 -0.000  0.086
       0.000  0.000  0.876  0.086  0.000
       0.000 -0.000  0.086  0.932 -0.000
       0.000  0.086  0.000 -0.000  0.932
     SPIN  2
     eigenvalues:
       0.046  0.048  0.048  0.166  0.166
     eigenvectors (columns):
       1.000 -0.000  0.000  0.000  0.000
      -0.000 -0.390 -0.495 -0.118 -0.768
      -0.000 -0.495  0.390 -0.768  0.118
      -0.000 -0.610  0.481  0.622 -0.095
      -0.000 -0.481 -0.610  0.095  0.622
     occupation matrix ns (before diag.):
       0.046  0.000 -0.000  0.000  0.000
       0.000  0.119  0.000 -0.000 -0.058
      -0.000  0.000  0.119 -0.058  0.000
       0.000 -0.000 -0.058  0.095 -0.000
       0.000 -0.058  0.000 -0.000  0.095
     ------------------------ ATOM   40 ------------------------
     Tr[ns( 40)] (up, down, total) =   4.61185  0.47468  5.08654
     Atomic magnetic moment for atom  40 =   4.13717
     SPIN  1
     eigenvalues:
       0.813  0.813  0.995  0.995  0.996
     eigenvectors (columns):
      -0.000  0.000  0.000  0.000 -1.000
      -0.405  0.701 -0.294  0.508  0.000
      -0.701 -0.405 -0.508 -0.294 -0.000
       0.508  0.293 -0.701 -0.406 -0.000
       0.293 -0.508 -0.406  0.701  0.000
     occupation matrix ns (before diag.):
       0.996 -0.000  0.000  0.000 -0.000
      -0.000  0.876 -0.000  0.000  0.086
       0.000 -0.000  0.876  0.086  0.000
       0.000  0.000  0.086  0.932 -0.000
      -0.000  0.086  0.000 -0.000  0.932
     SPIN  2
     eigenvalues:
       0.046  0.048  0.048  0.166  0.166
     eigenvectors (columns):
       1.000 -0.000 -0.000  0.000  0.000
       0.000 -0.315  0.545  0.673 -0.388
      -0.000 -0.545 -0.315 -0.388 -0.673
      -0.000 -0.673 -0.389  0.315  0.545
       0.000 -0.389  0.673 -0.545  0.315
     occupation matrix ns (before diag.):
       0.046 -0.000  0.000  0.000 -0.000
      -0.000  0.119  0.000 -0.000 -0.058
       0.000  0.000  0.119 -0.058 -0.000
       0.000 -0.000 -0.058  0.095  0.000
      -0.000 -0.058 -0.000  0.000  0.095
     ------------------------ ATOM   41 ------------------------
     Tr[ns( 41)] (up, down, total) =   4.61185  0.47468  5.08653
     Atomic magnetic moment for atom  41 =   4.13716
     SPIN  1
     eigenvalues:
       0.813  0.813  0.995  0.995  0.996
     eigenvectors (columns):
       0.000  0.000  0.000  0.000  1.000
       0.810 -0.000  0.587 -0.001  0.000
       0.000  0.810  0.001  0.587 -0.000
      -0.000 -0.587  0.002  0.810 -0.000
      -0.587  0.000  0.810 -0.002  0.000
     occupation matrix ns (before diag.):
       0.996  0.000 -0.000 -0.000  0.000
       0.000  0.876  0.000 -0.000  0.086
      -0.000  0.000  0.876  0.086  0.000
      -0.000 -0.000  0.086  0.932 -0.000
       0.000  0.086  0.000 -0.000  0.932
     SPIN  2
     eigenvalues:
       0.046  0.048  0.048  0.166  0.166
     eigenvectors (columns):
       1.000 -0.000  0.000  0.000  0.000
      -0.000 -0.630 -0.001 -0.000 -0.777
      -0.000 -0.001  0.630 -0.777  0.000
      -0.000 -0.001  0.777  0.630 -0.000
      -0.000 -0.777 -0.001  0.000  0.630
     occupation matrix ns (before diag.):
       0.046  0.000 -0.000  0.000  0.000
       0.000  0.119  0.000 -0.000 -0.058
      -0.000  0.000  0.119 -0.058  0.000
       0.000 -0.000 -0.058  0.095 -0.000
       0.000 -0.058  0.000 -0.000  0.095
     ------------------------ ATOM   42 ------------------------
     Tr[ns( 42)] (up, down, total) =   4.61185  0.47468  5.08653
     Atomic magnetic moment for atom  42 =   4.13716
     SPIN  1
     eigenvalues:
       0.813  0.813  0.995  0.995  0.996
     eigenvectors (columns):
      -0.000 -0.000  0.000 -0.000 -1.000
       0.405  0.701  0.292  0.509 -0.000
      -0.701  0.405 -0.509  0.292 -0.000
       0.508 -0.293 -0.702  0.404 -0.000
      -0.293 -0.508  0.404  0.702 -0.000
     occupation matrix ns (before diag.):
       0.996  0.000  0.000  0.000  0.000
       0.000  0.876  0.000 -0.000  0.086
       0.000  0.000  0.876  0.086 -0.000
       0.000 -0.000  0.086  0.932  0.000
       0.000  0.086 -0.000  0.000  0.932
     SPIN  2
     eigenvalues:
       0.046  0.048  0.048  0.166  0.166
     eigenvectors (columns):
       1.000  0.000  0.000  0.000 -0.000
       0.000  0.314 -0.546  0.673 -0.389
       0.000 -0.546 -0.314  0.389  0.673
       0.000 -0.673 -0.388 -0.315 -0.545
       0.000  0.388 -0.673 -0.545  0.315
     occupation matrix ns (before diag.):
       0.046  0.000  0.000 -0.000 -0.000
       0.000  0.119 -0.000  0.000 -0.058
       0.000 -0.000  0.119 -0.058  0.000
      -0.000  0.000 -0.058  0.095  0.000
      -0.000 -0.058  0.000  0.000  0.095

     Number of occupied Hubbard levels =   61.0384

     Atomic wfc used for Hubbard projectors are orthogonalized

     Starting wfcs from file
     Checking if some PAW data can be deallocated... 

     total cpu time spent up to now is        7.8 secs

     Self-consistent Calculation

     iteration #  1     ecut=    60.00 Ry     beta= 0.30
     Davidson diagonalization with overlap
     ethr =  1.00E-05,  avg # of iterations =  2.0

     =================== HUBBARD OCCUPATIONS ===================
     ------------------------ ATOM    4 ------------------------
     Tr[ns(  4)] (up, down, total) =   4.61139  0.47466  5.08605
     Atomic magnetic moment for atom   4 =   4.13672
     SPIN  1
     eigenvalues:
       0.813  0.813  0.995  0.995  0.996
     eigenvectors (columns):
      -0.000 -0.000  0.000  0.000 -1.000
      -0.150 -0.796 -0.350  0.471 -0.000
      -0.796  0.150 -0.471 -0.350 -0.000
       0.577 -0.109 -0.650 -0.483 -0.000
       0.109  0.577 -0.483  0.650 -0.000
     occupation matrix ns (before diag.):
       0.996  0.000  0.000  0.000  0.000
       0.000  0.876  0.000 -0.000  0.086
       0.000  0.000  0.876  0.086  0.000
       0.000 -0.000  0.086  0.932 -0.000
       0.000  0.086  0.000 -0.000  0.932
     SPIN  2
     eigenvalues:
       0.046  0.048  0.048  0.166  0.166
     eigenvectors (columns):
       1.000 -0.000  0.000  0.000  0.000
      -0.000 -0.390 -0.495 -0.118 -0.768
      -0.000 -0.495  0.390 -0.768  0.118
      -0.000 -0.610  0.481  0.622 -0.095
      -0.000 -0.481 -0.610  0.095  0.622
     occupation matrix ns (before diag.):
       0.046  0.000 -0.000  0.000  0.000
       0.000  0.119  0.000 -0.000 -0.058
      -0.000  0.000  0.119 -0.058  0.000
       0.000 -0.000 -0.058  0.095 -0.000
       0.000 -0.058  0.000 -0.000  0.095
     ------------------------ ATOM    5 ------------------------
     Tr[ns(  5)] (up, down, total) =   4.61210  0.47469  5.08678
     Atomic magnetic moment for atom   5 =   4.13741
     SPIN  1
     eigenvalues:
       0.813  0.813  0.995  0.995  0.996
     eigenvectors (columns):
       0.000 -0.000  0.000  0.000  1.000
      -0.405  0.701  0.508  0.294 -0.000
       0.701  0.405  0.294 -0.508 -0.000
      -0.508 -0.293  0.405 -0.701 -0.000
       0.293 -0.508  0.701  0.405 -0.000
     occupation matrix ns (before diag.):
       0.996 -0.000 -0.000 -0.000 -0.000
      -0.000  0.876  0.000 -0.000  0.086
      -0.000  0.000  0.876  0.086 -0.000
      -0.000 -0.000  0.086  0.932  0.000
      -0.000  0.086 -0.000  0.000  0.932
     SPIN  2
     eigenvalues:
       0.046  0.048  0.048  0.166  0.166
     eigenvectors (columns):
       1.000 -0.000  0.000 -0.000  0.000
      -0.000  0.315  0.545  0.673  0.388
      -0.000 -0.545  0.315  0.388 -0.673
      -0.000 -0.673  0.388 -0.315  0.545
      -0.000  0.388  0.673 -0.545 -0.315
     occupation matrix ns (before diag.):
       0.046  0.000  0.000  0.000  0.000
       0.000  0.119 -0.000  0.000 -0.058
       0.000 -0.000  0.119 -0.058  0.000
       0.000  0.000 -0.058  0.095 -0.000
       0.000 -0.058  0.000 -0.000  0.095
     ------------------------ ATOM    6 ------------------------
     Tr[ns(  6)] (up, down, total) =   4.61210  0.47469  5.08678
     Atomic magnetic moment for atom   6 =   4.13741
     SPIN  1
     eigenvalues:
       0.813  0.813  0.995  0.995  0.996
     eigenvectors (columns):
      -0.000  0.000  0.000  0.000  1.000
      -0.810 -0.000 -0.000  0.587  0.000
      -0.000  0.810 -0.587 -0.000  0.000
       0.000 -0.587 -0.810 -0.000  0.000
       0.587  0.000 -0.000  0.810  0.000
     occupation matrix ns (before diag.):
       0.996  0.000  0.000  0.000  0.000
       0.000  0.876  0.000 -0.000  0.086
       0.000  0.000  0.876  0.086  0.000
       0.000 -0.000  0.086  0.932 -0.000
       0.000  0.086  0.000 -0.000  0.932
     SPIN  2
     eigenvalues:
       0.046  0.048  0.048  0.166  0.166
     eigenvectors (columns):
       1.000 -0.000 -0.000  0.000  0.000
      -0.000  0.630 -0.000  0.000 -0.777
       0.000  0.000  0.630  0.777  0.000
       0.000  0.000  0.777 -0.630 -0.000
      -0.000  0.777 -0.000 -0.000  0.630
     occupation matrix ns (before diag.):
       0.046  0.000 -0.000 -0.000  0.000
       0.000  0.119  0.000 -0.000 -0.058
      -0.000  0.000  0.119 -0.058  0.000
      -0.000 -0.000 -0.058  0.095 -0.000
       0.000 -0.058  0.000 -0.000  0.095
     ------------------------ ATOM   16 ------------------------
     Tr[ns( 16)] (up, down, total) =   4.61142  0.47467  5.08609
     Atomic magnetic moment for atom  16 =   4.13674
     SPIN  1
     eigenvalues:
       0.813  0.813  0.995  0.995  0.996
     eigenvectors (columns):
      -0.000 -0.000  0.000 -0.000  1.000
      -0.701  0.405  0.508 -0.294 -0.000
      -0.405 -0.701  0.294  0.508 -0.000
       0.293  0.508  0.406  0.701 -0.000
       0.508 -0.293  0.701 -0.406 -0.000
     occupation matrix ns (before diag.):
       0.996 -0.000 -0.000  0.000  0.000
      -0.000  0.876 -0.000  0.000  0.086
      -0.000 -0.000  0.876  0.086  0.000
       0.000  0.000  0.086  0.932 -0.000
       0.000  0.086  0.000 -0.000  0.932
     SPIN  2
     eigenvalues:
       0.046  0.048  0.048  0.166  0.166
     eigenvectors (columns):
      -1.000  0.000 -0.000  0.000 -0.000
      -0.000 -0.545  0.315  0.388 -0.673
      -0.000 -0.315 -0.545 -0.673 -0.388
      -0.000 -0.389 -0.673  0.545  0.315
      -0.000 -0.673  0.389 -0.315  0.545
     occupation matrix ns (before diag.):
       0.046 -0.000 -0.000 -0.000 -0.000
      -0.000  0.119  0.000 -0.000 -0.058
      -0.000  0.000  0.119 -0.058 -0.000
      -0.000 -0.000 -0.058  0.095  0.000
      -0.000 -0.058 -0.000  0.000  0.095
     ------------------------ ATOM   17 ------------------------
     Tr[ns( 17)] (up, down, total) =   4.61200  0.47468  5.08667
     Atomic magnetic moment for atom  17 =   4.13732
     SPIN  1
     eigenvalues:
       0.813  0.813  0.995  0.995  0.996
     eigenvectors (columns):
      -0.000 -0.000  0.000  0.000 -1.000
      -0.150 -0.796 -0.350  0.471 -0.000
      -0.796  0.150 -0.471 -0.350 -0.000
       0.577 -0.109 -0.650 -0.483 -0.000
       0.109  0.577 -0.483  0.650 -0.000
     occupation matrix ns (before diag.):
       0.996  0.000  0.000  0.000  0.000
       0.000  0.876  0.000 -0.000  0.086
       0.000  0.000  0.876  0.086  0.000
       0.000 -0.000  0.086  0.932 -0.000
       0.000  0.086  0.000 -0.000  0.932
     SPIN  2
     eigenvalues:
       0.046  0.048  0.048  0.166  0.166
     eigenvectors (columns):
       1.000 -0.000  0.000  0.000  0.000
      -0.000 -0.390 -0.495 -0.118 -0.768
      -0.000 -0.495  0.390 -0.768  0.118
      -0.000 -0.610  0.481  0.622 -0.095
      -0.000 -0.481 -0.610  0.095  0.622
     occupation matrix ns (before diag.):
       0.046  0.000 -0.000  0.000  0.000
       0.000  0.119  0.000 -0.000 -0.058
      -0.000  0.000  0.119 -0.058  0.000
       0.000 -0.000 -0.058  0.095 -0.000
       0.000 -0.058  0.000 -0.000  0.095
     ------------------------ ATOM   18 ------------------------
     Tr[ns( 18)] (up, down, total) =   4.61210  0.47469  5.08678
     Atomic magnetic moment for atom  18 =   4.13741
     SPIN  1
     eigenvalues:
       0.813  0.813  0.995  0.995  0.996
     eigenvectors (columns):
       0.000  0.000 -0.000  0.000  1.000
       0.405  0.701  0.508 -0.293  0.000
       0.701 -0.405 -0.293 -0.508 -0.000
      -0.508  0.293 -0.405 -0.701 -0.000
      -0.293 -0.508  0.701 -0.405  0.000
     occupation matrix ns (before diag.):
       0.996  0.000 -0.000 -0.000  0.000
       0.000  0.876 -0.000  0.000  0.086
      -0.000 -0.000  0.876  0.086  0.000
      -0.000  0.000  0.086  0.932 -0.000
       0.000  0.086  0.000 -0.000  0.932
     SPIN  2
     eigenvalues:
       0.046  0.048  0.048  0.166  0.166
     eigenvectors (columns):
       1.000 -0.000 -0.000  0.000  0.000
       0.000 -0.315  0.545  0.673 -0.388
      -0.000 -0.545 -0.315 -0.388 -0.673
      -0.000 -0.673 -0.388  0.315  0.545
       0.000 -0.388  0.673 -0.545  0.315
     occupation matrix ns (before diag.):
       0.046 -0.000  0.000  0.000 -0.000
      -0.000  0.119  0.000 -0.000 -0.058
       0.000  0.000  0.119 -0.058 -0.000
       0.000 -0.000 -0.058  0.095  0.000
      -0.000 -0.058 -0.000  0.000  0.095
     ------------------------ ATOM   28 ------------------------
     Tr[ns( 28)] (up, down, total) =   4.61142  0.47467  5.08609
     Atomic magnetic moment for atom  28 =   4.13674
     SPIN  1
     eigenvalues:
       0.813  0.813  0.995  0.995  0.996
     eigenvectors (columns):
      -0.000 -0.000  0.000 -0.000  1.000
       0.000 -0.810 -0.001  0.587  0.000
       0.810  0.000 -0.587 -0.001  0.000
      -0.587 -0.000 -0.810 -0.002  0.000
      -0.000  0.587 -0.002  0.810  0.000
     occupation matrix ns (before diag.):
       0.996  0.000  0.000 -0.000  0.000
       0.000  0.876  0.000 -0.000  0.086
       0.000  0.000  0.876  0.086  0.000
      -0.000 -0.000  0.086  0.932 -0.000
       0.000  0.086  0.000 -0.000  0.932
     SPIN  2
     eigenvalues:
       0.046  0.048  0.048  0.166  0.166
     eigenvectors (columns):
       1.000  0.000  0.000 -0.000  0.000
      -0.000  0.000 -0.630  0.777  0.000
      -0.000  0.630  0.000  0.000 -0.777
      -0.000  0.777  0.000 -0.000  0.630
      -0.000  0.000 -0.777 -0.630 -0.000
     occupation matrix ns (before diag.):
       0.046  0.000  0.000  0.000  0.000
       0.000  0.119  0.000 -0.000 -0.058
       0.000  0.000  0.119 -0.058  0.000
       0.000 -0.000 -0.058  0.095 -0.000
       0.000 -0.058  0.000 -0.000  0.095
     ------------------------ ATOM   29 ------------------------
     Tr[ns( 29)] (up, down, total) =   4.61210  0.47469  5.08678
     Atomic magnetic moment for atom  29 =   4.13741
     SPIN  1
     eigenvalues:
       0.813  0.813  0.995  0.995  0.996
     eigenvectors (columns):
       0.000  0.000 -0.000  0.000  1.000
       0.405  0.701  0.508 -0.293  0.000
       0.701 -0.405 -0.293 -0.508 -0.000
      -0.508  0.293 -0.405 -0.701 -0.000
      -0.293 -0.508  0.701 -0.405  0.000
     occupation matrix ns (before diag.):
       0.996  0.000 -0.000 -0.000  0.000
       0.000  0.876 -0.000  0.000  0.086
      -0.000 -0.000  0.876  0.086  0.000
      -0.000  0.000  0.086  0.932 -0.000
       0.000  0.086  0.000 -0.000  0.932
     SPIN  2
     eigenvalues:
       0.046  0.048  0.048  0.166  0.166
     eigenvectors (columns):
       1.000 -0.000 -0.000  0.000  0.000
       0.000 -0.315  0.545  0.673 -0.388
      -0.000 -0.545 -0.315 -0.388 -0.673
      -0.000 -0.673 -0.388  0.315  0.545
       0.000 -0.388  0.673 -0.545  0.315
     occupation matrix ns (before diag.):
       0.046 -0.000  0.000  0.000 -0.000
      -0.000  0.119  0.000 -0.000 -0.058
       0.000  0.000  0.119 -0.058 -0.000
       0.000 -0.000 -0.058  0.095  0.000
      -0.000 -0.058 -0.000  0.000  0.095
     ------------------------ ATOM   30 ------------------------
     Tr[ns( 30)] (up, down, total) =   4.61200  0.47468  5.08667
     Atomic magnetic moment for atom  30 =   4.13732
     SPIN  1
     eigenvalues:
       0.813  0.813  0.995  0.995  0.996
     eigenvectors (columns):
      -0.000 -0.000  0.000  0.000 -1.000
      -0.150 -0.796 -0.350  0.471 -0.000
      -0.796  0.150 -0.471 -0.350 -0.000
       0.577 -0.109 -0.650 -0.483 -0.000
       0.109  0.577 -0.483  0.650 -0.000
     occupation matrix ns (before diag.):
       0.996  0.000  0.000  0.000  0.000
       0.000  0.876  0.000 -0.000  0.086
       0.000  0.000  0.876  0.086  0.000
       0.000 -0.000  0.086  0.932 -0.000
       0.000  0.086  0.000 -0.000  0.932
     SPIN  2
     eigenvalues:
       0.046  0.048  0.048  0.166  0.166
     eigenvectors (columns):
       1.000 -0.000  0.000  0.000  0.000
      -0.000 -0.390 -0.495 -0.118 -0.768
      -0.000 -0.495  0.390 -0.768  0.118
      -0.000 -0.610  0.481  0.622 -0.095
      -0.000 -0.481 -0.610  0.095  0.622
     occupation matrix ns (before diag.):
       0.046  0.000 -0.000  0.000  0.000
       0.000  0.119  0.000 -0.000 -0.058
      -0.000  0.000  0.119 -0.058  0.000
       0.000 -0.000 -0.058  0.095 -0.000
       0.000 -0.058  0.000 -0.000  0.095
     ------------------------ ATOM   40 ------------------------
     Tr[ns( 40)] (up, down, total) =   4.61142  0.47467  5.08609
     Atomic magnetic moment for atom  40 =   4.13674
     SPIN  1
     eigenvalues:
       0.813  0.813  0.995  0.995  0.996
     eigenvectors (columns):
       0.000 -0.000 -0.000 -0.000  1.000
      -0.701 -0.405  0.508  0.293  0.000
       0.405 -0.701 -0.293  0.508 -0.000
      -0.293  0.508 -0.405  0.701 -0.000
       0.508  0.293  0.701  0.405  0.000
     occupation matrix ns (before diag.):
       0.996  0.000 -0.000  0.000 -0.000
       0.000  0.876  0.000 -0.000  0.086
      -0.000  0.000  0.876  0.086 -0.000
       0.000 -0.000  0.086  0.932  0.000
      -0.000  0.086 -0.000  0.000  0.932
     SPIN  2
     eigenvalues:
       0.046  0.048  0.048  0.166  0.166
     eigenvectors (columns):
      -1.000 -0.000 -0.000  0.000  0.000
       0.000 -0.545 -0.315 -0.388 -0.673
      -0.000  0.315 -0.545 -0.673  0.388
      -0.000  0.388 -0.673  0.545 -0.315
       0.000 -0.673 -0.388  0.315  0.545
     occupation matrix ns (before diag.):
       0.046  0.000 -0.000 -0.000  0.000
       0.000  0.119 -0.000  0.000 -0.058
      -0.000 -0.000  0.119 -0.058  0.000
      -0.000  0.000 -0.058  0.095 -0.000
       0.000 -0.058  0.000 -0.000  0.095
     ------------------------ ATOM   41 ------------------------
     Tr[ns( 41)] (up, down, total) =   4.61210  0.47469  5.08678
     Atomic magnetic moment for atom  41 =   4.13741
     SPIN  1
     eigenvalues:
       0.813  0.813  0.995  0.995  0.996
     eigenvectors (columns):
      -0.000  0.000  0.000  0.000  1.000
      -0.810 -0.000 -0.000  0.587  0.000
      -0.000  0.810 -0.587 -0.000  0.000
       0.000 -0.587 -0.810 -0.000  0.000
       0.587  0.000 -0.000  0.810  0.000
     occupation matrix ns (before diag.):
       0.996  0.000  0.000  0.000  0.000
       0.000  0.876  0.000 -0.000  0.086
       0.000  0.000  0.876  0.086  0.000
       0.000 -0.000  0.086  0.932 -0.000
       0.000  0.086  0.000 -0.000  0.932
     SPIN  2
     eigenvalues:
       0.046  0.048  0.048  0.166  0.166
     eigenvectors (columns):
       1.000 -0.000 -0.000  0.000  0.000
      -0.000  0.630 -0.000  0.000 -0.777
       0.000  0.000  0.630  0.777  0.000
       0.000  0.000  0.777 -0.630 -0.000
      -0.000  0.777 -0.000 -0.000  0.630
     occupation matrix ns (before diag.):
       0.046  0.000 -0.000 -0.000  0.000
       0.000  0.119  0.000 -0.000 -0.058
      -0.000  0.000  0.119 -0.058  0.000
      -0.000 -0.000 -0.058  0.095 -0.000
       0.000 -0.058  0.000 -0.000  0.095
     ------------------------ ATOM   42 ------------------------
     Tr[ns( 42)] (up, down, total) =   4.61210  0.47469  5.08678
     Atomic magnetic moment for atom  42 =   4.13741
     SPIN  1
     eigenvalues:
       0.813  0.813  0.995  0.995  0.996
     eigenvectors (columns):
       0.000 -0.000  0.000  0.000  1.000
      -0.405  0.701  0.508  0.294 -0.000
       0.701  0.405  0.294 -0.508 -0.000
      -0.508 -0.293  0.405 -0.701 -0.000
       0.293 -0.508  0.701  0.405 -0.000
     occupation matrix ns (before diag.):
       0.996 -0.000 -0.000 -0.000 -0.000
      -0.000  0.876  0.000 -0.000  0.086
      -0.000  0.000  0.876  0.086 -0.000
      -0.000 -0.000  0.086  0.932  0.000
      -0.000  0.086 -0.000  0.000  0.932
     SPIN  2
     eigenvalues:
       0.046  0.048  0.048  0.166  0.166
     eigenvectors (columns):
       1.000 -0.000  0.000 -0.000  0.000
      -0.000  0.315  0.545  0.673  0.388
      -0.000 -0.545  0.315  0.388 -0.673
      -0.000 -0.673  0.388 -0.315  0.545
      -0.000  0.388  0.673 -0.545 -0.315
     occupation matrix ns (before diag.):
       0.046  0.000  0.000  0.000  0.000
       0.000  0.119 -0.000  0.000 -0.058
       0.000 -0.000  0.119 -0.058  0.000
       0.000  0.000 -0.058  0.095 -0.000
       0.000 -0.058  0.000 -0.000  0.095

     Number of occupied Hubbard levels =   61.0384

     Threshold (ethr) on eigenvalues was too large:
     Diagonalizing with lowered threshold

     Davidson diagonalization with overlap
     ethr =  2.22E-09,  avg # of iterations =  1.0

     negative rho (up, down):  0.000E+00 1.701E-03

     total cpu time spent up to now is       44.9 secs

     total energy              =   -3709.49800229 Ry
     estimated scf accuracy    <       0.00000805 Ry

     total magnetization       =    48.00 Bohr mag/cell
     absolute magnetization    =    53.16 Bohr mag/cell

     iteration #  2     ecut=    60.00 Ry     beta= 0.30
     Davidson diagonalization with overlap
     ethr =  2.24E-09,  avg # of iterations =  3.1

     negative rho (up, down):  0.000E+00 1.701E-03

     total cpu time spent up to now is       67.4 secs

     total energy              =   -3709.49795521 Ry
     estimated scf accuracy    <       0.00447850 Ry

     total magnetization       =    48.00 Bohr mag/cell
     absolute magnetization    =    53.16 Bohr mag/cell

     iteration #  3     ecut=    60.00 Ry     beta= 0.30
     Davidson diagonalization with overlap
     ethr =  2.24E-09,  avg # of iterations =  2.6

     negative rho (up, down):  0.000E+00 1.701E-03

     total cpu time spent up to now is       89.5 secs

     total energy              =   -3709.49800603 Ry
     estimated scf accuracy    <       0.00000031 Ry

     total magnetization       =    48.00 Bohr mag/cell
     absolute magnetization    =    53.16 Bohr mag/cell

     iteration #  4     ecut=    60.00 Ry     beta= 0.30
     Davidson diagonalization with overlap
     ethr =  8.70E-11,  avg # of iterations =  4.5

     negative rho (up, down):  0.000E+00 1.701E-03

     Magnetic moment per site  (integrated on atomic sphere of radius R)
     atom   1 (R=0.149)  charge=  2.1885  magn=  0.0040
     atom   2 (R=0.149)  charge=  2.1885  magn=  0.0040
     atom   3 (R=0.149)  charge=  2.1885  magn=  0.0040
     atom   4 (R=0.141)  charge= 12.1927  magn=  3.6995
     atom   5 (R=0.141)  charge= 12.1928  magn=  3.6995
     atom   6 (R=0.141)  charge= 12.1928  magn=  3.6995
     atom   7 (R=0.141)  charge=  5.6263  magn= -0.0992
     atom   8 (R=0.141)  charge=  5.6258  magn= -0.0992
     atom   9 (R=0.141)  charge=  5.6259  magn= -0.0991
     atom  10 (R=0.141)  charge=  5.6259  magn= -0.0991
     atom  11 (R=0.141)  charge=  5.6258  magn= -0.0992
     atom  12 (R=0.141)  charge=  5.6263  magn= -0.0992
     atom  13 (R=0.149)  charge=  2.1885  magn=  0.0040
     atom  14 (R=0.149)  charge=  2.1885  magn=  0.0040
     atom  15 (R=0.149)  charge=  2.1885  magn=  0.0040
     atom  16 (R=0.141)  charge= 12.1927  magn=  3.6995
     atom  17 (R=0.141)  charge= 12.1927  magn=  3.6995
     atom  18 (R=0.141)  charge= 12.1928  magn=  3.6995
     atom  19 (R=0.141)  charge=  5.6263  magn= -0.0992
     atom  20 (R=0.141)  charge=  5.6258  magn= -0.0992
     atom  21 (R=0.141)  charge=  5.6259  magn= -0.0991
     atom  22 (R=0.141)  charge=  5.6259  magn= -0.0991
     atom  23 (R=0.141)  charge=  5.6258  magn= -0.0992
     atom  24 (R=0.141)  charge=  5.6263  magn= -0.0992
     atom  25 (R=0.149)  charge=  2.1885  magn=  0.0040
     atom  26 (R=0.149)  charge=  2.1885  magn=  0.0040
     atom  27 (R=0.149)  charge=  2.1885  magn=  0.0040
     atom  28 (R=0.141)  charge= 12.1927  magn=  3.6995
     atom  29 (R=0.141)  charge= 12.1928  magn=  3.6995
     atom  30 (R=0.141)  charge= 12.1927  magn=  3.6995
     atom  31 (R=0.141)  charge=  5.6263  magn= -0.0992
     atom  32 (R=0.141)  charge=  5.6258  magn= -0.0992
     atom  33 (R=0.141)  charge=  5.6259  magn= -0.0991
     atom  34 (R=0.141)  charge=  5.6259  magn= -0.0991
     atom  35 (R=0.141)  charge=  5.6258  magn= -0.0992
     atom  36 (R=0.141)  charge=  5.6263  magn= -0.0992
     atom  37 (R=0.149)  charge=  2.1885  magn=  0.0040
     atom  38 (R=0.149)  charge=  2.1885  magn=  0.0040
     atom  39 (R=0.149)  charge=  2.1885  magn=  0.0040
     atom  40 (R=0.141)  charge= 12.1927  magn=  3.6995
     atom  41 (R=0.141)  charge= 12.1928  magn=  3.6995
     atom  42 (R=0.141)  charge= 12.1928  magn=  3.6995
     atom  43 (R=0.141)  charge=  5.6263  magn= -0.0992
     atom  44 (R=0.141)  charge=  5.6258  magn= -0.0992
     atom  45 (R=0.141)  charge=  5.6259  magn= -0.0991
     atom  46 (R=0.141)  charge=  5.6259  magn= -0.0991
     atom  47 (R=0.141)  charge=  5.6258  magn= -0.0992
     atom  48 (R=0.141)  charge=  5.6263  magn= -0.0992

     total cpu time spent up to now is      113.1 secs

     End of self-consistent calculation

     =================== HUBBARD OCCUPATIONS ===================
     ------------------------ ATOM    4 ------------------------
     Tr[ns(  4)] (up, down, total) =   4.61187  0.47468  5.08655
     Atomic magnetic moment for atom   4 =   4.13719
     SPIN  1
     eigenvalues:
       0.813  0.813  0.995  0.995  0.996
     eigenvectors (columns):
      -0.000 -0.000  0.000  0.000 -1.000
      -0.150 -0.796 -0.350  0.471 -0.000
      -0.796  0.150 -0.471 -0.350 -0.000
       0.577 -0.109 -0.650 -0.483 -0.000
       0.109  0.577 -0.483  0.650 -0.000
     occupation matrix ns (before diag.):
       0.996  0.000  0.000  0.000  0.000
       0.000  0.876  0.000 -0.000  0.086
       0.000  0.000  0.876  0.086  0.000
       0.000 -0.000  0.086  0.932 -0.000
       0.000  0.086  0.000 -0.000  0.932
     SPIN  2
     eigenvalues:
       0.046  0.048  0.048  0.166  0.166
     eigenvectors (columns):
       1.000 -0.000  0.000  0.000  0.000
      -0.000 -0.390 -0.495 -0.118 -0.768
      -0.000 -0.495  0.390 -0.768  0.118
      -0.000 -0.610  0.481  0.622 -0.095
      -0.000 -0.481 -0.610  0.095  0.622
     occupation matrix ns (before diag.):
       0.046  0.000 -0.000  0.000  0.000
       0.000  0.119  0.000 -0.000 -0.058
      -0.000  0.000  0.119 -0.058  0.000
       0.000 -0.000 -0.058  0.095 -0.000
       0.000 -0.058  0.000 -0.000  0.095
     ------------------------ ATOM    5 ------------------------
     Tr[ns(  5)] (up, down, total) =   4.61185  0.47468  5.08654
     Atomic magnetic moment for atom   5 =   4.13717
     SPIN  1
     eigenvalues:
       0.813  0.813  0.995  0.995  0.996
     eigenvectors (columns):
       0.000 -0.000  0.000  0.000 -1.000
      -0.405 -0.701  0.506  0.297  0.000
       0.701 -0.405  0.297 -0.506  0.000
      -0.508  0.293  0.410 -0.698  0.000
       0.293  0.508  0.698  0.410  0.000
     occupation matrix ns (before diag.):
       0.996 -0.000 -0.000  0.000  0.000
      -0.000  0.876  0.000 -0.000  0.086
      -0.000  0.000  0.876  0.086 -0.000
       0.000 -0.000  0.086  0.932  0.000
       0.000  0.086 -0.000  0.000  0.932
     SPIN  2
     eigenvalues:
       0.046  0.048  0.048  0.166  0.166
     eigenvectors (columns):
      -1.000 -0.000 -0.000 -0.000 -0.000
      -0.000 -0.314  0.546  0.388 -0.673
      -0.000  0.546  0.314 -0.673 -0.388
      -0.000  0.673  0.388  0.545  0.315
      -0.000 -0.388  0.673 -0.315  0.545
     occupation matrix ns (before diag.):
       0.046  0.000  0.000 -0.000 -0.000
       0.000  0.119 -0.000 -0.000 -0.058
       0.000 -0.000  0.119 -0.058 -0.000
      -0.000 -0.000 -0.058  0.095  0.000
      -0.000 -0.058 -0.000  0.000  0.095
     ------------------------ ATOM    6 ------------------------
     Tr[ns(  6)] (up, down, total) =   4.61185  0.47468  5.08654
     Atomic magnetic moment for atom   6 =   4.13717
     SPIN  1
     eigenvalues:
       0.813  0.813  0.995  0.995  0.996
     eigenvectors (columns):
      -0.000 -0.000  0.000  0.000  1.000
      -0.810 -0.000 -0.005  0.587  0.000
      -0.000  0.810 -0.587 -0.005  0.000
       0.000 -0.587 -0.810 -0.008  0.000
       0.587  0.000 -0.008  0.810  0.000
     occupation matrix ns (before diag.):
       0.996  0.000  0.000 -0.000  0.000
       0.000  0.876  0.000 -0.000  0.086
       0.000  0.000  0.876  0.086  0.000
      -0.000 -0.000  0.086  0.932 -0.000
       0.000  0.086  0.000 -0.000  0.932
     SPIN  2
     eigenvalues:
       0.046  0.048  0.048  0.166  0.166
     eigenvectors (columns):
       1.000 -0.000  0.000 -0.000  0.000
      -0.000 -0.630 -0.001  0.777  0.000
      -0.000 -0.001  0.630  0.000 -0.777
      -0.000 -0.001  0.777 -0.000  0.630
      -0.000 -0.777 -0.001 -0.630 -0.000
     occupation matrix ns (before diag.):
       0.046  0.000 -0.000  0.000  0.000
       0.000  0.119  0.000 -0.000 -0.058
      -0.000  0.000  0.119 -0.058  0.000
       0.000 -0.000 -0.058  0.095 -0.000
       0.000 -0.058  0.000 -0.000  0.095
     ------------------------ ATOM   16 ------------------------
     Tr[ns( 16)] (up, down, total) =   4.61185  0.47468  5.08654
     Atomic magnetic moment for atom  16 =   4.13717
     SPIN  1
     eigenvalues:
       0.813  0.813  0.995  0.995  0.996
     eigenvectors (columns):
      -0.000 -0.000  0.000 -0.000 -1.000
       0.405  0.701  0.292  0.509 -0.000
      -0.701  0.405 -0.509  0.292 -0.000
       0.508 -0.293 -0.702  0.403 -0.000
      -0.293 -0.508  0.403  0.702 -0.000
     occupation matrix ns (before diag.):
       0.996  0.000  0.000 -0.000 -0.000
       0.000  0.876  0.000 -0.000  0.086
       0.000  0.000  0.876  0.086 -0.000
      -0.000 -0.000  0.086  0.932  0.000
      -0.000  0.086 -0.000  0.000  0.932
     SPIN  2
     eigenvalues:
       0.046  0.048  0.048  0.166  0.166
     eigenvectors (columns):
       1.000 -0.000  0.000 -0.000  0.000
      -0.000  0.315  0.545  0.673  0.388
      -0.000 -0.545  0.315  0.388 -0.673
      -0.000 -0.673  0.388 -0.315  0.545
      -0.000  0.388  0.673 -0.545 -0.315
     occupation matrix ns (before diag.):
       0.046  0.000  0.000  0.000  0.000
       0.000  0.119 -0.000  0.000 -0.058
       0.000 -0.000  0.119 -0.058  0.000
       0.000  0.000 -0.058  0.095 -0.000
       0.000 -0.058  0.000 -0.000  0.095
     ------------------------ ATOM   17 ------------------------
     Tr[ns( 17)] (up, down, total) =   4.61184  0.47468  5.08652
     Atomic magnetic moment for atom  17 =   4.13716
     SPIN  1
     eigenvalues:
       0.813  0.813  0.995  0.995  0.996
     eigenvectors (columns):
      -0.000 -0.000  0.000  0.000 -1.000
      -0.150 -0.796 -0.350  0.471 -0.000
      -0.796  0.150 -0.471 -0.350 -0.000
       0.577 -0.109 -0.650 -0.483 -0.000
       0.109  0.577 -0.483  0.650 -0.000
     occupation matrix ns (before diag.):
       0.996  0.000  0.000  0.000  0.000
       0.000  0.876  0.000 -0.000  0.086
       0.000  0.000  0.876  0.086  0.000
       0.000 -0.000  0.086  0.932 -0.000
       0.000  0.086  0.000 -0.000  0.932
     SPIN  2
     eigenvalues:
       0.046  0.048  0.048  0.166  0.166
     eigenvectors (columns):
       1.000 -0.000  0.000  0.000  0.000
      -0.000 -0.390 -0.495 -0.118 -0.768
      -0.000 -0.495  0.390 -0.768  0.118
      -0.000 -0.610  0.481  0.622 -0.095
      -0.000 -0.481 -0.610  0.095  0.622
     occupation matrix ns (before diag.):
       0.046  0.000 -0.000  0.000  0.000
       0.000  0.119  0.000 -0.000 -0.058
      -0.000  0.000  0.119 -0.058  0.000
       0.000 -0.000 -0.058  0.095 -0.000
       0.000 -0.058  0.000 -0.000  0.095
     ------------------------ ATOM   18 ------------------------
     Tr[ns( 18)] (up, down, total) =   4.61185  0.47468  5.08654
     Atomic magnetic moment for atom  18 =   4.13717
     SPIN  1
     eigenvalues:
       0.813  0.813  0.995  0.995  0.996
     eigenvectors (columns):
       0.000  0.000 -0.000  0.000 -1.000
       0.405 -0.701  0.509 -0.292 -0.000
       0.701  0.405 -0.292 -0.509  0.000
      -0.508 -0.293 -0.403 -0.702  0.000
      -0.293  0.508  0.702 -0.403 -0.000
     occupation matrix ns (before diag.):
       0.996  0.000 -0.000  0.000 -0.000
       0.000  0.876 -0.000  0.000  0.086
      -0.000 -0.000  0.876  0.086  0.000
       0.000  0.000  0.086  0.932 -0.000
      -0.000  0.086  0.000 -0.000  0.932
     SPIN  2
     eigenvalues:
       0.046  0.048  0.048  0.166  0.166
     eigenvectors (columns):
      -1.000  0.000  0.000 -0.000  0.000
       0.000  0.315  0.545 -0.388 -0.673
      -0.000  0.545 -0.315 -0.673  0.388
      -0.000  0.673 -0.389  0.545 -0.315
       0.000  0.389  0.673  0.315  0.545
     occupation matrix ns (before diag.):
       0.046 -0.000  0.000 -0.000  0.000
      -0.000  0.119  0.000  0.000 -0.058
       0.000  0.000  0.119 -0.058  0.000
      -0.000  0.000 -0.058  0.095 -0.000
       0.000 -0.058  0.000 -0.000  0.095
     ------------------------ ATOM   28 ------------------------
     Tr[ns( 28)] (up, down, total) =   4.61185  0.47468  5.08654
     Atomic magnetic moment for atom  28 =   4.13717
     SPIN  1
     eigenvalues:
       0.813  0.813  0.995  0.995  0.996
     eigenvectors (columns):
       0.000  0.000  0.000  0.000  1.000
       0.810 -0.000  0.587 -0.002  0.000
       0.000  0.810  0.002  0.587 -0.000
      -0.000 -0.587  0.002  0.810 -0.000
      -0.587  0.000  0.810 -0.002  0.000
     occupation matrix ns (before diag.):
       0.996  0.000 -0.000  0.000  0.000
       0.000  0.876  0.000 -0.000  0.086
      -0.000  0.000  0.876  0.086  0.000
       0.000 -0.000  0.086  0.932 -0.000
       0.000  0.086  0.000 -0.000  0.932
     SPIN  2
     eigenvalues:
       0.046  0.048  0.048  0.166  0.166
     eigenvectors (columns):
       1.000 -0.000 -0.000  0.000  0.000
      -0.000  0.630 -0.000  0.000 -0.777
       0.000  0.000  0.630  0.777  0.000
       0.000  0.000  0.777 -0.630 -0.000
      -0.000  0.777 -0.000 -0.000  0.630
     occupation matrix ns (before diag.):
       0.046  0.000 -0.000 -0.000  0.000
       0.000  0.119  0.000 -0.000 -0.058
      -0.000  0.000  0.119 -0.058  0.000
      -0.000 -0.000 -0.058  0.095 -0.000
       0.000 -0.058  0.000 -0.000  0.095
     ------------------------ ATOM   29 ------------------------
     Tr[ns( 29)] (up, down, total) =   4.61185  0.47468  5.08654
     Atomic magnetic moment for atom  29 =   4.13717
     SPIN  1
     eigenvalues:
       0.813  0.813  0.995  0.995  0.996
     eigenvectors (columns):
       0.000  0.000 -0.000  0.000 -1.000
       0.405 -0.701  0.509 -0.292 -0.000
       0.701  0.405 -0.292 -0.509  0.000
      -0.508 -0.293 -0.403 -0.702  0.000
      -0.293  0.508  0.702 -0.403 -0.000
     occupation matrix ns (before diag.):
       0.996  0.000 -0.000  0.000 -0.000
       0.000  0.876 -0.000  0.000  0.086
      -0.000 -0.000  0.876  0.086  0.000
       0.000  0.000  0.086  0.932 -0.000
      -0.000  0.086  0.000 -0.000  0.932
     SPIN  2
     eigenvalues:
       0.046  0.048  0.048  0.166  0.166
     eigenvectors (columns):
      -1.000  0.000  0.000 -0.000  0.000
       0.000  0.315  0.545 -0.388 -0.673
      -0.000  0.545 -0.315 -0.673  0.388
      -0.000  0.673 -0.389  0.545 -0.315
       0.000  0.389  0.673  0.315  0.545
     occupation matrix ns (before diag.):
       0.046 -0.000  0.000 -0.000  0.000
      -0.000  0.119  0.000  0.000 -0.058
       0.000  0.000  0.119 -0.058  0.000
      -0.000  0.000 -0.058  0.095 -0.000
       0.000 -0.058  0.000 -0.000  0.095
     ------------------------ ATOM   30 ------------------------
     Tr[ns( 30)] (up, down, total) =   4.61184  0.47468  5.08652
     Atomic magnetic moment for atom  30 =   4.13716
     SPIN  1
     eigenvalues:
       0.813  0.813  0.995  0.995  0.996
     eigenvectors (columns):
      -0.000 -0.000  0.000  0.000 -1.000
      -0.150 -0.796 -0.350  0.471 -0.000
      -0.796  0.150 -0.471 -0.350 -0.000
       0.577 -0.109 -0.650 -0.483 -0.000
       0.109  0.577 -0.483  0.650 -0.000
     occupation matrix ns (before diag.):
       0.996  0.000  0.000  0.000  0.000
       0.000  0.876  0.000 -0.000  0.086
       0.000  0.000  0.876  0.086  0.000
       0.000 -0.000  0.086  0.932 -0.000
       0.000  0.086  0.000 -0.000  0.932
     SPIN  2
     eigenvalues:
       0.046  0.048  0.048  0.166  0.166
     eigenvectors (columns):
       1.000 -0.000  0.000  0.000  0.000
      -0.000 -0.390 -0.495 -0.118 -0.768
      -0.000 -0.495  0.390 -0.768  0.118
      -0.000 -0.610  0.481  0.622 -0.095
      -0.000 -0.481 -0.610  0.095  0.622
     occupation matrix ns (before diag.):
       0.046  0.000 -0.000  0.000  0.000
       0.000  0.119  0.000 -0.000 -0.058
      -0.000  0.000  0.119 -0.058  0.000
       0.000 -0.000 -0.058  0.095 -0.000
       0.000 -0.058  0.000 -0.000  0.095
     ------------------------ ATOM   40 ------------------------
     Tr[ns( 40)] (up, down, total) =   4.61185  0.47468  5.08654
     Atomic magnetic moment for atom  40 =   4.13717
     SPIN  1
     eigenvalues:
       0.813  0.813  0.995  0.995  0.996
     eigenvectors (columns):
      -0.000  0.000  0.000  0.000 -1.000
      -0.405  0.701 -0.294  0.508  0.000
      -0.701 -0.405 -0.508 -0.294 -0.000
       0.508  0.293 -0.701 -0.405 -0.000
       0.293 -0.508 -0.405  0.701  0.000
     occupation matrix ns (before diag.):
       0.996 -0.000  0.000 -0.000  0.000
      -0.000  0.876 -0.000  0.000  0.086
       0.000 -0.000  0.876  0.086  0.000
      -0.000  0.000  0.086  0.932 -0.000
       0.000  0.086  0.000 -0.000  0.932
     SPIN  2
     eigenvalues:
       0.046  0.048  0.048  0.166  0.166
     eigenvectors (columns):
       1.000 -0.000 -0.000  0.000  0.000
       0.000 -0.315  0.545  0.673 -0.388
      -0.000 -0.545 -0.315 -0.388 -0.673
      -0.000 -0.673 -0.389  0.315  0.545
       0.000 -0.389  0.673 -0.545  0.315
     occupation matrix ns (before diag.):
       0.046 -0.000  0.000  0.000 -0.000
      -0.000  0.119  0.000 -0.000 -0.058
       0.000  0.000  0.119 -0.058 -0.000
       0.000 -0.000 -0.058  0.095  0.000
      -0.000 -0.058 -0.000  0.000  0.095
     ------------------------ ATOM   41 ------------------------
     Tr[ns( 41)] (up, down, total) =   4.61185  0.47468  5.08654
     Atomic magnetic moment for atom  41 =   4.13717
     SPIN  1
     eigenvalues:
       0.813  0.813  0.995  0.995  0.996
     eigenvectors (columns):
      -0.000 -0.000  0.000  0.000  1.000
      -0.810 -0.000 -0.005  0.587  0.000
      -0.000  0.810 -0.587 -0.005  0.000
       0.000 -0.587 -0.810 -0.008  0.000
       0.587  0.000 -0.008  0.810  0.000
     occupation matrix ns (before diag.):
       0.996  0.000  0.000 -0.000  0.000
       0.000  0.876  0.000 -0.000  0.086
       0.000  0.000  0.876  0.086  0.000
      -0.000 -0.000  0.086  0.932 -0.000
       0.000  0.086  0.000 -0.000  0.932
     SPIN  2
     eigenvalues:
       0.046  0.048  0.048  0.166  0.166
     eigenvectors (columns):
       1.000 -0.000  0.000 -0.000  0.000
      -0.000 -0.630 -0.001  0.777  0.000
      -0.000 -0.001  0.630  0.000 -0.777
      -0.000 -0.001  0.777 -0.000  0.630
      -0.000 -0.777 -0.001 -0.630 -0.000
     occupation matrix ns (before diag.):
       0.046  0.000 -0.000  0.000  0.000
       0.000  0.119  0.000 -0.000 -0.058
      -0.000  0.000  0.119 -0.058  0.000
       0.000 -0.000 -0.058  0.095 -0.000
       0.000 -0.058  0.000 -0.000  0.095
     ------------------------ ATOM   42 ------------------------
     Tr[ns( 42)] (up, down, total) =   4.61185  0.47468  5.08654
     Atomic magnetic moment for atom  42 =   4.13717
     SPIN  1
     eigenvalues:
       0.813  0.813  0.995  0.995  0.996
     eigenvectors (columns):
       0.000 -0.000  0.000  0.000 -1.000
      -0.405 -0.701  0.506  0.297  0.000
       0.701 -0.405  0.297 -0.506  0.000
      -0.508  0.293  0.410 -0.698  0.000
       0.293  0.508  0.698  0.410  0.000
     occupation matrix ns (before diag.):
       0.996 -0.000 -0.000  0.000  0.000
      -0.000  0.876  0.000 -0.000  0.086
      -0.000  0.000  0.876  0.086 -0.000
       0.000 -0.000  0.086  0.932  0.000
       0.000  0.086 -0.000  0.000  0.932
     SPIN  2
     eigenvalues:
       0.046  0.048  0.048  0.166  0.166
     eigenvectors (columns):
      -1.000 -0.000 -0.000 -0.000 -0.000
      -0.000 -0.314  0.546  0.388 -0.673
      -0.000  0.546  0.314 -0.673 -0.388
      -0.000  0.673  0.388  0.545  0.315
      -0.000 -0.388  0.673 -0.315  0.545
     occupation matrix ns (before diag.):
       0.046  0.000  0.000 -0.000 -0.000
       0.000  0.119 -0.000 -0.000 -0.058
       0.000 -0.000  0.119 -0.058 -0.000
      -0.000 -0.000 -0.058  0.095  0.000
      -0.000 -0.058 -0.000  0.000  0.095

     Number of occupied Hubbard levels =   61.0384

 ------ SPIN UP ------------


          k = 0.0000 0.0000 0.0000 ( 24363 PWs)   bands (ev):

   -72.8658 -72.8656 -72.8656 -72.8581 -72.8581 -72.8581 -72.8580 -72.8580
   -72.8580 -72.8580 -72.8580 -72.8579 -41.6042 -41.6042 -41.6042 -41.6042
   -41.6042 -41.6042 -41.6042 -41.6042 -41.6042 -41.5879 -41.5879 -41.5878
   -41.5754 -41.5754 -41.5754 -41.5754 -41.5754 -41.5754 -41.5754 -41.5754
   -41.5754 -41.5454 -41.5454 -41.5454 -41.5454 -41.5454 -41.5454 -41.5454
   -41.5454 -41.5454 -41.5270 -41.5270 -41.5270 -41.5270 -41.5270 -41.5270
   -35.6186 -35.6181 -35.6181 -35.6023 -35.6023 -35.6023 -35.6016 -35.6016
   -35.6016 -35.6016 -35.6016 -35.6016  -9.9320  -9.8175  -9.8174  -8.9182
    -8.9182  -8.9182  -8.9180  -8.9180  -8.9180  -8.8344  -8.8344  -8.8344
    -8.8106  -8.8106  -8.7585  -8.7585  -8.7585  -8.6716  -8.6716  -8.6716
    -8.6715  -8.6715  -8.6715  -8.6496   1.6617   1.6617   1.6617   1.7559
     1.7560   1.7560   1.7560   1.7560   1.7560   1.7907   2.2153   2.2154
     3.0040   3.0040   3.0153   3.0153   3.0153   3.0153   3.1625   3.1625
     3.1625   3.1627   3.1627   3.1627   3.3584   3.3584   3.3584   3.3584
     3.3584   3.3584   3.4307   3.4307   3.4307   3.4945   3.4945   3.4945
     3.6440   3.6440   3.6440   4.0490   4.0490   4.0490   4.0490   4.0490
     4.0490   4.5942   4.5942   4.6046   4.6046   4.6047   4.6047   5.0522
     5.0522   5.0522   5.0640   5.0640   5.0640   5.0640   5.0640   5.0640
     5.0787   5.0787   5.0787   5.0787   5.0787   5.0787   5.0798   5.0798
     5.0798   5.8052   5.8052   5.8052   5.8052   5.8052   5.8052   5.8246
     5.8246   5.8246   5.8537   5.8537   5.9684   5.9685   5.9685   6.0309
     6.0309   6.0309   6.0309   6.0309   6.0309   6.0642   6.0642   6.0642
     6.1624   6.1624   6.1624   6.1624   6.1624   6.1624   6.2217   6.7134
     6.7135   7.0499   7.0499   7.0500   7.0500   7.1137   7.1137   7.1739
     8.8155   8.8155   8.8155   8.8155   8.8155   8.8155   9.2951   9.2951
     9.2951   9.2951   9.2951   9.2951   9.3011   9.3011   9.3011   9.4790
     9.4790   9.4894   9.4894   9.4894   9.5073   9.5073   9.5073   9.5073

          k = 0.0000 0.0000 0.1376 ( 24398 PWs)   bands (ev):

   -72.8658 -72.8657 -72.8655 -72.8581 -72.8581 -72.8581 -72.8580 -72.8580
   -72.8580 -72.8579 -72.8579 -72.8579 -41.6042 -41.6042 -41.6042 -41.6042
   -41.6042 -41.6042 -41.6042 -41.6042 -41.6042 -41.5879 -41.5878 -41.5878
   -41.5754 -41.5754 -41.5754 -41.5754 -41.5754 -41.5754 -41.5754 -41.5754
   -41.5754 -41.5454 -41.5454 -41.5454 -41.5454 -41.5454 -41.5454 -41.5454
   -41.5454 -41.5454 -41.5270 -41.5270 -41.5270 -41.5270 -41.5270 -41.5270
   -35.6185 -35.6183 -35.6180 -35.6022 -35.6022 -35.6022 -35.6019 -35.6019
   -35.6019 -35.6014 -35.6014 -35.6014  -9.9160  -9.8727  -9.7767  -8.9330
    -8.9330  -8.9330  -8.8906  -8.8906  -8.8905  -8.8648  -8.8561  -8.8561
    -8.8561  -8.7362  -8.7362  -8.7362  -8.7346  -8.7004  -8.7004  -8.7004
    -8.6729  -8.6559  -8.6559  -8.6559   1.6761   1.6762   1.6762   1.7131
     1.7131   1.7131   1.7844   1.7844   1.7844   1.8512   2.0126   2.3629
     3.0058   3.0058   3.0102   3.0102   3.0187   3.0187   3.1137   3.1137
     3.1137   3.2571   3.2571   3.2571   3.3386   3.3386   3.3386   3.3873
     3.3873   3.3873   3.3899   3.3899   3.3899   3.4189   3.4189   3.4189
     3.7627   3.7627   3.7627   3.9218   3.9218   3.9218   4.1194   4.1194
     4.1194   4.5958   4.5958   4.5998   4.5998   4.6079   4.6079   5.0500
     5.0500   5.0500   5.0582   5.0582   5.0582   5.0678   5.0678   5.0678
     5.0785   5.0785   5.0785   5.0791   5.0791   5.0791   5.0796   5.0796
     5.0796   5.6868   5.8237   5.8237   5.8237   5.8295   5.8295   5.8295
     5.8563   5.8563   5.8563   5.9049   5.9049   5.9049   5.9373   5.9373
     5.9373   6.0541   6.0933   6.0933   6.0933   6.1125   6.1125   6.1125
     6.1443   6.1443   6.1443   6.1567   6.1567   6.1567   6.1813   6.6298
     6.8856   7.0313   7.0313   7.0784   7.0784   7.0842   7.1036   7.1036
     8.6826   8.6826   8.6826   9.0264   9.0264   9.0264   9.2211   9.2211
     9.2211   9.2352   9.2352   9.2352   9.3842   9.3842   9.3842   9.4600
     9.4600   9.4600   9.4834   9.4834   9.4946   9.4946   9.5154   9.5154

          k = 0.0000 0.3849 0.0000 ( 24424 PWs)   bands (ev):

   -72.8635 -72.8634 -72.8634 -72.8597 -72.8596 -72.8596 -72.8577 -72.8577
   -72.8576 -72.8576 -72.8576 -72.8576 -41.5945 -41.5944 -41.5944 -41.5944
   -41.5944 -41.5944 -41.5854 -41.5854 -41.5853 -41.5848 -41.5848 -41.5847
   -41.5784 -41.5784 -41.5784 -41.5755 -41.5755 -41.5755 -41.5755 -41.5755
   -41.5755 -41.5558 -41.5558 -41.5558 -41.5558 -41.5558 -41.5558 -41.5466
   -41.5466 -41.5466 -41.5409 -41.5409 -41.5409 -41.5317 -41.5317 -41.5317
   -35.6143 -35.6140 -35.6140 -35.6060 -35.6058 -35.6057 -35.6020 -35.6020
   -35.6016 -35.6016 -35.6016 -35.6016  -9.6990  -9.5873  -9.5867  -9.1904
    -9.1091  -9.0895  -8.9055  -8.9055  -8.8745  -8.8745  -8.8316  -8.8316
    -8.7989  -8.7983  -8.7797  -8.7610  -8.7610  -8.7577  -8.7166  -8.7166
    -8.6890  -8.6890  -8.6726  -8.6544   2.1095   2.1095   2.1428   2.1460
     2.1655   2.1655   2.1757   2.2175   2.2175   2.2678   2.4215   2.5383
     2.7377   2.8302   2.8460   2.8460   2.8760   2.8942   2.8942   2.9426
     2.9426   3.0280   3.1156   3.1278   3.2507   3.2648   3.2813   3.3346
     3.3346   3.4128   3.4128   3.4641   3.4818   3.5023   3.5360   3.5657
     3.6286   3.6964   3.6964   3.7688   3.7688   4.0848   4.0848   4.1114
     4.1114   4.1622   4.1831   4.2131   4.2753   4.2753   4.3254   4.3254
     4.3309   4.3417   4.3586   4.4046   4.4165   4.4355   4.5194   4.5194
     5.1185   5.1185   5.3063   5.3063   5.4236   5.4808   5.4900   5.4900
     5.5275   5.5275   5.5680   5.5852   5.5852   5.6424   5.6424   5.7289
     5.7813   5.8378   5.8723   5.8872   5.8872   6.0148   6.0914   6.0914
     6.1714   6.1715   6.2184   6.3142   6.3698   6.4374   6.5094   6.5386
     6.6219   6.6801   6.6801   6.7069   6.7069   6.7139   6.7139   6.7295
     6.7816   6.9139   7.0370   7.0546   7.1617   7.1719   7.2525   7.2688
     8.2899   8.6793   8.6793   8.6889   8.7526   8.7526   8.8309   8.8374
     8.8887   8.8935   8.9405   8.9405   9.0015   9.0015   9.0548   9.0548
     9.2125   9.2201   9.2201   9.3037   9.3268   9.3777   9.4082   9.4262

          k = 0.0000 0.3849 0.1376 ( 24420 PWs)   bands (ev):

   -72.8635 -72.8634 -72.8634 -72.8597 -72.8596 -72.8596 -72.8577 -72.8577
   -72.8576 -72.8576 -72.8576 -72.8576 -41.5945 -41.5944 -41.5944 -41.5944
   -41.5944 -41.5944 -41.5854 -41.5854 -41.5853 -41.5848 -41.5848 -41.5847
   -41.5784 -41.5784 -41.5784 -41.5755 -41.5755 -41.5755 -41.5755 -41.5755
   -41.5755 -41.5558 -41.5558 -41.5558 -41.5558 -41.5558 -41.5558 -41.5466
   -41.5466 -41.5466 -41.5409 -41.5409 -41.5409 -41.5317 -41.5317 -41.5317
   -35.6143 -35.6141 -35.6139 -35.6060 -35.6058 -35.6056 -35.6019 -35.6019
   -35.6017 -35.6017 -35.6015 -35.6015  -9.6834  -9.6419  -9.5456  -9.1832
    -9.1368  -9.0657  -8.8968  -8.8968  -8.8901  -8.8901  -8.8493  -8.8166
    -8.8166  -8.8034  -8.7748  -8.7748  -8.7304  -8.7293  -8.7045  -8.7045
    -8.6954  -8.6954  -8.6796  -8.6751   2.1037   2.1037   2.1263   2.1826
     2.1826   2.2061   2.2061   2.2075   2.2246   2.2338   2.2804   2.6611
     2.7222   2.8099   2.8609   2.8609   2.8697   2.8714   2.8714   2.9487
     2.9488   3.0453   3.0995   3.1302   3.2482   3.2723   3.2763   3.3427
     3.3427   3.4225   3.4225   3.4609   3.4641   3.5122   3.5293   3.5911
     3.6191   3.6237   3.6237   3.8650   3.8650   4.0142   4.0142   4.1366
     4.1366   4.1519   4.1969   4.2092   4.2421   4.2421   4.3278   4.3515
     4.3521   4.4050   4.4161   4.4261   4.4261   4.4355   4.4477   4.4477
     5.1436   5.1436   5.3369   5.3369   5.3895   5.3895   5.4089   5.5252
     5.5532   5.5721   5.5721   5.5842   5.5842   5.6516   5.6516   5.7421
     5.7681   5.8053   5.8378   5.9678   5.9678   5.9867   5.9867   6.1337
     6.1491   6.1941   6.1941   6.2286   6.3625   6.5361   6.5546   6.5968
     6.6734   6.6837   6.6837   6.6877   6.7025   6.7025   6.7168   6.7168
     6.7388   6.7983   7.0164   7.0861   7.1508   7.2094   7.2366   7.2778
     8.3949   8.6491   8.6907   8.7196   8.7196   8.7867   8.7994   8.7994
     8.8401   8.8401   8.8758   9.0077   9.0077   9.0176   9.0176   9.0437
     9.2048   9.2660   9.2660   9.3005   9.3474   9.3872   9.3952   9.4200

          k = 0.3333 0.5774 0.0000 ( 24462 PWs)   bands (ev):

   -72.8604 -72.8604 -72.8604 -72.8604 -72.8604 -72.8604 -72.8604 -72.8603
   -72.8603 -72.8565 -72.8565 -72.8565 -41.5813 -41.5813 -41.5813 -41.5813
   -41.5813 -41.5813 -41.5802 -41.5802 -41.5802 -41.5802 -41.5802 -41.5802
   -41.5802 -41.5801 -41.5801 -41.5740 -41.5740 -41.5740 -41.5719 -41.5719
   -41.5719 -41.5719 -41.5719 -41.5719 -41.5719 -41.5719 -41.5718 -41.5425
   -41.5425 -41.5425 -41.5425 -41.5425 -41.5425 -41.5425 -41.5425 -41.5425
   -35.6079 -35.6079 -35.6079 -35.6078 -35.6078 -35.6078 -35.6078 -35.6078
   -35.6078 -35.5997 -35.5996 -35.5996  -9.3219  -9.3219  -9.3219  -9.2228
    -9.2228  -9.2228  -9.2227  -9.2227  -9.2227  -8.7792  -8.7792  -8.7792
    -8.7792  -8.7792  -8.7792  -8.7265  -8.7265  -8.7260  -8.7259  -8.7259
    -8.7256  -8.6695  -8.6695  -8.6695   2.4720   2.4720   2.4720   2.4721
     2.4721   2.4721   2.5817   2.5820   2.5820   2.6059   2.6062   2.6062
     2.6601   2.6601   2.6601   2.7426   2.7426   2.7426   3.0772   3.0772
     3.0772   3.0772   3.0772   3.0772   3.2457   3.2457   3.2457   3.2790
     3.2790   3.2790   3.2790   3.2790   3.2790   3.3639   3.3639   3.3640
     3.8445   3.8445   3.8445   3.8445   3.8445   3.8446   3.9027   3.9027
     3.9027   4.0037   4.0037   4.0037   4.0037   4.0037   4.0037   4.0984
     4.0984   4.0984   4.1296   4.1296   4.1296   4.2404   4.2405   4.2405
     5.1055   5.1055   5.1055   5.2734   5.2734   5.2735   5.3960   5.3960
     5.3960   5.3960   5.3960   5.3960   5.5492   5.5492   5.5492   6.2822
     6.2822   6.2822   6.3666   6.3667   6.3667   6.3827   6.3827   6.3827
     6.4076   6.4076   6.4076   6.4076   6.4076   6.4076   6.4386   6.4387
     6.4387   6.6814   6.6814   6.6814   6.6815   6.6815   6.6815   7.0819
     7.0819   7.0819   7.0821   7.0821   7.0821   7.1424   7.1424   7.1424
     8.6067   8.6067   8.6067   8.6067   8.6067   8.6067   8.8150   8.8150
     8.8151   8.8750   8.8750   8.8751   8.8775   8.8775   8.8775   9.0224
     9.0224   9.0224   9.0224   9.0224   9.0224   9.0598   9.0598   9.0598

          k = 0.3333 0.5774 0.1376 ( 24495 PWs)   bands (ev):

   -72.8604 -72.8604 -72.8604 -72.8604 -72.8604 -72.8604 -72.8604 -72.8603
   -72.8603 -72.8565 -72.8565 -72.8565 -41.5813 -41.5813 -41.5813 -41.5813
   -41.5813 -41.5813 -41.5802 -41.5802 -41.5802 -41.5802 -41.5802 -41.5802
   -41.5802 -41.5802 -41.5802 -41.5740 -41.5740 -41.5740 -41.5719 -41.5719
   -41.5719 -41.5719 -41.5719 -41.5719 -41.5718 -41.5718 -41.5718 -41.5425
   -41.5425 -41.5425 -41.5425 -41.5425 -41.5425 -41.5425 -41.5425 -41.5425
   -35.6079 -35.6079 -35.6079 -35.6078 -35.6078 -35.6078 -35.6078 -35.6078
   -35.6078 -35.5997 -35.5996 -35.5996  -9.3087  -9.3087  -9.3087  -9.2722
    -9.2722  -9.2722  -9.1826  -9.1826  -9.1826  -8.8225  -8.8225  -8.8225
    -8.7264  -8.7264  -8.7260  -8.7260  -8.7259  -8.7256  -8.7250  -8.7250
    -8.7250  -8.6843  -8.6843  -8.6843   2.4528   2.4528   2.4528   2.5156
     2.5156   2.5156   2.5841   2.5843   2.5843   2.5875   2.5875   2.5875
     2.6033   2.6035   2.6035   2.8403   2.8403   2.8403   2.9743   2.9743
     2.9743   3.1181   3.1181   3.1181   3.2475   3.2475   3.2475   3.2552
     3.2552   3.2552   3.3155   3.3155   3.3155   3.3652   3.3652   3.3652
     3.8483   3.8483   3.8483   3.8639   3.8639   3.8639   3.8905   3.8905
     3.8905   3.9399   3.9399   3.9399   4.0700   4.0700   4.0700   4.0900
     4.0900   4.0900   4.1145   4.1145   4.1145   4.2487   4.2488   4.2488
     5.1057   5.1057   5.1057   5.2714   5.2714   5.2714   5.3635   5.3635
     5.3635   5.4554   5.4554   5.4554   5.5199   5.5199   5.5199   6.2678
     6.2678   6.2678   6.3133   6.3133   6.3133   6.3831   6.3832   6.3832
     6.4227   6.4228   6.4228   6.4642   6.4642   6.4642   6.4713   6.4713
     6.4713   6.5813   6.5813   6.5813   6.8059   6.8059   6.8059   6.9894
     6.9894   6.9894   7.1192   7.1192   7.1192   7.1354   7.1354   7.1354
     8.4919   8.4919   8.4919   8.7820   8.7820   8.7820   8.8238   8.8238
     8.8239   8.8664   8.8664   8.8665   8.8782   8.8782   8.8782   8.9851
     8.9851   8.9851   9.0111   9.0111   9.0111   9.0508   9.0508   9.0508

          k = 0.0000 0.3849-0.1376 ( 24420 PWs)   bands (ev):

   -72.8635 -72.8634 -72.8633 -72.8596 -72.8596 -72.8596 -72.8577 -72.8577
   -72.8577 -72.8576 -72.8576 -72.8576 -41.5945 -41.5945 -41.5944 -41.5944
   -41.5944 -41.5944 -41.5854 -41.5854 -41.5853 -41.5848 -41.5848 -41.5847
   -41.5784 -41.5784 -41.5784 -41.5755 -41.5755 -41.5755 -41.5755 -41.5755
   -41.5755 -41.5558 -41.5558 -41.5558 -41.5558 -41.5558 -41.5558 -41.5466
   -41.5466 -41.5466 -41.5409 -41.5409 -41.5409 -41.5317 -41.5317 -41.5317
   -35.6142 -35.6142 -35.6139 -35.6059 -35.6059 -35.6056 -35.6019 -35.6019
   -35.6018 -35.6018 -35.6015 -35.6015  -9.6838  -9.6413  -9.5458  -9.1737
    -9.1538  -9.0554  -8.9077  -8.9077  -8.8639  -8.8639  -8.8491  -8.8445
    -8.8444  -8.8147  -8.7463  -8.7463  -8.7301  -8.7301  -8.7300  -8.7105
    -8.6909  -8.6858  -8.6858  -8.6747   2.1254   2.1254   2.1386   2.1402
     2.1402   2.1761   2.1837   2.2272   2.2272   2.2633   2.3503   2.5575
     2.7822   2.8362   2.8424   2.8424   2.8500   2.9101   2.9101   2.9286
     2.9286   3.0525   3.0838   3.1333   3.2538   3.2601   3.2829   3.3108
     3.3108   3.4756   3.4839   3.5016   3.5096   3.5096   3.5364   3.5430
     3.5558   3.5558   3.6406   3.8879   3.8879   3.9930   3.9930   4.1507
     4.1507   4.1580   4.1786   4.2196   4.2582   4.2582   4.3322   4.3404
     4.3515   4.3515   4.3587   4.3999   4.4282   4.4283   4.5109   4.5109
     5.1873   5.1873   5.2175   5.2175   5.4336   5.4604   5.4604   5.4812
     5.5514   5.5970   5.5970   5.6074   5.6074   5.6103   5.6103   5.7181
     5.8117   5.8161   5.8725   5.8725   5.8776   6.0109   6.0995   6.0995
     6.1719   6.1719   6.2288   6.2539   6.3860   6.4836   6.5224   6.5994
     6.6688   6.6688   6.6722   6.6951   6.7037   6.7128   6.7128   6.7182
     6.7182   6.8558   7.0099   7.1079   7.1355   7.2274   7.2412   7.2527
     8.4039   8.6382   8.7082   8.7082   8.7336   8.7383   8.7383   8.7558
     8.8648   8.8734   8.8734   9.0228   9.0228   9.0440   9.1031   9.1031
     9.2026   9.2027   9.2512   9.2700   9.3305   9.3386   9.4266   9.4387

 ------ SPIN DOWN ----------


          k = 0.0000 0.0000 0.0000 ( 24363 PWs)   bands (ev):

   -68.1300 -68.1300 -68.1298 -68.1205 -68.1205 -68.1205 -68.1205 -68.1205
   -68.1204 -68.1203 -68.1203 -68.1203 -37.0025 -37.0025 -37.0025 -37.0025
   -37.0025 -37.0025 -37.0024 -37.0024 -37.0024 -36.9598 -36.9598 -36.9593
   -36.9416 -36.9416 -36.9416 -36.9416 -36.9416 -36.9416 -36.9416 -36.9415
   -36.9415 -36.9257 -36.9257 -36.9257 -36.9257 -36.9257 -36.9257 -36.9257
   -36.9257 -36.9257 -36.9026 -36.9026 -36.9026 -36.9026 -36.9026 -36.9026
   -35.6097 -35.6094 -35.6094 -35.5930 -35.5930 -35.5930 -35.5930 -35.5930
   -35.5930 -35.5925 -35.5925 -35.5925  -9.9758  -9.8619  -9.8619  -8.9394
    -8.9394  -8.8807  -8.8807  -8.8807  -8.8729  -8.8729  -8.8728  -8.8726
    -8.8726  -8.8726  -8.7839  -8.7713  -8.7713  -8.7713  -8.7711  -8.7711
    -8.7711  -8.7524  -8.7524  -8.7524   3.0498   3.0498   3.0498   3.1859
     3.1859   3.1859   3.1859   3.1859   3.1859   3.3548   3.5814   3.5814
     3.5814   3.9702   3.9702   3.9702   3.9702   3.9702   3.9702   4.0154
     4.0155   5.3272   5.3272   5.3272   5.3273   5.3273   5.3273   5.3988
     5.3988   5.4267   5.4268   5.4268   5.4270   5.4270   5.4270   5.4397
     5.4397   5.4397   5.4397   5.6348   5.6348   5.6348   5.7375   5.7375
     5.7375   5.9269   5.9269   5.9270   5.9270   5.9270   5.9270   5.9684
     5.9684   5.9684   5.9685   5.9685   5.9685   6.0128   6.0128   6.0128
     6.0697   6.0697   6.0697   6.0970   6.0970   6.8636   6.8636   6.8637
     6.8637   6.9246   6.9246   7.0849  11.5588  11.5588  11.5588  11.7210
    11.7210  11.7210  11.7210  11.7210  11.7210  12.2342  12.2342  12.2343
    12.2343  12.2366  12.2366  12.5014  12.5014  12.6452  13.0236  13.0236
    13.0236  13.0236  13.0236  13.0236  13.0334  13.0334  13.0334  13.0334
    13.0334  13.0335  13.0413  13.0414  13.0414  13.0822  13.0822  13.0822
    13.4586  13.4586  13.4586  13.4586  13.4611  13.4611  13.4655  13.4656
    13.4656  13.4656  13.4656  13.4656  13.5086  13.6252  13.6252  13.6252
    13.6252  13.6252  13.6254  13.6485  13.6485  13.6486  13.6990  13.6990

          k = 0.0000 0.0000 0.1376 ( 24398 PWs)   bands (ev):

   -68.1301 -68.1300 -68.1299 -68.1205 -68.1205 -68.1205 -68.1204 -68.1204
   -68.1204 -68.1203 -68.1203 -68.1203 -37.0026 -37.0025 -37.0025 -37.0025
   -37.0025 -37.0025 -37.0024 -37.0024 -37.0024 -36.9600 -36.9596 -36.9593
   -36.9416 -36.9416 -36.9416 -36.9416 -36.9416 -36.9416 -36.9416 -36.9415
   -36.9415 -36.9257 -36.9257 -36.9257 -36.9257 -36.9257 -36.9257 -36.9257
   -36.9257 -36.9257 -36.9026 -36.9026 -36.9026 -36.9026 -36.9026 -36.9026
   -35.6097 -35.6095 -35.6093 -35.5931 -35.5931 -35.5931 -35.5928 -35.5928
   -35.5928 -35.5926 -35.5926 -35.5926  -9.9600  -9.9171  -9.8208  -8.9925
    -8.8795  -8.8795  -8.8795  -8.8765  -8.8765  -8.8764  -8.8701  -8.8701
    -8.8701  -8.8657  -8.8063  -8.7769  -8.7769  -8.7769  -8.7627  -8.7627
    -8.7627  -8.7553  -8.7553  -8.7553   3.0690   3.0690   3.0690   3.1208
     3.1208   3.1208   3.2324   3.2324   3.2324   3.4365   3.6311   3.6311
     3.6311   3.6702   3.7708   3.7708   3.7708   4.1516   4.1516   4.1516
     4.3512   5.0931   5.0931   5.0931   5.3940   5.3940   5.3940   5.4049
     5.4049   5.4209   5.4209   5.4523   5.4523   5.4890   5.4890   5.4890
     5.5714   5.5714   5.5714   5.6210   5.6210   5.6210   5.6787   5.8044
     5.8044   5.8044   5.8484   5.8484   5.8484   5.8750   5.8750   5.8750
     5.8960   5.8960   5.8960   6.0082   6.0082   6.0082   6.0311   6.0311
     6.0311   6.0897   6.0897   6.0897   6.5792   6.8452   6.8452   6.8912
     6.8912   6.9151   6.9151   6.9465  11.5862  11.5862  11.5862  11.6522
    11.6522  11.6522  11.7625  11.7625  11.7625  12.2330  12.2330  12.2357
    12.2357  12.2364  12.2364  12.4624  12.5639  12.6217  13.0177  13.0177
    13.0177  13.0177  13.0177  13.0177  13.0320  13.0320  13.0320  13.0388
    13.0388  13.0388  13.0569  13.0569  13.0569  13.0755  13.0755  13.0755
    13.4443  13.4443  13.4443  13.4587  13.4587  13.4592  13.4592  13.4604
    13.4604  13.5209  13.5209  13.5209  13.6031  13.6031  13.6032  13.6046
    13.6046  13.6047  13.6424  13.6577  13.6577  13.6583  13.6871  13.6872

          k = 0.0000 0.3849 0.0000 ( 24424 PWs)   bands (ev):

   -68.1279 -68.1279 -68.1278 -68.1231 -68.1231 -68.1230 -68.1208 -68.1208
   -68.1208 -68.1208 -68.1207 -68.1207 -36.9894 -36.9894 -36.9893 -36.9893
   -36.9893 -36.9893 -36.9775 -36.9775 -36.9775 -36.9553 -36.9553 -36.9548
   -36.9461 -36.9460 -36.9459 -36.9419 -36.9419 -36.9418 -36.9418 -36.9418
   -36.9418 -36.9381 -36.9381 -36.9381 -36.9381 -36.9381 -36.9381 -36.9275
   -36.9275 -36.9274 -36.9199 -36.9199 -36.9198 -36.9083 -36.9083 -36.9083
   -35.6056 -35.6053 -35.6053 -35.5973 -35.5971 -35.5970 -35.5931 -35.5931
   -35.5930 -35.5930 -35.5928 -35.5928  -9.7557  -9.6451  -9.6434  -9.2558
    -9.1704  -9.1561  -8.9546  -8.9546  -8.9092  -8.9092  -8.8890  -8.8862
    -8.8837  -8.8837  -8.8008  -8.7794  -8.7656  -8.7655  -8.7443  -8.7336
    -8.7336  -8.6917  -8.6917  -8.6871   3.4223   3.4223   3.5034   3.5034
     3.6326   3.6495   3.6495   3.6774   3.6947   3.7641   3.7666   3.7666
     3.9318   3.9845   3.9845   4.0729   4.0991   4.0991   4.1048   4.1057
     4.1538   4.7470   4.7852   4.8126   4.8324   4.8324   4.8631   4.9737
     4.9737   5.1374   5.1374   5.2143   5.2798   5.2798   5.3275   5.3275
     5.3673   5.3673   5.3889   5.4009   5.4370   5.4992   5.5024   5.5446
     5.5684   5.6016   5.6016   5.7393   5.7393   5.8044   5.8377   5.8745
     5.8998   5.8998   6.0284   6.0738   6.0738   6.0859   6.1046   6.1046
     6.2236   6.2672   6.2672   6.3353   6.4919   6.5091   6.5166   6.5898
     6.6155   6.6382   6.6636   7.0950  11.7550  11.8217  11.8775  12.0071
    12.0071  12.0743  12.1048  12.1081  12.1081  12.1092  12.1676  12.1676
    12.5143  12.5196  12.5267  12.6872  12.6983  12.7160  12.7160  12.7199
    12.7199  12.7632  12.8152  12.8152  12.8858  12.9045  12.9086  12.9135
    12.9298  12.9683  12.9683  12.9868  13.0024  13.0024  13.0108  13.0117
    13.0117  13.0874  13.1278  13.1701  13.2943  13.3325  13.3662  13.3662
    13.4062  13.4108  13.4305  13.4305  13.4704  13.4704  13.4731  13.4736
    13.4942  13.4942  13.5018  13.5018  13.5399  13.5464  13.6036  13.6037

          k = 0.0000 0.3849 0.1376 ( 24420 PWs)   bands (ev):

   -68.1279 -68.1279 -68.1278 -68.1231 -68.1231 -68.1230 -68.1208 -68.1208
   -68.1208 -68.1208 -68.1207 -68.1207 -36.9894 -36.9894 -36.9893 -36.9893
   -36.9893 -36.9893 -36.9775 -36.9775 -36.9775 -36.9554 -36.9551 -36.9549
   -36.9461 -36.9460 -36.9459 -36.9419 -36.9419 -36.9419 -36.9418 -36.9418
   -36.9418 -36.9381 -36.9381 -36.9381 -36.9381 -36.9381 -36.9381 -36.9275
   -36.9275 -36.9274 -36.9199 -36.9199 -36.9198 -36.9083 -36.9083 -36.9083
   -35.6055 -35.6054 -35.6052 -35.5973 -35.5971 -35.5970 -35.5931 -35.5931
   -35.5930 -35.5930 -35.5928 -35.5928  -9.7408  -9.6979  -9.6033  -9.2403
    -9.2158  -9.1209  -8.9524  -8.9524  -8.9376  -8.9169  -8.9168  -8.8770
    -8.8770  -8.8370  -8.8204  -8.7678  -8.7678  -8.7637  -8.7329  -8.7329
    -8.7287  -8.7069  -8.6915  -8.6915   3.3948   3.3948   3.5815   3.5815
     3.5987   3.5987   3.6251   3.6761   3.7727   3.7828   3.7828   3.7990
     3.8717   3.8862   3.9462   3.9462   3.9776   4.1213   4.1213   4.3569
     4.3630   4.5985   4.5987   4.8099   4.8099   4.8580   4.8874   5.0014
     5.0014   5.1640   5.1640   5.2197   5.2197   5.3008   5.3298   5.3298
     5.3902   5.4080   5.4080   5.4170   5.4349   5.4727   5.4770   5.5587
     5.5903   5.5927   5.5927   5.7515   5.7516   5.8200   5.8308   5.8855
     5.8856   5.9475   5.9767   6.0384   6.0384   6.1204   6.1204   6.1660
     6.1858   6.2831   6.2831   6.3191   6.3757   6.4058   6.5568   6.5570
     6.5935   6.6824   6.8114   7.0709  11.7679  11.7942  11.8917  12.0024
    12.0024  12.0768  12.0924  12.1154  12.1154  12.1195  12.1648  12.1648
    12.5150  12.5181  12.5275  12.6792  12.6932  12.6932  12.7182  12.7477
    12.7604  12.7604  12.7948  12.7948  12.8636  12.9066  12.9176  12.9260
    12.9278  12.9835  12.9835  12.9854  12.9854  12.9892  13.0160  13.0161
    13.0384  13.0736  13.1214  13.1964  13.2120  13.3830  13.3886  13.4023
    13.4023  13.4135  13.4135  13.4379  13.4379  13.4404  13.4612  13.4812
    13.4906  13.4907  13.4981  13.4981  13.5154  13.5632  13.6258  13.6258

          k = 0.3333 0.5774 0.0000 ( 24462 PWs)   bands (ev):

   -68.1245 -68.1245 -68.1245 -68.1245 -68.1244 -68.1244 -68.1244 -68.1244
   -68.1244 -68.1197 -68.1197 -68.1197 -36.9713 -36.9713 -36.9713 -36.9712
   -36.9712 -36.9712 -36.9602 -36.9602 -36.9602 -36.9601 -36.9601 -36.9601
   -36.9601 -36.9601 -36.9601 -36.9485 -36.9485 -36.9485 -36.9485 -36.9485
   -36.9485 -36.9483 -36.9483 -36.9483 -36.9395 -36.9394 -36.9394 -36.9215
   -36.9215 -36.9215 -36.9215 -36.9215 -36.9215 -36.9215 -36.9215 -36.9215
   -35.5994 -35.5994 -35.5994 -35.5992 -35.5992 -35.5992 -35.5991 -35.5991
   -35.5991 -35.5909 -35.5909 -35.5909  -9.3944  -9.3944  -9.3944  -9.2953
    -9.2953  -9.2953  -9.2952  -9.2952  -9.2952  -8.8098  -8.8098  -8.8098
    -8.8098  -8.8098  -8.8098  -8.7460  -8.7460  -8.7457  -8.7456  -8.7456
    -8.7453  -8.6943  -8.6943  -8.6943   3.9074   3.9074   3.9074   3.9358
     3.9358   3.9358   3.9359   3.9359   3.9359   4.0596   4.0596   4.0596
     4.0873   4.0876   4.0876   4.1686   4.1688   4.1688   4.2720   4.2720
     4.2721   4.2722   4.2722   4.2722   4.4136   4.4136   4.4136   4.7985
     4.7985   4.7985   5.0167   5.0167   5.0167   5.3278   5.3278   5.3278
     5.3278   5.3278   5.3278   5.3485   5.3485   5.3485   5.3609   5.3609
     5.3609   5.3609   5.3609   5.3609   5.7769   5.7769   5.7769   5.9755
     5.9755   5.9755   5.9958   5.9958   5.9958   5.9958   5.9958   5.9958
     6.0641   6.0641   6.0641   6.6287   6.6287   6.6287   6.6287   6.6287
     6.6287   6.7190   6.7190   6.7190  12.2815  12.2815  12.2815  12.2815
    12.2815  12.2815  12.3387  12.3387  12.3387  12.3481  12.3481  12.3481
    12.3481  12.3481  12.3481  12.4478  12.4478  12.4478  12.5030  12.5031
    12.5031  12.7537  12.7539  12.7539  12.7762  12.7763  12.7763  13.0084
    13.0084  13.0084  13.0084  13.0084  13.0084  13.0196  13.0196  13.0196
    13.0863  13.0863  13.0863  13.0863  13.0863  13.0863  13.2466  13.2466
    13.2466  13.3216  13.3216  13.3216  13.3216  13.3216  13.3216  13.3653
    13.3653  13.3653  13.4488  13.4488  13.4489  13.4844  13.4844  13.4845

          k = 0.3333 0.5774 0.1376 ( 24495 PWs)   bands (ev):

   -68.1245 -68.1245 -68.1245 -68.1245 -68.1245 -68.1244 -68.1244 -68.1244
   -68.1244 -68.1197 -68.1197 -68.1197 -36.9713 -36.9713 -36.9713 -36.9712
   -36.9712 -36.9712 -36.9602 -36.9602 -36.9602 -36.9602 -36.9602 -36.9601
   -36.9601 -36.9601 -36.9601 -36.9486 -36.9486 -36.9486 -36.9484 -36.9484
   -36.9484 -36.9483 -36.9483 -36.9483 -36.9395 -36.9394 -36.9394 -36.9215
   -36.9215 -36.9215 -36.9215 -36.9215 -36.9215 -36.9215 -36.9215 -36.9215
   -35.5993 -35.5993 -35.5993 -35.5992 -35.5992 -35.5992 -35.5991 -35.5991
   -35.5991 -35.5909 -35.5909 -35.5909  -9.3811  -9.3811  -9.3811  -9.3445
    -9.3445  -9.3445  -9.2558  -9.2558  -9.2558  -8.8540  -8.8540  -8.8540
    -8.7532  -8.7532  -8.7532  -8.7460  -8.7460  -8.7457  -8.7456  -8.7456
    -8.7453  -8.7101  -8.7101  -8.7101   3.9172   3.9172   3.9172   3.9458
     3.9458   3.9458   3.9794   3.9794   3.9794   4.0087   4.0087   4.0087
     4.0498   4.0501   4.0501   4.1430   4.1430   4.1430   4.2000   4.2003
     4.2003   4.4002   4.4002   4.4002   4.4449   4.4449   4.4449   4.8479
     4.8479   4.8479   5.0088   5.0088   5.0089   5.0443   5.0443   5.0443
     5.3430   5.3430   5.3430   5.3431   5.3431   5.3431   5.3788   5.3788
     5.3788   5.5890   5.5890   5.5890   5.7895   5.7895   5.7896   5.8916
     5.8916   5.8916   5.9668   5.9668   5.9668   6.0522   6.0522   6.0522
     6.0661   6.0661   6.0661   6.5710   6.5710   6.5710   6.6844   6.6844
     6.6844   6.7119   6.7119   6.7119  12.2635  12.2635  12.2635  12.3087
    12.3087  12.3087  12.3183  12.3183  12.3183  12.3306  12.3306  12.3306
    12.3935  12.3935  12.3935  12.4327  12.4327  12.4327  12.5026  12.5027
    12.5027  12.7537  12.7539  12.7539  12.7769  12.7770  12.7770  13.0112
    13.0112  13.0112  13.0127  13.0127  13.0127  13.0177  13.0177  13.0177
    13.0454  13.0454  13.0454  13.1542  13.1542  13.1542  13.2223  13.2223
    13.2223  13.3172  13.3172  13.3172  13.3301  13.3301  13.3301  13.3485
    13.3485  13.3485  13.4447  13.4447  13.4448  13.4882  13.4882  13.4883

          k = 0.0000 0.3849-0.1376 ( 24420 PWs)   bands (ev):

   -68.1279 -68.1279 -68.1278 -68.1231 -68.1231 -68.1231 -68.1208 -68.1208
   -68.1208 -68.1207 -68.1207 -68.1207 -36.9894 -36.9894 -36.9893 -36.9893
   -36.9893 -36.9893 -36.9775 -36.9775 -36.9775 -36.9554 -36.9551 -36.9549
   -36.9461 -36.9460 -36.9459 -36.9419 -36.9419 -36.9418 -36.9418 -36.9418
   -36.9418 -36.9381 -36.9381 -36.9381 -36.9381 -36.9381 -36.9381 -36.9275
   -36.9274 -36.9274 -36.9199 -36.9199 -36.9198 -36.9083 -36.9083 -36.9083
   -35.6055 -35.6054 -35.6052 -35.5972 -35.5972 -35.5970 -35.5931 -35.5931
   -35.5929 -35.5929 -35.5928 -35.5928  -9.7399  -9.6994  -9.6025  -9.2469
    -9.2037  -9.1284  -8.9422  -8.9422  -8.9388  -8.9364  -8.9364  -8.8599
    -8.8599  -8.8267  -8.8175  -8.7874  -8.7873  -8.7655  -8.7490  -8.7064
    -8.7064  -8.7061  -8.7061  -8.6949   3.4246   3.4246   3.4939   3.4939
     3.6327   3.6595   3.6595   3.7031   3.7779   3.8227   3.8227   3.8303
     3.8370   3.8612   3.8612   3.8721   3.9109   4.1888   4.1888   4.3240
     4.3599   4.6376   4.7313   4.7313   4.8297   4.8538   4.8811   5.0042
     5.0987   5.0987   5.1159   5.1159   5.2636   5.2636   5.3320   5.3320
     5.3954   5.4038   5.4114   5.4114   5.4325   5.4742   5.4844   5.4844
     5.5042   5.5664   5.7014   5.7841   5.8320   5.8321   5.8623   5.8624
     5.8808   5.8973   6.0053   6.0406   6.0406   6.1130   6.1916   6.1916
     6.2150   6.2150   6.2164   6.3572   6.3706   6.3822   6.5166   6.5756
     6.6150   6.6640   6.9064   6.9942  11.7423  11.8404  11.8720  12.0430
    12.0430  12.0526  12.0526  12.0798  12.0879  12.1214  12.1873  12.1873
    12.5131  12.5230  12.5246  12.6853  12.6945  12.6945  12.7136  12.7466
    12.7549  12.7549  12.7998  12.7998  12.8598  12.9043  12.9216  12.9260
    12.9625  12.9637  12.9700  12.9700  13.0007  13.0007  13.0134  13.0134
    13.0271  13.1015  13.1111  13.1738  13.1948  13.3561  13.3561  13.3903
    13.4028  13.4320  13.4320  13.4349  13.4555  13.4555  13.4649  13.4870
    13.5018  13.5018  13.5073  13.5391  13.5391  13.5656  13.5838  13.5838

     the Fermi energy is     8.9918 ev

!    total energy              =   -3709.49800609 Ry
     estimated scf accuracy    <          4.1E-09 Ry
     smearing contrib. (-TS)   =      -0.01712560 Ry
     internal energy E=F+TS    =   -3709.48088049 Ry

     The total energy is F=E-TS. E is the sum of the following terms:
     one-electron contribution =   -2010.94907087 Ry
     hartree contribution      =    1157.35218351 Ry
     xc contribution           =    -540.72365692 Ry
     ewald contribution        =   -2087.97497609 Ry
     Hubbard energy            =       1.25731487 Ry
     one-center paw contrib.   =    -228.44267500 Ry

     total magnetization       =    48.00 Bohr mag/cell
     absolute magnetization    =    53.16 Bohr mag/cell

     convergence has been achieved in   4 iterations

     Writing all to output data dir ./tmp/limno2_super.save/ :
     XML data file, charge density, pseudopotentials, collected wavefunctions

     init_run     :      7.12s CPU      7.48s WALL (       1 calls)
     electrons    :    101.09s CPU    105.42s WALL (       1 calls)

     Called by init_run:
     wfcinit      :      4.60s CPU      4.79s WALL (       1 calls)
     potinit      :      1.06s CPU      1.13s WALL (       1 calls)
     hinit0       :      1.05s CPU      1.08s WALL (       1 calls)

     Called by electrons:
     c_bands      :     85.38s CPU     88.60s WALL (       5 calls)
     sum_band     :     11.81s CPU     12.53s WALL (       5 calls)
     v_of_rho     :      1.94s CPU      2.06s WALL (       5 calls)
     newd         :      1.09s CPU      1.34s WALL (       5 calls)
     PAW_pot      :      1.41s CPU      1.45s WALL (       5 calls)
     mix_rho      :      0.10s CPU      0.11s WALL (       5 calls)

     Called by c_bands:
     init_us_2    :      0.75s CPU      0.77s WALL (      44 calls)
     cegterg      :     81.83s CPU     85.00s WALL (      20 calls)

     Called by *egterg:
     cdiaghg      :     10.01s CPU     10.40s WALL (      69 calls)
     h_psi        :     40.95s CPU     43.06s WALL (      77 calls)
     s_psi        :      8.56s CPU      8.59s WALL (      81 calls)
     g_psi        :      0.12s CPU      0.12s WALL (      57 calls)

     Called by h_psi:
     h_psi:calbec :      7.82s CPU      7.95s WALL (      77 calls)
     vloc_psi     :     22.80s CPU     24.47s WALL (      77 calls)
                                        0.00s GPU  (      77 calls)
     add_vuspsi   :      7.49s CPU      7.50s WALL (      77 calls)
     vhpsi        :      2.70s CPU      2.72s WALL (      77 calls)

     General routines
     calbec       :     13.79s CPU     13.99s WALL (     198 calls)
     fft          :      1.32s CPU      1.42s WALL (     121 calls)
     ffts         :      0.40s CPU      0.40s WALL (      20 calls)
     fftw         :     24.66s CPU     26.52s WALL (   23806 calls)
     interpolate  :      0.46s CPU      0.48s WALL (      10 calls)

     Parallel routines

     Hubbard U routines
     new_ns       :      0.58s CPU      0.58s WALL (       5 calls)
     vhpsi        :      2.70s CPU      2.72s WALL (      77 calls)

     PWSCF        :   1m48.66s CPU   1m53.93s WALL


   This run was terminated on:  23:34:14  16Jul2026            

=------------------------------------------------------------------------------=
   JOB DONE.
=------------------------------------------------------------------------------=
