128
Lattice="11.549676112985031 0.0 0.0 0.0 8.1668543 0.0 0.0 0.0 40.105966598861905" Properties=species:S:1:pos:R:3:spacegroup_kinds:I:1:tags:I:1 pbc="T T F"
Li       0.00000000       0.00000000      15.00000000        0        4
Li       4.33112854       2.04171358      16.44370951        1        4
Li       1.44370951       2.04171358      16.44370951        2        4
Li       2.88741903       0.00000000      15.00000000        3        4
F        4.33112854       0.00000000      16.44370951        4        4
F        0.00000000       2.04171358      15.00000000        5        4
F        2.88741903       2.04171358      15.00000000        6        4
F        1.44370951       0.00000000      16.44370951        7        4
Li       2.88741903       0.00000000      17.88741903        0        3
Li       1.44370951       2.04171358      19.33112854        1        3
Li       4.33112854       2.04171358      19.33112854        2        3
Li       0.00000000       0.00000000      17.88741903        3        3
F        1.44370951       0.00000000      19.33112854        4        3
F        2.88741903       2.04171358      17.88741903        5        3
F        0.00000000       2.04171358      17.88741903        6        3
F        4.33112854       0.00000000      19.33112854        7        3
Li       0.00000000       0.00000000      20.77483806        0        2
Li       4.33112854       2.04171358      22.21854757        1        2
Li       1.44370951       2.04171358      22.21854757        2        2
Li       2.88741903       0.00000000      20.77483806        3        2
F        4.33112854       0.00000000      22.21854757        4        2
F        0.00000000       2.04171358      20.77483806        5        2
F        2.88741903       2.04171358      20.77483806        6        2
F        1.44370951       0.00000000      22.21854757        7        2
Li       2.88741903       0.00000000      23.66225708        0        1
Li       1.44370951       2.04171358      25.10596660        1        1
Li       4.33112854       2.04171358      25.10596660        2        1
Li       0.00000000       0.00000000      23.66225708        3        1
F        1.44370951       0.00000000      25.10596660        4        1
F        2.88741903       2.04171358      23.66225708        5        1
F        0.00000000       2.04171358      23.66225708        6        1
F        4.33112854       0.00000000      25.10596660        7        1
Li       0.00000000       4.08342715      15.00000000        0        4
Li       4.33112854       6.12514073      16.44370951        1        4
Li       1.44370951       6.12514073      16.44370951        2        4
Li       2.88741903       4.08342715      15.00000000        3        4
F        4.33112854       4.08342715      16.44370951        4        4
F        0.00000000       6.12514073      15.00000000        5        4
F        2.88741903       6.12514073      15.00000000        6        4
F        1.44370951       4.08342715      16.44370951        7        4
Li       2.88741903       4.08342715      17.88741903        0        3
Li       1.44370951       6.12514073      19.33112854        1        3
Li       4.33112854       6.12514073      19.33112854        2        3
Li       0.00000000       4.08342715      17.88741903        3        3
F        1.44370951       4.08342715      19.33112854        4        3
F        2.88741903       6.12514073      17.88741903        5        3
F        0.00000000       6.12514073      17.88741903        6        3
F        4.33112854       4.08342715      19.33112854        7        3
Li       0.00000000       4.08342715      20.77483806        0        2
Li       4.33112854       6.12514073      22.21854757        1        2
Li       1.44370951       6.12514073      22.21854757        2        2
Li       2.88741903       4.08342715      20.77483806        3        2
F        4.33112854       4.08342715      22.21854757        4        2
F        0.00000000       6.12514073      20.77483806        5        2
F        2.88741903       6.12514073      20.77483806        6        2
F        1.44370951       4.08342715      22.21854757        7        2
Li       2.88741903       4.08342715      23.66225708        0        1
Li       1.44370951       6.12514073      25.10596660        1        1
Li       4.33112854       6.12514073      25.10596660        2        1
Li       0.00000000       4.08342715      23.66225708        3        1
F        1.44370951       4.08342715      25.10596660        4        1
F        2.88741903       6.12514073      23.66225708        5        1
F        0.00000000       6.12514073      23.66225708        6        1
F        4.33112854       4.08342715      25.10596660        7        1
Li       5.77483806       0.00000000      15.00000000        0        4
Li      10.10596660       2.04171358      16.44370951        1        4
Li       7.21854757       2.04171358      16.44370951        2        4
Li       8.66225708       0.00000000      15.00000000        3        4
F       10.10596660       0.00000000      16.44370951        4        4
F        5.77483806       2.04171358      15.00000000        5        4
F        8.66225708       2.04171358      15.00000000        6        4
F        7.21854757       0.00000000      16.44370951        7        4
Li       8.66225708       0.00000000      17.88741903        0        3
Li       7.21854757       2.04171358      19.33112854        1        3
Li      10.10596660       2.04171358      19.33112854        2        3
Li       5.77483806       0.00000000      17.88741903        3        3
F        7.21854757       0.00000000      19.33112854        4        3
F        8.66225708       2.04171358      17.88741903        5        3
F        5.77483806       2.04171358      17.88741903        6        3
F       10.10596660       0.00000000      19.33112854        7        3
Li       5.77483806       0.00000000      20.77483806        0        2
Li      10.10596660       2.04171358      22.21854757        1        2
Li       7.21854757       2.04171358      22.21854757        2        2
Li       8.66225708       0.00000000      20.77483806        3        2
F       10.10596660       0.00000000      22.21854757        4        2
F        5.77483806       2.04171358      20.77483806        5        2
F        8.66225708       2.04171358      20.77483806        6        2
F        7.21854757       0.00000000      22.21854757        7        2
Li       8.66225708       0.00000000      23.66225708        0        1
Li       7.21854757       2.04171358      25.10596660        1        1
Li      10.10596660       2.04171358      25.10596660        2        1
Li       5.77483806       0.00000000      23.66225708        3        1
F        7.21854757       0.00000000      25.10596660        4        1
F        8.66225708       2.04171358      23.66225708        5        1
F        5.77483806       2.04171358      23.66225708        6        1
F       10.10596660       0.00000000      25.10596660        7        1
Li       5.77483806       4.08342715      15.00000000        0        4
Li      10.10596660       6.12514073      16.44370951        1        4
Li       7.21854757       6.12514073      16.44370951        2        4
Li       8.66225708       4.08342715      15.00000000        3        4
F       10.10596660       4.08342715      16.44370951        4        4
F        5.77483806       6.12514073      15.00000000        5        4
F        8.66225708       6.12514073      15.00000000        6        4
F        7.21854757       4.08342715      16.44370951        7        4
Li       8.66225708       4.08342715      17.88741903        0        3
Li       7.21854757       6.12514073      19.33112854        1        3
Li      10.10596660       6.12514073      19.33112854        2        3
Li       5.77483806       4.08342715      17.88741903        3        3
F        7.21854757       4.08342715      19.33112854        4        3
F        8.66225708       6.12514073      17.88741903        5        3
F        5.77483806       6.12514073      17.88741903        6        3
F       10.10596660       4.08342715      19.33112854        7        3
Li       5.77483806       4.08342715      20.77483806        0        2
Li      10.10596660       6.12514073      22.21854757        1        2
Li       7.21854757       6.12514073      22.21854757        2        2
Li       8.66225708       4.08342715      20.77483806        3        2
F       10.10596660       4.08342715      22.21854757        4        2
F        5.77483806       6.12514073      20.77483806        5        2
F        8.66225708       6.12514073      20.77483806        6        2
F        7.21854757       4.08342715      22.21854757        7        2
Li       8.66225708       4.08342715      23.66225708        0        1
Li       7.21854757       6.12514073      25.10596660        1        1
Li      10.10596660       6.12514073      25.10596660        2        1
Li       5.77483806       4.08342715      23.66225708        3        1
F        7.21854757       4.08342715      25.10596660        4        1
F        8.66225708       6.12514073      23.66225708        5        1
F        5.77483806       6.12514073      23.66225708        6        1
F       10.10596660       4.08342715      25.10596660        7        1
