
     Program PWSCF v.7.5 starts on 22Jul2026 at 16:33:43 

     This program is part of the open-source Quantum ESPRESSO suite
     for quantum simulation of materials; please cite
         "P. Giannozzi et al., J. Phys.:Condens. Matter 21 395502 (2009);
         "P. Giannozzi et al., J. Phys.:Condens. Matter 29 465901 (2017);
         "P. Giannozzi et al., J. Chem. Phys. 152 154105 (2020);
          URL http://www.quantum-espresso.org", 
     in publications or presentations arising from this work. More details at
     http://www.quantum-espresso.org/quote

     Parallel version (MPI), running on    10 processors

     MPI processes distributed on     1 nodes
     113431 MiB available memory on the printing compute node when the environment starts

     Reading input from LiFcell_scf.in

     Current dimensions of program PWSCF are:
     Max number of different atomic species (ntypx) = 10
     Max number of k-points (npk) =  40000
     Max angular momentum in pseudopotentials (lmaxx) =  4
     Found identity + (  0.2500 -0.0000 -0.0000) symmetry
     This is a supercell, fractional translations are disabled

     R & G space division:  proc/nbgrp/npool/nimage =      10
     Subspace diagonalization in iterative solution of the eigenvalue problem:
     one sub-group per band group will be used
     custom distributed-memory algorithm (size of sub-group:  3*  3 procs)


     Parallelization info
     --------------------
     sticks:   dense  smooth     PW     G-vecs:    dense   smooth      PW
     Min        1286     642    170               453338   160226   22029
     Max        1287     643    172               453353   160239   22033
     Sum       12867    6427   1709              4533471  1602351  220309

     Using Slab Decomposition



     bravais-lattice index     =            0
     lattice parameter (alat)  =      21.8257  a.u.
     unit-cell volume          =   25528.7938 (a.u.)^3
     number of atoms/cell      =          128
     number of atomic types    =            2
     number of electrons       =       640.00
     number of Kohn-Sham states=          320
     kinetic-energy cutoff     =      60.0000  Ry
     charge density cutoff     =     480.0000  Ry
     scf convergence threshold =      1.0E-08
     mixing beta               =       0.3000
     number of iterations used =            8  plain     mixing
     Exchange-correlation= PBE
                           (   1   4   3   4   0   0   0)

     celldm(1)=  21.825725  celldm(2)=   0.000000  celldm(3)=   0.000000
     celldm(4)=   0.000000  celldm(5)=   0.000000  celldm(6)=   0.000000

     crystal axes: (cart. coord. in units of alat)
               a(1) = (   1.000000   0.000000   0.000000 )  
               a(2) = (   0.000000   0.707107   0.000000 )  
               a(3) = (   0.000000   0.000000   3.472475 )  

     reciprocal axes: (cart. coord. in units 2 pi/alat)
               b(1) = (  1.000000  0.000000  0.000000 )  
               b(2) = (  0.000000  1.414213  0.000000 )  
               b(3) = (  0.000000  0.000000  0.287979 )  


     PseudoPot. # 1 for Li read from file:
     ./pseudo/Li.upf
     MD5 check sum: dbcf0ea72988e720c8c712b432d51b0d
     Pseudo is Norm-conserving, Zval =  3.0
     Generated using ONCVPSP code by D. R. Hamann
     Using radial grid of 1944 points,  4 beta functions with: 
                l(1) =   0
                l(2) =   0
                l(3) =   1
                l(4) =   1

     PseudoPot. # 2 for F  read from file:
     ./pseudo/F.upf
     MD5 check sum: e79d493a50113cefedcefee2f1adb6e7
     Pseudo is Norm-conserving + core correction, Zval =  7.0
     Generated using ONCVPSP code by D. R. Hamann
     Using radial grid of  832 points,  5 beta functions with: 
                l(1) =   0
                l(2) =   0
                l(3) =   1
                l(4) =   1
                l(5) =   2

     atomic species   valence    mass     pseudopotential
     Li                3.00     6.94000     Li( 1.00)
     F                 7.00    18.99840     F ( 1.00)

     No symmetry found



   Cartesian axes

     site n.     atom                  positions (alat units)
         1        Li     tau(   1) = (   0.0000000   0.0000000   1.3180357  )
         2        Li     tau(   2) = (   0.3750000   0.1767767   1.4159279  )
         3        Li     tau(   3) = (   0.1250000   0.1767767   1.4159279  )
         4        Li     tau(   4) = (   0.2500000   0.0000000   1.3180357  )
         5        F      tau(   5) = (   0.3750000   0.0000000   1.4230467  )
         6        F      tau(   6) = (   0.0000000   0.1767767   1.3060823  )
         7        F      tau(   7) = (   0.2500000   0.1767767   1.3060823  )
         8        F      tau(   8) = (   0.1250000   0.0000000   1.4230467  )
         9        Li     tau(   9) = (   0.2500000  -0.0000000   1.5548495  )
        10        Li     tau(  10) = (   0.1250000   0.1767767   1.6714958  )
        11        Li     tau(  11) = (   0.3750000   0.1767767   1.6714958  )
        12        Li     tau(  12) = (  -0.0000000  -0.0000000   1.5548495  )
        13        F      tau(  13) = (   0.1250000   0.0000000   1.6737057  )
        14        F      tau(  14) = (   0.2500000   0.1767767   1.5514665  )
        15        F      tau(  15) = (   0.0000000   0.1767767   1.5514665  )
        16        F      tau(  16) = (   0.3750000   0.0000000   1.6737057  )
        17        Li     tau(  17) = (  -0.0000000  -0.0000000   1.8009796  )
        18        Li     tau(  18) = (   0.3750000   0.1767767   1.9176259  )
        19        Li     tau(  19) = (   0.1250000   0.1767767   1.9176259  )
        20        Li     tau(  20) = (   0.2500000  -0.0000000   1.8009796  )
        21        F      tau(  21) = (   0.3750000   0.0000000   1.9210089  )
        22        F      tau(  22) = (  -0.0000000   0.1767767   1.7987697  )
        23        F      tau(  23) = (   0.2500000   0.1767767   1.7987697  )
        24        F      tau(  24) = (   0.1250000   0.0000000   1.9210089  )
        25        Li     tau(  25) = (   0.2500000   0.0000000   2.0565475  )
        26        Li     tau(  26) = (   0.1250000   0.1767767   2.1544397  )
        27        Li     tau(  27) = (   0.3750000   0.1767767   2.1544397  )
        28        Li     tau(  28) = (  -0.0000000   0.0000000   2.0565475  )
        29        F      tau(  29) = (   0.1250000   0.0000000   2.1663931  )
        30        F      tau(  30) = (   0.2500000   0.1767767   2.0494287  )
        31        F      tau(  31) = (   0.0000000   0.1767767   2.0494287  )
        32        F      tau(  32) = (   0.3750000   0.0000000   2.1663931  )
        33        Li     tau(  33) = (   0.0000000   0.3535534   1.3180357  )
        34        Li     tau(  34) = (   0.3750000   0.5303301   1.4159279  )
        35        Li     tau(  35) = (   0.1250000   0.5303301   1.4159279  )
        36        Li     tau(  36) = (   0.2500000   0.3535534   1.3180357  )
        37        F      tau(  37) = (   0.3750000   0.3535534   1.4230467  )
        38        F      tau(  38) = (   0.0000000   0.5303301   1.3060823  )
        39        F      tau(  39) = (   0.2500000   0.5303301   1.3060823  )
        40        F      tau(  40) = (   0.1250000   0.3535534   1.4230467  )
        41        Li     tau(  41) = (   0.2500000   0.3535534   1.5548495  )
        42        Li     tau(  42) = (   0.1250000   0.5303301   1.6714958  )
        43        Li     tau(  43) = (   0.3750000   0.5303301   1.6714958  )
        44        Li     tau(  44) = (  -0.0000000   0.3535534   1.5548495  )
        45        F      tau(  45) = (   0.1250000   0.3535534   1.6737057  )
        46        F      tau(  46) = (   0.2500000   0.5303301   1.5514665  )
        47        F      tau(  47) = (   0.0000000   0.5303301   1.5514665  )
        48        F      tau(  48) = (   0.3750000   0.3535534   1.6737057  )
        49        Li     tau(  49) = (   0.0000000   0.3535534   1.8009796  )
        50        Li     tau(  50) = (   0.3750000   0.5303301   1.9176259  )
        51        Li     tau(  51) = (   0.1250000   0.5303301   1.9176259  )
        52        Li     tau(  52) = (   0.2500000   0.3535534   1.8009796  )
        53        F      tau(  53) = (   0.3750000   0.3535534   1.9210089  )
        54        F      tau(  54) = (  -0.0000000   0.5303301   1.7987697  )
        55        F      tau(  55) = (   0.2500000   0.5303301   1.7987697  )
        56        F      tau(  56) = (   0.1250000   0.3535534   1.9210089  )
        57        Li     tau(  57) = (   0.2500000   0.3535534   2.0565475  )
        58        Li     tau(  58) = (   0.1250000   0.5303301   2.1544397  )
        59        Li     tau(  59) = (   0.3750000   0.5303301   2.1544397  )
        60        Li     tau(  60) = (   0.0000000   0.3535534   2.0565475  )
        61        F      tau(  61) = (   0.1250000   0.3535534   2.1663931  )
        62        F      tau(  62) = (   0.2500000   0.5303301   2.0494287  )
        63        F      tau(  63) = (  -0.0000000   0.5303301   2.0494287  )
        64        F      tau(  64) = (   0.3750000   0.3535534   2.1663931  )
        65        Li     tau(  65) = (   0.5000000   0.0000000   1.3180357  )
        66        Li     tau(  66) = (   0.8750000   0.1767767   1.4159279  )
        67        Li     tau(  67) = (   0.6250000   0.1767767   1.4159279  )
        68        Li     tau(  68) = (   0.7500000   0.0000000   1.3180357  )
        69        F      tau(  69) = (   0.8750000   0.0000000   1.4230467  )
        70        F      tau(  70) = (   0.5000000   0.1767767   1.3060823  )
        71        F      tau(  71) = (   0.7500000   0.1767767   1.3060823  )
        72        F      tau(  72) = (   0.6250000  -0.0000000   1.4230467  )
        73        Li     tau(  73) = (   0.7500000  -0.0000000   1.5548495  )
        74        Li     tau(  74) = (   0.6250000   0.1767767   1.6714958  )
        75        Li     tau(  75) = (   0.8750000   0.1767767   1.6714958  )
        76        Li     tau(  76) = (   0.5000000  -0.0000000   1.5548495  )
        77        F      tau(  77) = (   0.6250000   0.0000000   1.6737057  )
        78        F      tau(  78) = (   0.7500000   0.1767767   1.5514665  )
        79        F      tau(  79) = (   0.5000000   0.1767767   1.5514665  )
        80        F      tau(  80) = (   0.8750000  -0.0000000   1.6737057  )
        81        Li     tau(  81) = (   0.5000000  -0.0000000   1.8009796  )
        82        Li     tau(  82) = (   0.8750000   0.1767767   1.9176259  )
        83        Li     tau(  83) = (   0.6250000   0.1767767   1.9176259  )
        84        Li     tau(  84) = (   0.7500000  -0.0000000   1.8009796  )
        85        F      tau(  85) = (   0.8750000   0.0000000   1.9210089  )
        86        F      tau(  86) = (   0.5000000   0.1767767   1.7987697  )
        87        F      tau(  87) = (   0.7500000   0.1767767   1.7987697  )
        88        F      tau(  88) = (   0.6250000   0.0000000   1.9210089  )
        89        Li     tau(  89) = (   0.7500000  -0.0000000   2.0565475  )
        90        Li     tau(  90) = (   0.6250000   0.1767767   2.1544397  )
        91        Li     tau(  91) = (   0.8750000   0.1767767   2.1544397  )
        92        Li     tau(  92) = (   0.5000000   0.0000000   2.0565475  )
        93        F      tau(  93) = (   0.6250000   0.0000000   2.1663931  )
        94        F      tau(  94) = (   0.7500000   0.1767767   2.0494287  )
        95        F      tau(  95) = (   0.5000000   0.1767767   2.0494287  )
        96        F      tau(  96) = (   0.8750000   0.0000000   2.1663931  )
        97        Li     tau(  97) = (   0.5000000   0.3535534   1.3180357  )
        98        Li     tau(  98) = (   0.8750000   0.5303301   1.4159279  )
        99        Li     tau(  99) = (   0.6250000   0.5303301   1.4159279  )
       100        Li     tau( 100) = (   0.7500000   0.3535534   1.3180357  )
       101        F      tau( 101) = (   0.8750000   0.3535534   1.4230467  )
       102        F      tau( 102) = (   0.5000000   0.5303301   1.3060823  )
       103        F      tau( 103) = (   0.7500000   0.5303301   1.3060823  )
       104        F      tau( 104) = (   0.6250000   0.3535534   1.4230467  )
       105        Li     tau( 105) = (   0.7500000   0.3535534   1.5548495  )
       106        Li     tau( 106) = (   0.6250000   0.5303301   1.6714958  )
       107        Li     tau( 107) = (   0.8750000   0.5303301   1.6714958  )
       108        Li     tau( 108) = (   0.5000000   0.3535534   1.5548495  )
       109        F      tau( 109) = (   0.6250000   0.3535534   1.6737057  )
       110        F      tau( 110) = (   0.7500000   0.5303301   1.5514665  )
       111        F      tau( 111) = (   0.5000000   0.5303301   1.5514665  )
       112        F      tau( 112) = (   0.8750000   0.3535534   1.6737057  )
       113        Li     tau( 113) = (   0.5000000   0.3535534   1.8009796  )
       114        Li     tau( 114) = (   0.8750000   0.5303301   1.9176259  )
       115        Li     tau( 115) = (   0.6250000   0.5303301   1.9176259  )
       116        Li     tau( 116) = (   0.7500000   0.3535534   1.8009796  )
       117        F      tau( 117) = (   0.8750000   0.3535534   1.9210089  )
       118        F      tau( 118) = (   0.5000000   0.5303301   1.7987697  )
       119        F      tau( 119) = (   0.7500000   0.5303301   1.7987697  )
       120        F      tau( 120) = (   0.6250000   0.3535534   1.9210089  )
       121        Li     tau( 121) = (   0.7500000   0.3535534   2.0565475  )
       122        Li     tau( 122) = (   0.6250000   0.5303301   2.1544397  )
       123        Li     tau( 123) = (   0.8750000   0.5303301   2.1544397  )
       124        Li     tau( 124) = (   0.5000000   0.3535534   2.0565475  )
       125        F      tau( 125) = (   0.6250000   0.3535534   2.1663931  )
       126        F      tau( 126) = (   0.7500000   0.5303301   2.0494287  )
       127        F      tau( 127) = (   0.5000000   0.5303301   2.0494287  )
       128        F      tau( 128) = (   0.8750000   0.3535534   2.1663931  )

     number of k points=    10
                       cart. coord. in units 2pi/alat
        k(    1) = (   0.0000000   0.0000000   0.0000000), wk =   0.1250000
        k(    2) = (   0.0000000   0.3535533   0.0000000), wk =   0.2500000
        k(    3) = (   0.0000000  -0.7071066   0.0000000), wk =   0.1250000
        k(    4) = (   0.2500000   0.0000000   0.0000000), wk =   0.2500000
        k(    5) = (   0.2500000   0.3535533   0.0000000), wk =   0.2500000
        k(    6) = (   0.2500000  -0.7071066   0.0000000), wk =   0.2500000
        k(    7) = (   0.2500000  -0.3535533   0.0000000), wk =   0.2500000
        k(    8) = (  -0.5000000   0.0000000   0.0000000), wk =   0.1250000
        k(    9) = (  -0.5000000   0.3535533   0.0000000), wk =   0.2500000
        k(   10) = (  -0.5000000  -0.7071066   0.0000000), wk =   0.1250000

     Dense  grid:  4533471 G-vectors     FFT dimensions: ( 160, 108, 540)

     Smooth grid:  1602351 G-vectors     FFT dimensions: ( 108,  80, 375)

     Estimated max dynamical RAM per process >       2.10 GB

     Estimated total dynamical RAM >      21.03 GB

     Atomic positions and unit cell read from directory:
     ./tmp/LiFcell/LiFcell.save/


     The initial density is read from file :
     ./tmp/LiFcell/LiFcell.save/charge-density


     starting charge     640.0001, renormalised to     640.0000

     negative rho (up, down):  9.429E+00 0.000E+00
     Starting wfcs from file

     total cpu time spent up to now is       74.4 secs

     Self-consistent Calculation

     iteration #  1     ecut=    60.00 Ry     beta= 0.30
     Davidson diagonalization with overlap
     ethr =  1.00E-05,  avg # of iterations = 14.3

     negative rho (up, down):  6.517E+00 0.000E+00

     total cpu time spent up to now is     5221.1 secs

     total energy              =   -4092.77255285 Ry
     estimated scf accuracy    <       0.01881712 Ry

     iteration #  2     ecut=    60.00 Ry     beta= 0.30
     Davidson diagonalization with overlap
     ethr =  2.94E-06,  avg # of iterations =  3.2

     negative rho (up, down):  4.020E+00 0.000E+00

     total cpu time spent up to now is     6538.1 secs

     total energy              =   -4093.03559637 Ry
     estimated scf accuracy    <       0.00556992 Ry

     iteration #  3     ecut=    60.00 Ry     beta= 0.30
     Davidson diagonalization with overlap
     ethr =  8.70E-07,  avg # of iterations =  3.9

     negative rho (up, down):  1.653E+00 0.000E+00

     total cpu time spent up to now is     7971.6 secs

     total energy              =   -4093.20572582 Ry
     estimated scf accuracy    <       0.00262124 Ry

     iteration #  4     ecut=    60.00 Ry     beta= 0.30
     Davidson diagonalization with overlap
     ethr =  4.10E-07,  avg # of iterations =  4.0

     negative rho (up, down):  5.331E-01 0.000E+00

     total cpu time spent up to now is     9665.7 secs

     total energy              =   -4093.24896859 Ry
     estimated scf accuracy    <       0.00058201 Ry

     iteration #  5     ecut=    60.00 Ry     beta= 0.30
     Davidson diagonalization with overlap
     ethr =  9.09E-08,  avg # of iterations =  4.0

     negative rho (up, down):  8.101E-02 0.000E+00

     total cpu time spent up to now is    11344.4 secs

     total energy              =   -4093.25695774 Ry
     estimated scf accuracy    <       0.00015243 Ry

     iteration #  6     ecut=    60.00 Ry     beta= 0.30
     Davidson diagonalization with overlap
     ethr =  2.38E-08,  avg # of iterations =  4.0

     negative rho (up, down):  1.706E-03 0.000E+00

     total cpu time spent up to now is    12920.8 secs

     total energy              =   -4093.25745123 Ry
     estimated scf accuracy    <       0.00001781 Ry

     iteration #  7     ecut=    60.00 Ry     beta= 0.30
     Davidson diagonalization with overlap
     ethr =  2.78E-09,  avg # of iterations =  3.2

     total cpu time spent up to now is    14320.5 secs

     total energy              =   -4093.25745709 Ry
     estimated scf accuracy    <       0.00000105 Ry

     iteration #  8     ecut=    60.00 Ry     beta= 0.30
     Davidson diagonalization with overlap
     ethr =  1.64E-10,  avg # of iterations =  2.1

     negative rho (up, down):  8.056E-05 0.000E+00

     total cpu time spent up to now is    15397.6 secs

     total energy              =   -4093.25745690 Ry
     estimated scf accuracy    <       0.00000019 Ry

     iteration #  9     ecut=    60.00 Ry     beta= 0.30
     Davidson diagonalization with overlap
     ethr =  2.96E-11,  avg # of iterations =  2.0

     negative rho (up, down):  1.406E-05 0.000E+00

     total cpu time spent up to now is    16610.9 secs

     total energy              =   -4093.25745686 Ry
     estimated scf accuracy    <       0.00000003 Ry

     iteration # 10     ecut=    60.00 Ry     beta= 0.30
     Davidson diagonalization with overlap
     ethr =  4.71E-12,  avg # of iterations =  2.0

     total cpu time spent up to now is    17839.3 secs

     End of self-consistent calculation

          k = 0.0000 0.0000 0.0000 (200173 PWs)   bands (ev):

   -46.9980 -46.9979 -46.9957 -46.9957 -46.9889 -46.9889 -46.9886 -46.9886
   -46.9876 -46.9876 -46.9876 -46.9876 -46.9802 -46.9802 -46.9790 -46.9790
   -46.4861 -46.4836 -46.4805 -46.4805 -46.4761 -46.4761 -46.4742 -46.4742
   -46.4729 -46.4729 -46.4729 -46.4729 -46.4661 -46.4661 -46.4648 -46.4648
   -46.3373 -46.3264 -46.3264 -46.3252 -46.3252 -46.3174 -46.3174 -46.3174
   -46.3174 -46.3116 -46.3106 -46.3106 -46.3092 -46.3092 -46.3081 -46.3080
   -46.0259 -46.0257 -46.0250 -46.0250 -46.0173 -46.0173 -46.0172 -46.0172
   -46.0167 -46.0167 -46.0167 -46.0167 -46.0093 -46.0093 -46.0079 -46.0079
   -25.4123 -25.3950 -25.3549 -25.3548 -25.3132 -25.3132 -25.3009 -25.3009
   -25.2901 -25.2901 -25.2901 -25.2901 -25.2243 -25.2243 -25.2028 -25.2028
   -25.2013 -25.0750 -25.0750 -25.0266 -25.0266 -24.9499 -24.9499 -24.9499
   -24.9499 -24.9195 -24.8717 -24.8717 -24.8499 -24.8499 -24.8297 -24.8297
   -24.8163 -24.8162 -24.7311 -24.7311 -24.7311 -24.7311 -24.6777 -24.6601
   -24.6601 -24.6591 -24.6427 -24.6427 -24.6309 -24.6309 -24.6206 -24.6206
   -24.0832 -24.0832 -24.0340 -24.0340 -24.0088 -24.0088 -24.0088 -24.0088
   -23.9727 -23.9726 -23.9726 -23.9726 -23.9319 -23.9319 -23.9092 -23.9092
    -8.2404  -8.2194  -8.2194  -7.9822  -7.9822  -7.9761  -7.9319  -7.9319
    -7.7800  -7.7800  -7.7756  -7.7756  -7.7635  -7.7635  -7.7593  -7.7593
    -7.6277  -7.6277  -7.6277  -7.6277  -7.6185  -7.6185  -7.5649  -7.5649
    -7.5572  -7.5474  -7.5474  -7.5332  -7.5332  -7.4831  -7.4831  -7.4536
    -7.4536  -7.3921  -7.3921  -7.3921  -7.3921  -7.3882  -7.3882  -7.3766
    -7.3766  -7.3379  -7.3213  -7.3213  -7.3213  -7.3213  -7.2254  -7.2254
    -7.1706  -7.1706  -7.1706  -7.1706  -7.1400  -7.1361  -7.1361  -7.1303
    -7.1302  -7.0226  -6.8977  -6.8949  -6.8949  -6.8881  -6.8881  -6.8477
    -6.8477  -6.8312  -6.8312  -6.8307  -6.8307  -6.8307  -6.8307  -6.8222
    -6.8222  -6.6865  -6.6865  -6.6412  -6.6321  -6.6321  -6.6075  -6.6075
    -6.5356  -6.5240  -6.4728  -6.4323  -6.4323  -6.4309  -6.4309  -6.4309
    -6.4309  -6.4301  -6.4301  -6.3482  -6.3481  -6.3382  -6.3382  -6.3351
    -6.3351  -6.2079  -6.1809  -6.1809  -6.1534  -6.1521  -6.1521  -6.1506
    -6.1506  -6.1506  -6.1506  -6.1380  -6.1380  -6.1276  -6.1276  -6.1206
    -6.1206  -6.0671  -6.0671  -6.0338  -6.0338  -5.9681  -5.9215  -5.9215
    -5.8914  -5.8914  -5.8885  -5.8885  -5.8814  -5.8814  -5.8712  -5.8712
    -5.8712  -5.8712  -5.8650  -5.8650  -5.8402  -5.8402  -5.8350  -5.8350
    -5.8040  -5.8022  -5.8022  -5.7854  -5.7854  -5.7854  -5.7854  -5.7676
    -5.7001  -5.7001  -5.6961  -5.6961  -5.6938  -5.6938  -5.6468  -5.6468
    -5.6184  -5.6184  -5.5934  -5.5933  -5.5933  -5.5933  -5.5486  -5.5358
    -5.5358  -5.5222  -5.5222  -5.5187  -5.5187  -5.4770  -5.4767  -5.4739
    -5.4607  -5.4561  -5.4561  -5.4561  -5.4561  -5.3670  -5.3316  -5.3316
    -5.3039  -5.3039  -5.2661  -5.2661  -5.2441  -5.2441  -5.2361  -5.2360
    -5.2086  -5.2085  -5.2085  -5.2085  -4.8636  -4.8636  -4.8250  -4.8247

          k = 0.0000 0.3536 0.0000 (200366 PWs)   bands (ev):

   -46.9977 -46.9975 -46.9962 -46.9961 -46.9887 -46.9887 -46.9887 -46.9887
   -46.9878 -46.9878 -46.9877 -46.9877 -46.9800 -46.9800 -46.9795 -46.9795
   -46.4856 -46.4828 -46.4818 -46.4807 -46.4758 -46.4758 -46.4740 -46.4740
   -46.4735 -46.4735 -46.4730 -46.4730 -46.4659 -46.4659 -46.4653 -46.4653
   -46.3365 -46.3303 -46.3258 -46.3258 -46.3210 -46.3210 -46.3200 -46.3138
   -46.3138 -46.3126 -46.3103 -46.3103 -46.3098 -46.3098 -46.3090 -46.3090
   -46.0258 -46.0255 -46.0252 -46.0252 -46.0174 -46.0174 -46.0172 -46.0172
   -46.0168 -46.0168 -46.0167 -46.0167 -46.0091 -46.0091 -46.0084 -46.0084
   -25.4040 -25.3896 -25.3635 -25.3609 -25.3100 -25.3100 -25.2994 -25.2993
   -25.2941 -25.2941 -25.2912 -25.2912 -25.2212 -25.2212 -25.2060 -25.2060
   -25.1918 -25.1035 -25.0681 -25.0681 -25.0054 -25.0053 -24.9609 -24.9229
   -24.8930 -24.8930 -24.8686 -24.8686 -24.8531 -24.8531 -24.8352 -24.8352
   -24.8060 -24.7815 -24.7338 -24.7338 -24.7054 -24.7054 -24.6928 -24.6829
   -24.6747 -24.6747 -24.6420 -24.6420 -24.6396 -24.6396 -24.6238 -24.6238
   -24.0761 -24.0761 -24.0413 -24.0413 -24.0036 -24.0036 -24.0035 -24.0035
   -23.9781 -23.9780 -23.9779 -23.9779 -23.9287 -23.9286 -23.9125 -23.9125
    -8.1685  -8.1685  -8.1323  -7.9777  -7.9777  -7.9183  -7.9183  -7.9114
    -7.7837  -7.7794  -7.7794  -7.7538  -7.7538  -7.7505  -7.7505  -7.7217
    -7.7005  -7.7005  -7.6779  -7.6779  -7.6118  -7.5956  -7.5956  -7.5932
    -7.5932  -7.5910  -7.5910  -7.5509  -7.5509  -7.5388  -7.5295  -7.5295
    -7.5186  -7.4861  -7.4602  -7.4602  -7.4127  -7.4127  -7.3974  -7.3760
    -7.3760  -7.3350  -7.3350  -7.2923  -7.2923  -7.2340  -7.2171  -7.2171
    -7.2117  -7.2117  -7.1571  -7.1571  -7.1517  -7.1517  -7.0950  -7.0950
    -7.0769  -7.0728  -7.0728  -6.9269  -6.9269  -6.9137  -6.9137  -6.8704
    -6.7972  -6.7972  -6.7719  -6.7297  -6.7297  -6.6993  -6.6993  -6.6848
    -6.6848  -6.6645  -6.6645  -6.6100  -6.5805  -6.5607  -6.5607  -6.5053
    -6.4988  -6.4937  -6.4937  -6.4563  -6.4342  -6.4342  -6.4204  -6.4204
    -6.4164  -6.4164  -6.3768  -6.3664  -6.3447  -6.3447  -6.2993  -6.2993
    -6.2873  -6.1947  -6.1947  -6.1907  -6.1907  -6.1903  -6.1792  -6.1792
    -6.1696  -6.1696  -6.1506  -6.1492  -6.1492  -6.1174  -6.1174  -6.1174
    -6.0884  -6.0839  -6.0839  -6.0716  -6.0716  -6.0601  -6.0601  -6.0421
    -6.0218  -6.0218  -5.9702  -5.8930  -5.8930  -5.8781  -5.8781  -5.8771
    -5.8771  -5.8686  -5.8631  -5.8631  -5.8186  -5.8154  -5.8154  -5.8122
    -5.8122  -5.8080  -5.8080  -5.8008  -5.7697  -5.7697  -5.7247  -5.7073
    -5.7073  -5.6818  -5.6818  -5.6782  -5.6718  -5.6718  -5.6533  -5.6266
    -5.6266  -5.6229  -5.6229  -5.6054  -5.5929  -5.5927  -5.5927  -5.5897
    -5.5890  -5.5258  -5.5045  -5.4974  -5.4974  -5.4963  -5.4963  -5.4916
    -5.4665  -5.4665  -5.4259  -5.4259  -5.3997  -5.3675  -5.3434  -5.3394
    -5.2978  -5.2978  -5.2527  -5.2527  -5.2458  -5.2458  -5.2356  -5.2356
    -5.2235  -5.2235  -5.2215  -5.2215  -4.8577  -4.8576  -4.8305  -4.8303

          k = 0.0000-0.7071 0.0000 (200506 PWs)   bands (ev):

   -46.9970 -46.9970 -46.9969 -46.9969 -46.9883 -46.9883 -46.9883 -46.9883
   -46.9883 -46.9883 -46.9883 -46.9883 -46.9798 -46.9798 -46.9798 -46.9798
   -46.4837 -46.4837 -46.4820 -46.4820 -46.4747 -46.4747 -46.4747 -46.4747
   -46.4736 -46.4736 -46.4736 -46.4736 -46.4656 -46.4656 -46.4656 -46.4656
   -46.3342 -46.3342 -46.3240 -46.3239 -46.3239 -46.3239 -46.3156 -46.3156
   -46.3109 -46.3109 -46.3109 -46.3109 -46.3101 -46.3101 -46.3101 -46.3101
   -46.0256 -46.0256 -46.0255 -46.0255 -46.0172 -46.0172 -46.0172 -46.0172
   -46.0170 -46.0170 -46.0170 -46.0170 -46.0088 -46.0088 -46.0088 -46.0088
   -25.3837 -25.3837 -25.3758 -25.3758 -25.3021 -25.3021 -25.3021 -25.3021
   -25.2953 -25.2953 -25.2953 -25.2953 -25.2136 -25.2136 -25.2136 -25.2136
   -25.1606 -25.1606 -25.0457 -25.0457 -25.0457 -25.0457 -24.9333 -24.9333
   -24.8609 -24.8609 -24.8609 -24.8609 -24.8539 -24.8539 -24.8539 -24.8539
   -24.7441 -24.7441 -24.7326 -24.7326 -24.7084 -24.7084 -24.7084 -24.7084
   -24.6707 -24.6707 -24.6707 -24.6707 -24.6317 -24.6317 -24.6317 -24.6317
   -24.0588 -24.0588 -24.0588 -24.0588 -23.9909 -23.9909 -23.9909 -23.9909
   -23.9907 -23.9907 -23.9907 -23.9907 -23.9206 -23.9206 -23.9206 -23.9206
    -8.0421  -8.0421  -8.0421  -8.0421  -7.8811  -7.8811  -7.8811  -7.8811
    -7.8428  -7.8428  -7.7672  -7.7672  -7.7228  -7.7228  -7.7228  -7.7228
    -7.6910  -7.6910  -7.6910  -7.6910  -7.6817  -7.6817  -7.6817  -7.6817
    -7.6736  -7.6736  -7.6350  -7.6350  -7.5549  -7.5549  -7.5549  -7.5549
    -7.4944  -7.4944  -7.4944  -7.4944  -7.4464  -7.4464  -7.4464  -7.4464
    -7.4050  -7.4050  -7.2534  -7.2534  -7.2534  -7.2534  -7.2232  -7.2232
    -7.2232  -7.2232  -7.1879  -7.1879  -7.1879  -7.1879  -7.0120  -7.0120
    -7.0120  -7.0120  -6.9594  -6.9594  -6.9594  -6.9594  -6.9149  -6.9149
    -6.6718  -6.6718  -6.6718  -6.6718  -6.6371  -6.6371  -6.6371  -6.6371
    -6.5934  -6.5934  -6.5934  -6.5934  -6.5714  -6.5714  -6.5563  -6.5563
    -6.5563  -6.5563  -6.4399  -6.4399  -6.4129  -6.4129  -6.4094  -6.4094
    -6.3950  -6.3950  -6.3950  -6.3950  -6.2784  -6.2784  -6.2783  -6.2783
    -6.2529  -6.2529  -6.2240  -6.2239  -6.1974  -6.1974  -6.1974  -6.1974
    -6.1685  -6.1685  -6.1685  -6.1685  -6.1351  -6.1351  -6.1264  -6.1264
    -6.1264  -6.1264  -6.0765  -6.0765  -6.0765  -6.0765  -6.0191  -6.0191
    -6.0191  -6.0191  -6.0053  -6.0053  -6.0053  -6.0053  -5.8902  -5.8902
    -5.8875  -5.8875  -5.8875  -5.8875  -5.8558  -5.8558  -5.8558  -5.8558
    -5.7957  -5.7957  -5.7805  -5.7805  -5.7113  -5.7113  -5.7113  -5.7113
    -5.7042  -5.7042  -5.7042  -5.7042  -5.6616  -5.6616  -5.6616  -5.6616
    -5.6535  -5.6535  -5.6535  -5.6535  -5.5864  -5.5864  -5.5799  -5.5799
    -5.5348  -5.5348  -5.5293  -5.5293  -5.4671  -5.4671  -5.4671  -5.4671
    -5.4390  -5.4390  -5.4390  -5.4390  -5.3653  -5.3653  -5.3582  -5.3582
    -5.2659  -5.2659  -5.2659  -5.2659  -5.2410  -5.2410  -5.2410  -5.2410
    -5.2389  -5.2389  -5.2389  -5.2389  -4.8450  -4.8450  -4.8441  -4.8441

          k = 0.2500 0.0000 0.0000 (200254 PWs)   bands (ev):

   -46.9972 -46.9971 -46.9951 -46.9951 -46.9922 -46.9922 -46.9908 -46.9908
   -46.9854 -46.9854 -46.9844 -46.9844 -46.9808 -46.9808 -46.9799 -46.9799
   -46.4854 -46.4826 -46.4801 -46.4800 -46.4800 -46.4775 -46.4759 -46.4759
   -46.4723 -46.4709 -46.4699 -46.4699 -46.4669 -46.4665 -46.4656 -46.4656
   -46.3364 -46.3306 -46.3246 -46.3246 -46.3218 -46.3205 -46.3205 -46.3144
   -46.3144 -46.3135 -46.3112 -46.3101 -46.3101 -46.3094 -46.3085 -46.3074
   -46.0251 -46.0250 -46.0244 -46.0244 -46.0205 -46.0204 -46.0200 -46.0200
   -46.0142 -46.0141 -46.0134 -46.0134 -46.0099 -46.0098 -46.0088 -46.0088
   -25.4051 -25.3880 -25.3521 -25.3500 -25.3499 -25.3376 -25.3150 -25.3150
   -25.2730 -25.2650 -25.2650 -25.2634 -25.2294 -25.2294 -25.2127 -25.2095
   -25.1924 -25.1263 -25.0208 -25.0208 -25.0170 -24.9794 -24.9794 -24.9202
   -24.9201 -24.9124 -24.8997 -24.8778 -24.8778 -24.8627 -24.8129 -24.8099
   -24.8099 -24.8031 -24.7641 -24.7641 -24.6977 -24.6977 -24.6738 -24.6600
   -24.6588 -24.6588 -24.6496 -24.6496 -24.6474 -24.6367 -24.6172 -24.6108
   -24.0776 -24.0776 -24.0375 -24.0375 -24.0294 -24.0294 -23.9964 -23.9963
   -23.9797 -23.9796 -23.9487 -23.9485 -23.9379 -23.9379 -23.9142 -23.9140
    -8.2089  -8.1919  -8.1642  -7.9707  -7.9488  -7.9409  -7.9409  -7.9392
    -7.9004  -7.8846  -7.8452  -7.7681  -7.7681  -7.7364  -7.7238  -7.7238
    -7.6832  -7.6832  -7.6557  -7.6557  -7.6148  -7.6073  -7.5874  -7.5459
    -7.5428  -7.5346  -7.5082  -7.5082  -7.5077  -7.5077  -7.4705  -7.4705
    -7.4405  -7.4219  -7.4219  -7.4036  -7.4035  -7.3885  -7.3850  -7.3849
    -7.3659  -7.3656  -7.3622  -7.3309  -7.3152  -7.2664  -7.2664  -7.2023
    -7.2023  -7.1587  -7.1297  -7.1297  -7.1244  -7.0841  -7.0720  -7.0651
    -7.0350  -6.9991  -6.9991  -6.9676  -6.9669  -6.9669  -6.9230  -6.8951
    -6.8951  -6.8826  -6.8149  -6.8041  -6.7790  -6.7693  -6.7508  -6.7498
    -6.7498  -6.6960  -6.6574  -6.6574  -6.6397  -6.6397  -6.6070  -6.6030
    -6.5768  -6.5681  -6.5317  -6.5316  -6.5136  -6.4956  -6.4106  -6.4004
    -6.3805  -6.3805  -6.3426  -6.3365  -6.3289  -6.3126  -6.3099  -6.2931
    -6.2931  -6.2753  -6.2300  -6.2280  -6.2280  -6.2119  -6.1799  -6.1799
    -6.1484  -6.1460  -6.1301  -6.1231  -6.0580  -6.0525  -6.0525  -6.0421
    -6.0379  -6.0379  -6.0367  -6.0054  -6.0000  -6.0000  -5.9941  -5.9609
    -5.9542  -5.8941  -5.8941  -5.8751  -5.8751  -5.8751  -5.8735  -5.8711
    -5.8657  -5.8636  -5.8636  -5.8392  -5.8391  -5.8332  -5.8332  -5.8222
    -5.8221  -5.8151  -5.7891  -5.7891  -5.7824  -5.7739  -5.7726  -5.7703
    -5.7342  -5.7342  -5.6933  -5.6929  -5.6929  -5.6915  -5.6864  -5.6864
    -5.6340  -5.6094  -5.6059  -5.6059  -5.6031  -5.6031  -5.5900  -5.5900
    -5.5575  -5.5485  -5.5484  -5.5484  -5.5436  -5.5436  -5.5299  -5.4899
    -5.4411  -5.4085  -5.3716  -5.3686  -5.3686  -5.3600  -5.3277  -5.3277
    -5.2908  -5.2617  -5.2617  -5.2502  -5.2382  -5.2364  -5.2364  -5.2286
    -5.2225  -5.1964  -5.1416  -5.1416  -4.9084  -4.9084  -4.8805  -4.8799

          k = 0.2500 0.3536 0.0000 (200411 PWs)   bands (ev):

   -46.9969 -46.9968 -46.9957 -46.9956 -46.9921 -46.9920 -46.9911 -46.9910
   -46.9854 -46.9853 -46.9846 -46.9846 -46.9807 -46.9807 -46.9802 -46.9801
   -46.4848 -46.4821 -46.4812 -46.4803 -46.4796 -46.4772 -46.4767 -46.4761
   -46.4721 -46.4708 -46.4703 -46.4700 -46.4668 -46.4664 -46.4659 -46.4658
   -46.3356 -46.3300 -46.3297 -46.3247 -46.3213 -46.3197 -46.3173 -46.3162
   -46.3132 -46.3122 -46.3116 -46.3112 -46.3101 -46.3094 -46.3086 -46.3081
   -46.0251 -46.0249 -46.0248 -46.0247 -46.0205 -46.0203 -46.0201 -46.0200
   -46.0142 -46.0141 -46.0137 -46.0135 -46.0098 -46.0097 -46.0091 -46.0090
   -25.3971 -25.3829 -25.3583 -25.3557 -25.3468 -25.3344 -25.3209 -25.3180
   -25.2720 -25.2669 -25.2642 -25.2636 -25.2273 -25.2262 -25.2152 -25.2123
   -25.1831 -25.1182 -25.0964 -25.0443 -25.0118 -24.9637 -24.9552 -24.9171
   -24.9159 -24.8996 -24.8913 -24.8723 -24.8671 -24.8579 -24.8193 -24.8104
   -24.8009 -24.7757 -24.7629 -24.7343 -24.7023 -24.6886 -24.6821 -24.6775
   -24.6770 -24.6692 -24.6602 -24.6510 -24.6408 -24.6396 -24.6262 -24.6155
   -24.0707 -24.0707 -24.0366 -24.0365 -24.0316 -24.0315 -24.0025 -24.0024
   -23.9752 -23.9751 -23.9533 -23.9531 -23.9345 -23.9344 -23.9177 -23.9175
    -8.1418  -8.1160  -8.1049  -7.9395  -7.9338  -7.9033  -7.9021  -7.8916
    -7.8851  -7.8667  -7.8018  -7.7742  -7.7598  -7.7317  -7.7089  -7.7085
    -7.6960  -7.6957  -7.6932  -7.6659  -7.6591  -7.6324  -7.6259  -7.6244
    -7.6167  -7.6134  -7.6030  -7.5923  -7.5529  -7.5520  -7.5283  -7.5041
    -7.4969  -7.4918  -7.4870  -7.4866  -7.4755  -7.4149  -7.4014  -7.3961
    -7.3572  -7.3417  -7.3304  -7.2926  -7.2815  -7.2621  -7.2466  -7.2142
    -7.2034  -7.1881  -7.1113  -7.1033  -7.1021  -7.0956  -7.0903  -7.0803
    -7.0723  -7.0324  -6.9768  -6.9331  -6.9141  -6.8880  -6.8766  -6.8303
    -6.8204  -6.8074  -6.7781  -6.7778  -6.7440  -6.7074  -6.6932  -6.6747
    -6.6609  -6.6487  -6.6287  -6.6258  -6.6117  -6.5882  -6.5866  -6.5826
    -6.5635  -6.5561  -6.5457  -6.5019  -6.4922  -6.4583  -6.4224  -6.3955
    -6.3893  -6.3754  -6.3744  -6.3368  -6.3089  -6.3052  -6.2919  -6.2803
    -6.2788  -6.2704  -6.2465  -6.2315  -6.2198  -6.2154  -6.1900  -6.1272
    -6.1126  -6.1107  -6.1078  -6.1052  -6.1017  -6.0956  -6.0837  -6.0765
    -6.0762  -6.0668  -6.0624  -6.0574  -6.0532  -6.0406  -6.0209  -6.0176
    -5.9709  -5.9695  -5.9571  -5.9492  -5.9211  -5.9154  -5.9150  -5.9033
    -5.8936  -5.8693  -5.8683  -5.8607  -5.8495  -5.8493  -5.8364  -5.8165
    -5.8151  -5.7969  -5.7802  -5.7598  -5.7561  -5.7507  -5.7410  -5.7328
    -5.7299  -5.7256  -5.7123  -5.7093  -5.6716  -5.6591  -5.6540  -5.6540
    -5.6400  -5.6370  -5.6350  -5.6090  -5.6074  -5.6025  -5.5924  -5.5882
    -5.5855  -5.5841  -5.5833  -5.5638  -5.5465  -5.5178  -5.5137  -5.5103
    -5.4027  -5.3990  -5.3701  -5.3616  -5.3608  -5.3606  -5.3391  -5.3335
    -5.2905  -5.2665  -5.2564  -5.2503  -5.2408  -5.2381  -5.2362  -5.2281
    -5.2094  -5.1938  -5.1519  -5.1512  -4.9050  -4.9048  -4.8839  -4.8836

          k = 0.2500-0.7071 0.0000 (200442 PWs)   bands (ev):

   -46.9963 -46.9963 -46.9962 -46.9962 -46.9916 -46.9916 -46.9916 -46.9916
   -46.9850 -46.9850 -46.9849 -46.9849 -46.9805 -46.9805 -46.9804 -46.9804
   -46.4831 -46.4831 -46.4812 -46.4812 -46.4782 -46.4782 -46.4766 -46.4766
   -46.4712 -46.4712 -46.4703 -46.4703 -46.4664 -46.4664 -46.4662 -46.4662
   -46.3334 -46.3334 -46.3280 -46.3280 -46.3196 -46.3196 -46.3153 -46.3153
   -46.3125 -46.3125 -46.3124 -46.3124 -46.3094 -46.3094 -46.3089 -46.3089
   -46.0249 -46.0249 -46.0249 -46.0249 -46.0203 -46.0203 -46.0202 -46.0202
   -46.0138 -46.0138 -46.0138 -46.0138 -46.0094 -46.0094 -46.0094 -46.0094
   -25.3777 -25.3777 -25.3697 -25.3697 -25.3339 -25.3339 -25.3264 -25.3264
   -25.2695 -25.2695 -25.2638 -25.2638 -25.2213 -25.2213 -25.2192 -25.2192
   -25.1524 -25.1524 -25.0919 -25.0919 -24.9947 -24.9947 -24.9267 -24.9267
   -24.8978 -24.8978 -24.8817 -24.8817 -24.8362 -24.8362 -24.8332 -24.8332
   -24.7416 -24.7416 -24.7277 -24.7277 -24.7233 -24.7233 -24.6937 -24.6937
   -24.6892 -24.6892 -24.6494 -24.6494 -24.6460 -24.6460 -24.6274 -24.6274
   -24.0537 -24.0537 -24.0537 -24.0537 -24.0171 -24.0171 -24.0170 -24.0170
   -23.9643 -23.9643 -23.9641 -23.9641 -23.9261 -23.9261 -23.9260 -23.9260
    -8.0110  -8.0110  -7.9937  -7.9937  -7.8610  -7.8610  -7.8334  -7.8334
    -7.8259  -7.8259  -7.8069  -7.8069  -7.7511  -7.7511  -7.7215  -7.7215
    -7.7194  -7.7194  -7.7142  -7.7142  -7.6920  -7.6920  -7.6635  -7.6635
    -7.6562  -7.6562  -7.6277  -7.6277  -7.6084  -7.6084  -7.5860  -7.5860
    -7.5693  -7.5693  -7.5494  -7.5494  -7.5451  -7.5451  -7.4181  -7.4181
    -7.4059  -7.4059  -7.2810  -7.2810  -7.2260  -7.2260  -7.1990  -7.1990
    -7.1902  -7.1902  -7.1411  -7.1411  -7.0596  -7.0596  -7.0549  -7.0549
    -7.0196  -7.0196  -6.9171  -6.9171  -6.9036  -6.9036  -6.8160  -6.8160
    -6.8130  -6.8130  -6.6966  -6.6966  -6.6486  -6.6486  -6.6341  -6.6341
    -6.6193  -6.6193  -6.5838  -6.5838  -6.5597  -6.5597  -6.5347  -6.5347
    -6.5167  -6.5167  -6.5110  -6.5110  -6.4589  -6.4589  -6.3951  -6.3951
    -6.3766  -6.3766  -6.3320  -6.3320  -6.3279  -6.3279  -6.2992  -6.2992
    -6.2654  -6.2654  -6.2559  -6.2559  -6.2558  -6.2558  -6.2472  -6.2472
    -6.1546  -6.1546  -6.1141  -6.1141  -6.1025  -6.1025  -6.0891  -6.0891
    -6.0716  -6.0716  -6.0500  -6.0500  -6.0277  -6.0277  -6.0261  -6.0261
    -5.9832  -5.9832  -5.9801  -5.9801  -5.9654  -5.9654  -5.9482  -5.9482
    -5.9321  -5.9321  -5.8521  -5.8521  -5.8338  -5.8338  -5.8270  -5.8270
    -5.8133  -5.8133  -5.7916  -5.7916  -5.7885  -5.7885  -5.7270  -5.7270
    -5.7173  -5.7173  -5.6999  -5.6999  -5.6930  -5.6930  -5.6631  -5.6631
    -5.6210  -5.6210  -5.6025  -5.6025  -5.6022  -5.6022  -5.5896  -5.5896
    -5.5819  -5.5819  -5.5690  -5.5690  -5.5624  -5.5624  -5.5102  -5.5102
    -5.3875  -5.3875  -5.3590  -5.3590  -5.3531  -5.3531  -5.3507  -5.3507
    -5.2835  -5.2835  -5.2559  -5.2559  -5.2370  -5.2370  -5.2300  -5.2300
    -5.1771  -5.1771  -5.1768  -5.1768  -4.8943  -4.8943  -4.8938  -4.8938

          k = 0.2500-0.3536 0.0000 (200411 PWs)   bands (ev):

   -46.9969 -46.9968 -46.9957 -46.9956 -46.9921 -46.9920 -46.9911 -46.9910
   -46.9854 -46.9853 -46.9846 -46.9846 -46.9807 -46.9807 -46.9802 -46.9801
   -46.4848 -46.4821 -46.4812 -46.4803 -46.4796 -46.4772 -46.4767 -46.4761
   -46.4721 -46.4708 -46.4703 -46.4700 -46.4668 -46.4664 -46.4659 -46.4658
   -46.3356 -46.3300 -46.3297 -46.3247 -46.3213 -46.3197 -46.3173 -46.3162
   -46.3132 -46.3122 -46.3116 -46.3112 -46.3101 -46.3094 -46.3086 -46.3081
   -46.0251 -46.0249 -46.0248 -46.0247 -46.0205 -46.0203 -46.0201 -46.0200
   -46.0142 -46.0141 -46.0137 -46.0135 -46.0098 -46.0097 -46.0091 -46.0090
   -25.3971 -25.3829 -25.3583 -25.3557 -25.3468 -25.3344 -25.3209 -25.3180
   -25.2720 -25.2669 -25.2642 -25.2636 -25.2273 -25.2262 -25.2152 -25.2123
   -25.1831 -25.1182 -25.0964 -25.0443 -25.0118 -24.9637 -24.9552 -24.9171
   -24.9159 -24.8996 -24.8913 -24.8723 -24.8671 -24.8579 -24.8193 -24.8104
   -24.8009 -24.7757 -24.7629 -24.7343 -24.7023 -24.6886 -24.6821 -24.6775
   -24.6770 -24.6692 -24.6602 -24.6510 -24.6408 -24.6396 -24.6262 -24.6155
   -24.0707 -24.0707 -24.0366 -24.0365 -24.0316 -24.0315 -24.0025 -24.0024
   -23.9752 -23.9751 -23.9533 -23.9531 -23.9345 -23.9344 -23.9177 -23.9175
    -8.1418  -8.1160  -8.1049  -7.9395  -7.9338  -7.9033  -7.9021  -7.8916
    -7.8851  -7.8667  -7.8018  -7.7742  -7.7598  -7.7317  -7.7089  -7.7085
    -7.6960  -7.6957  -7.6932  -7.6659  -7.6591  -7.6324  -7.6259  -7.6244
    -7.6167  -7.6134  -7.6030  -7.5923  -7.5529  -7.5520  -7.5283  -7.5041
    -7.4969  -7.4918  -7.4870  -7.4866  -7.4755  -7.4149  -7.4014  -7.3961
    -7.3572  -7.3417  -7.3304  -7.2926  -7.2815  -7.2621  -7.2466  -7.2142
    -7.2034  -7.1881  -7.1113  -7.1033  -7.1021  -7.0956  -7.0903  -7.0803
    -7.0723  -7.0324  -6.9768  -6.9331  -6.9141  -6.8880  -6.8766  -6.8303
    -6.8204  -6.8074  -6.7781  -6.7778  -6.7440  -6.7074  -6.6932  -6.6747
    -6.6609  -6.6487  -6.6287  -6.6258  -6.6117  -6.5882  -6.5866  -6.5826
    -6.5635  -6.5561  -6.5457  -6.5019  -6.4922  -6.4583  -6.4224  -6.3955
    -6.3893  -6.3754  -6.3744  -6.3368  -6.3089  -6.3052  -6.2919  -6.2803
    -6.2788  -6.2704  -6.2465  -6.2315  -6.2198  -6.2154  -6.1900  -6.1272
    -6.1126  -6.1107  -6.1078  -6.1052  -6.1017  -6.0956  -6.0837  -6.0765
    -6.0762  -6.0668  -6.0624  -6.0574  -6.0532  -6.0406  -6.0209  -6.0176
    -5.9709  -5.9695  -5.9571  -5.9492  -5.9211  -5.9154  -5.9150  -5.9033
    -5.8936  -5.8693  -5.8683  -5.8607  -5.8495  -5.8493  -5.8364  -5.8165
    -5.8151  -5.7969  -5.7802  -5.7598  -5.7561  -5.7507  -5.7410  -5.7328
    -5.7299  -5.7256  -5.7123  -5.7093  -5.6716  -5.6591  -5.6540  -5.6540
    -5.6400  -5.6370  -5.6350  -5.6090  -5.6074  -5.6025  -5.5924  -5.5882
    -5.5855  -5.5841  -5.5833  -5.5638  -5.5465  -5.5178  -5.5137  -5.5103
    -5.4027  -5.3990  -5.3701  -5.3616  -5.3608  -5.3606  -5.3391  -5.3335
    -5.2905  -5.2665  -5.2564  -5.2503  -5.2408  -5.2381  -5.2362  -5.2281
    -5.2094  -5.1938  -5.1519  -5.1512  -4.9050  -4.9048  -4.8839  -4.8836

          k =-0.5000 0.0000 0.0000 (200370 PWs)   bands (ev):

   -46.9952 -46.9952 -46.9951 -46.9951 -46.9935 -46.9935 -46.9935 -46.9935
   -46.9827 -46.9827 -46.9826 -46.9826 -46.9818 -46.9818 -46.9818 -46.9817
   -46.4833 -46.4833 -46.4805 -46.4805 -46.4784 -46.4784 -46.4784 -46.4784
   -46.4692 -46.4692 -46.4682 -46.4682 -46.4674 -46.4674 -46.4674 -46.4674
   -46.3341 -46.3341 -46.3231 -46.3231 -46.3231 -46.3231 -46.3175 -46.3175
   -46.3118 -46.3118 -46.3118 -46.3118 -46.3105 -46.3105 -46.3075 -46.3075
   -46.0233 -46.0233 -46.0232 -46.0232 -46.0227 -46.0227 -46.0227 -46.0227
   -46.0116 -46.0116 -46.0115 -46.0115 -46.0107 -46.0107 -46.0107 -46.0107
   -25.3841 -25.3841 -25.3680 -25.3680 -25.3360 -25.3360 -25.3360 -25.3360
   -25.2437 -25.2437 -25.2437 -25.2437 -25.2375 -25.2375 -25.2311 -25.2311
   -25.1667 -25.1666 -25.0043 -25.0043 -25.0043 -25.0043 -24.9570 -24.9570
   -24.8948 -24.8948 -24.8948 -24.8948 -24.8923 -24.8923 -24.7955 -24.7955
   -24.7917 -24.7917 -24.7916 -24.7916 -24.6690 -24.6690 -24.6690 -24.6690
   -24.6630 -24.6630 -24.6584 -24.6584 -24.6524 -24.6524 -24.6097 -24.6097
   -24.0617 -24.0617 -24.0617 -24.0617 -24.0162 -24.0162 -24.0162 -24.0162
   -23.9547 -23.9547 -23.9547 -23.9547 -23.9281 -23.9281 -23.9279 -23.9279
    -8.1176  -8.1176  -8.0930  -8.0930  -8.0355  -8.0355  -7.8681  -7.8681
    -7.8196  -7.8196  -7.8196  -7.8196  -7.7881  -7.7881  -7.7700  -7.7700
    -7.7342  -7.7342  -7.7342  -7.7342  -7.6094  -7.6094  -7.6094  -7.6094
    -7.4741  -7.4741  -7.4689  -7.4689  -7.4513  -7.4513  -7.4481  -7.4481
    -7.4481  -7.4481  -7.4347  -7.4347  -7.4347  -7.4347  -7.3877  -7.3877
    -7.3877  -7.3877  -7.2866  -7.2866  -7.2810  -7.2810  -7.2183  -7.2183
    -7.1910  -7.1910  -7.1556  -7.1556  -7.1405  -7.1405  -7.1405  -7.1405
    -6.9597  -6.9597  -6.9597  -6.9597  -6.9173  -6.9173  -6.8832  -6.8832
    -6.8380  -6.8380  -6.8040  -6.8040  -6.8040  -6.8040  -6.7232  -6.7232
    -6.7130  -6.7130  -6.6877  -6.6877  -6.6621  -6.6621  -6.6445  -6.6445
    -6.6445  -6.6445  -6.5337  -6.5337  -6.4766  -6.4766  -6.4766  -6.4766
    -6.3537  -6.3537  -6.3197  -6.3197  -6.2806  -6.2806  -6.2692  -6.2692
    -6.2258  -6.2258  -6.2258  -6.2258  -6.2164  -6.2164  -6.1876  -6.1876
    -6.1377  -6.1377  -6.1377  -6.1377  -6.1362  -6.1362  -6.0900  -6.0900
    -5.9665  -5.9665  -5.9640  -5.9640  -5.9640  -5.9640  -5.9546  -5.9546
    -5.9546  -5.9546  -5.9303  -5.9303  -5.9287  -5.9287  -5.8348  -5.8348
    -5.8340  -5.8340  -5.8252  -5.8252  -5.8252  -5.8252  -5.8129  -5.8129
    -5.8094  -5.8094  -5.8094  -5.8094  -5.7945  -5.7945  -5.7837  -5.7837
    -5.7215  -5.7215  -5.7168  -5.7168  -5.7168  -5.7168  -5.6610  -5.6610
    -5.6498  -5.6498  -5.6498  -5.6498  -5.6044  -5.6044  -5.6044  -5.6044
    -5.5853  -5.5853  -5.5574  -5.5574  -5.5573  -5.5573  -5.5358  -5.5358
    -5.4174  -5.4174  -5.3494  -5.3494  -5.3311  -5.3311  -5.3311  -5.3311
    -5.2693  -5.2693  -5.2510  -5.2510  -5.2510  -5.2510  -5.2297  -5.2297
    -5.0311  -5.0311  -5.0269  -5.0269  -5.0220  -5.0220  -5.0220  -5.0220

          k =-0.5000 0.3536 0.0000 (200424 PWs)   bands (ev):

   -46.9950 -46.9950 -46.9949 -46.9949 -46.9938 -46.9938 -46.9937 -46.9937
   -46.9825 -46.9825 -46.9825 -46.9825 -46.9820 -46.9820 -46.9819 -46.9819
   -46.4827 -46.4827 -46.4801 -46.4801 -46.4794 -46.4794 -46.4786 -46.4786
   -46.4689 -46.4689 -46.4681 -46.4681 -46.4677 -46.4677 -46.4676 -46.4676
   -46.3334 -46.3334 -46.3276 -46.3276 -46.3183 -46.3183 -46.3169 -46.3169
   -46.3139 -46.3139 -46.3114 -46.3114 -46.3101 -46.3101 -46.3078 -46.3078
   -46.0232 -46.0232 -46.0231 -46.0231 -46.0228 -46.0228 -46.0228 -46.0228
   -46.0115 -46.0115 -46.0114 -46.0114 -46.0110 -46.0110 -46.0108 -46.0108
   -25.3772 -25.3772 -25.3636 -25.3636 -25.3434 -25.3434 -25.3406 -25.3406
   -25.2434 -25.2434 -25.2413 -25.2413 -25.2385 -25.2385 -25.2328 -25.2328
   -25.1578 -25.1578 -25.0758 -25.0758 -24.9540 -24.9540 -24.9395 -24.9395
   -24.9242 -24.9242 -24.8961 -24.8961 -24.8596 -24.8596 -24.8036 -24.8036
   -24.7861 -24.7861 -24.7591 -24.7591 -24.6801 -24.6801 -24.6770 -24.6770
   -24.6732 -24.6732 -24.6571 -24.6571 -24.6541 -24.6541 -24.6165 -24.6165
   -24.0551 -24.0551 -24.0551 -24.0551 -24.0230 -24.0230 -24.0229 -24.0229
   -23.9509 -23.9509 -23.9508 -23.9508 -23.9320 -23.9320 -23.9318 -23.9318
    -8.0460  -8.0460  -8.0263  -8.0263  -7.9886  -7.9886  -7.8334  -7.8334
    -7.8187  -7.8187  -7.8102  -7.8102  -7.7852  -7.7852  -7.7515  -7.7515
    -7.7465  -7.7465  -7.6724  -7.6724  -7.6604  -7.6604  -7.6553  -7.6553
    -7.6107  -7.6107  -7.5956  -7.5956  -7.5386  -7.5386  -7.5358  -7.5358
    -7.5290  -7.5290  -7.4991  -7.4991  -7.4642  -7.4642  -7.3972  -7.3972
    -7.3280  -7.3280  -7.2869  -7.2869  -7.2841  -7.2841  -7.2498  -7.2498
    -7.1656  -7.1656  -7.1584  -7.1584  -7.0632  -7.0632  -7.0406  -7.0406
    -6.9914  -6.9914  -6.9353  -6.9353  -6.8715  -6.8715  -6.8528  -6.8528
    -6.7610  -6.7610  -6.7254  -6.7254  -6.7218  -6.7218  -6.7076  -6.7076
    -6.7011  -6.7011  -6.6518  -6.6518  -6.6345  -6.6345  -6.5906  -6.5906
    -6.5870  -6.5870  -6.5624  -6.5624  -6.5623  -6.5623  -6.3965  -6.3965
    -6.3448  -6.3448  -6.3362  -6.3362  -6.3317  -6.3317  -6.2916  -6.2916
    -6.2726  -6.2726  -6.2570  -6.2570  -6.1881  -6.1881  -6.1679  -6.1679
    -6.0989  -6.0989  -6.0882  -6.0882  -6.0740  -6.0740  -6.0597  -6.0597
    -6.0407  -6.0407  -5.9922  -5.9922  -5.9911  -5.9911  -5.9837  -5.9837
    -5.9735  -5.9735  -5.9485  -5.9485  -5.9339  -5.9339  -5.9285  -5.9285
    -5.8904  -5.8904  -5.8803  -5.8803  -5.8508  -5.8508  -5.8295  -5.8295
    -5.8154  -5.8154  -5.7921  -5.7921  -5.7714  -5.7714  -5.7572  -5.7572
    -5.7153  -5.7153  -5.7083  -5.7083  -5.7020  -5.7020  -5.6933  -5.6933
    -5.6701  -5.6701  -5.6657  -5.6657  -5.5898  -5.5898  -5.5876  -5.5876
    -5.5728  -5.5728  -5.5703  -5.5703  -5.5547  -5.5547  -5.5311  -5.5311
    -5.3980  -5.3980  -5.3476  -5.3476  -5.3398  -5.3398  -5.3317  -5.3317
    -5.2702  -5.2702  -5.2700  -5.2700  -5.2365  -5.2365  -5.2290  -5.2290
    -5.0286  -5.0286  -5.0267  -5.0267  -5.0226  -5.0226  -5.0224  -5.0224

          k =-0.5000-0.7071 0.0000 (200236 PWs)   bands (ev):

   -46.9945 -46.9945 -46.9945 -46.9945 -46.9943 -46.9943 -46.9943 -46.9943
   -46.9821 -46.9821 -46.9821 -46.9821 -46.9820 -46.9820 -46.9820 -46.9820
   -46.4811 -46.4811 -46.4811 -46.4811 -46.4794 -46.4794 -46.4794 -46.4794
   -46.4683 -46.4683 -46.4683 -46.4683 -46.4676 -46.4676 -46.4676 -46.4676
   -46.3313 -46.3313 -46.3313 -46.3313 -46.3156 -46.3156 -46.3156 -46.3156
   -46.3140 -46.3140 -46.3140 -46.3140 -46.3084 -46.3084 -46.3084 -46.3084
   -46.0230 -46.0230 -46.0230 -46.0230 -46.0230 -46.0230 -46.0230 -46.0230
   -46.0111 -46.0111 -46.0111 -46.0111 -46.0109 -46.0109 -46.0109 -46.0109
   -25.3603 -25.3603 -25.3603 -25.3603 -25.3525 -25.3525 -25.3525 -25.3525
   -25.2410 -25.2410 -25.2410 -25.2410 -25.2369 -25.2369 -25.2369 -25.2369
   -25.1288 -25.1288 -25.1288 -25.1288 -24.9438 -24.9438 -24.9438 -24.9438
   -24.9082 -24.9082 -24.9082 -24.9082 -24.8265 -24.8265 -24.8265 -24.8265
   -24.7345 -24.7345 -24.7345 -24.7345 -24.7139 -24.7139 -24.7139 -24.7139
   -24.6670 -24.6670 -24.6669 -24.6669 -24.6338 -24.6338 -24.6338 -24.6338
   -24.0392 -24.0392 -24.0392 -24.0392 -24.0391 -24.0391 -24.0391 -24.0391
   -23.9415 -23.9415 -23.9414 -23.9414 -23.9413 -23.9413 -23.9413 -23.9413
    -7.9188  -7.9188  -7.9188  -7.9188  -7.8683  -7.8683  -7.8683  -7.8683
    -7.7783  -7.7783  -7.7783  -7.7783  -7.7644  -7.7644  -7.7644  -7.7644
    -7.7476  -7.7476  -7.7476  -7.7476  -7.7123  -7.7123  -7.7123  -7.7123
    -7.6745  -7.6745  -7.6745  -7.6745  -7.6069  -7.6069  -7.6069  -7.6069
    -7.6020  -7.6020  -7.6020  -7.6020  -7.4167  -7.4167  -7.4167  -7.4167
    -7.4106  -7.4106  -7.4106  -7.4106  -7.2287  -7.2287  -7.2287  -7.2287
    -7.1520  -7.1520  -7.1520  -7.1520  -6.9705  -6.9705  -6.9705  -6.9705
    -6.9359  -6.9359  -6.9359  -6.9359  -6.7839  -6.7839  -6.7839  -6.7839
    -6.7573  -6.7573  -6.7573  -6.7573  -6.6919  -6.6919  -6.6919  -6.6919
    -6.6581  -6.6581  -6.6581  -6.6581  -6.6141  -6.6141  -6.6141  -6.6141
    -6.4848  -6.4848  -6.4848  -6.4848  -6.3738  -6.3738  -6.3738  -6.3738
    -6.3439  -6.3439  -6.3439  -6.3439  -6.3339  -6.3339  -6.3339  -6.3339
    -6.2900  -6.2900  -6.2900  -6.2900  -6.2809  -6.2809  -6.2809  -6.2809
    -6.0754  -6.0754  -6.0753  -6.0753  -6.0610  -6.0610  -6.0610  -6.0610
    -6.0528  -6.0528  -6.0528  -6.0528  -6.0425  -6.0425  -6.0425  -6.0425
    -5.9967  -5.9967  -5.9967  -5.9967  -5.9016  -5.9016  -5.9016  -5.9016
    -5.8897  -5.8897  -5.8897  -5.8897  -5.8263  -5.8263  -5.8263  -5.8263
    -5.7957  -5.7957  -5.7957  -5.7957  -5.7692  -5.7692  -5.7692  -5.7692
    -5.7566  -5.7566  -5.7566  -5.7566  -5.6582  -5.6582  -5.6582  -5.6582
    -5.6539  -5.6539  -5.6539  -5.6539  -5.6290  -5.6290  -5.6290  -5.6290
    -5.5883  -5.5883  -5.5883  -5.5883  -5.5337  -5.5337  -5.5337  -5.5337
    -5.3549  -5.3549  -5.3549  -5.3549  -5.3473  -5.3473  -5.3473  -5.3473
    -5.2728  -5.2728  -5.2728  -5.2728  -5.2295  -5.2295  -5.2295  -5.2295
    -5.0249  -5.0249  -5.0249  -5.0249  -5.0242  -5.0242  -5.0242  -5.0242

     highest occupied level (ev):    -4.8247

!    total energy              =   -4093.25745706 Ry
     estimated scf accuracy    <          6.4E-09 Ry

     The total energy is the sum of the following terms:
     one-electron contribution = -100962.86033439 Ry
     hartree contribution      =   50596.90438786 Ry
     xc contribution           =    -932.78249405 Ry
     ewald contribution        =   47205.48098352 Ry

     convergence has been achieved in  10 iterations

     Forces acting on atoms (cartesian axes, Ry/au):

     atom    1 type  1   force =    -0.00000001   -0.00000006    0.00030798
     atom    2 type  1   force =    -0.00000012    0.00000008    0.00007854
     atom    3 type  1   force =     0.00000012   -0.00000004    0.00007857
     atom    4 type  1   force =    -0.00000002   -0.00000007    0.00030794
     atom    5 type  2   force =    -0.00000007   -0.00000018   -0.00013334
     atom    6 type  2   force =    -0.00000001   -0.00000003    0.00001236
     atom    7 type  2   force =    -0.00000001   -0.00000003    0.00001276
     atom    8 type  2   force =     0.00000005   -0.00000018   -0.00013376
     atom    9 type  1   force =     0.00000001   -0.00000007   -0.00026546
     atom   10 type  1   force =     0.00000002    0.00000002   -0.00011856
     atom   11 type  1   force =    -0.00000005   -0.00000004   -0.00011856
     atom   12 type  1   force =    -0.00000001   -0.00000007   -0.00026544
     atom   13 type  2   force =    -0.00000001   -0.00000018   -0.00003843
     atom   14 type  2   force =     0.00000001   -0.00000001   -0.00022423
     atom   15 type  2   force =    -0.00000001    0.00000005   -0.00022417
     atom   16 type  2   force =     0.00000005   -0.00000018   -0.00003846
     atom   17 type  1   force =    -0.00000001   -0.00000007    0.00011851
     atom   18 type  1   force =     0.00000003    0.00000005    0.00026537
     atom   19 type  1   force =    -0.00000003   -0.00000007    0.00026536
     atom   20 type  1   force =     0.00000003   -0.00000007    0.00011837
     atom   21 type  2   force =    -0.00000010   -0.00000018    0.00022416
     atom   22 type  2   force =    -0.00000001   -0.00000005    0.00003838
     atom   23 type  2   force =     0.00000001    0.00000001    0.00003840
     atom   24 type  2   force =     0.00000003   -0.00000018    0.00022405
     atom   25 type  1   force =     0.00000002   -0.00000007   -0.00007866
     atom   26 type  1   force =    -0.00000004    0.00000001   -0.00030796
     atom   27 type  1   force =     0.00000003   -0.00000003   -0.00030796
     atom   28 type  1   force =    -0.00000001   -0.00000007   -0.00007862
     atom   29 type  2   force =    -0.00000004   -0.00000013   -0.00001249
     atom   30 type  2   force =     0.00000002    0.00000003    0.00013451
     atom   31 type  2   force =    -0.00000001    0.00000012    0.00013392
     atom   32 type  2   force =    -0.00000003   -0.00000012   -0.00001294
     atom   33 type  1   force =    -0.00000001    0.00000003    0.00030782
     atom   34 type  1   force =    -0.00000013    0.00000000    0.00007851
     atom   35 type  1   force =     0.00000013    0.00000013    0.00007853
     atom   36 type  1   force =     0.00000005    0.00000003    0.00030791
     atom   37 type  2   force =    -0.00000005   -0.00000002   -0.00013360
     atom   38 type  2   force =    -0.00000001    0.00000012    0.00001247
     atom   39 type  2   force =    -0.00000001    0.00000013    0.00001290
     atom   40 type  2   force =     0.00000007   -0.00000002   -0.00013343
     atom   41 type  1   force =    -0.00000002    0.00000001   -0.00026548
     atom   42 type  1   force =     0.00000002    0.00000005   -0.00011857
     atom   43 type  1   force =    -0.00000005    0.00000011   -0.00011857
     atom   44 type  1   force =    -0.00000000    0.00000001   -0.00026545
     atom   45 type  2   force =    -0.00000005    0.00000000   -0.00003844
     atom   46 type  2   force =     0.00000001    0.00000017   -0.00022420
     atom   47 type  2   force =    -0.00000001    0.00000012   -0.00022415
     atom   48 type  2   force =     0.00000000    0.00000000   -0.00003842
     atom   49 type  1   force =    -0.00000001   -0.00000000    0.00011847
     atom   50 type  1   force =     0.00000003    0.00000001    0.00026535
     atom   51 type  1   force =    -0.00000003    0.00000013    0.00026534
     atom   52 type  1   force =    -0.00000003    0.00000000    0.00011836
     atom   53 type  2   force =    -0.00000001    0.00000001    0.00022408
     atom   54 type  2   force =    -0.00000001    0.00000023    0.00003840
     atom   55 type  2   force =     0.00000001    0.00000017    0.00003842
     atom   56 type  2   force =     0.00000011    0.00000001    0.00022418
     atom   57 type  1   force =     0.00000001   -0.00000001   -0.00007867
     atom   58 type  1   force =    -0.00000003    0.00000002   -0.00030803
     atom   59 type  1   force =     0.00000003    0.00000005   -0.00030802
     atom   60 type  1   force =    -0.00000001   -0.00000001   -0.00007848
     atom   61 type  2   force =     0.00000006    0.00000003   -0.00001293
     atom   62 type  2   force =     0.00000002    0.00000017    0.00013456
     atom   63 type  2   force =    -0.00000002    0.00000008    0.00013397
     atom   64 type  2   force =     0.00000007    0.00000004   -0.00001260
     atom   65 type  1   force =    -0.00000000   -0.00000006    0.00030785
     atom   66 type  1   force =    -0.00000012   -0.00000004    0.00007856
     atom   67 type  1   force =     0.00000013    0.00000009    0.00007854
     atom   68 type  1   force =     0.00000002   -0.00000005    0.00030794
     atom   69 type  2   force =    -0.00000004   -0.00000018   -0.00013377
     atom   70 type  2   force =    -0.00000000   -0.00000004    0.00001228
     atom   71 type  2   force =     0.00000001   -0.00000003    0.00001282
     atom   72 type  2   force =     0.00000007   -0.00000018   -0.00013334
     atom   73 type  1   force =    -0.00000001   -0.00000007   -0.00026546
     atom   74 type  1   force =     0.00000005   -0.00000004   -0.00011856
     atom   75 type  1   force =    -0.00000001    0.00000002   -0.00011856
     atom   76 type  1   force =     0.00000000   -0.00000007   -0.00026548
     atom   77 type  2   force =    -0.00000005   -0.00000018   -0.00003846
     atom   78 type  2   force =    -0.00000001   -0.00000001   -0.00022422
     atom   79 type  2   force =     0.00000000   -0.00000006   -0.00022425
     atom   80 type  2   force =     0.00000001   -0.00000018   -0.00003843
     atom   81 type  1   force =    -0.00000000   -0.00000007    0.00011851
     atom   82 type  1   force =     0.00000003   -0.00000007    0.00026536
     atom   83 type  1   force =    -0.00000003    0.00000005    0.00026537
     atom   84 type  1   force =    -0.00000003   -0.00000007    0.00011837
     atom   85 type  2   force =    -0.00000003   -0.00000017    0.00022405
     atom   86 type  2   force =     0.00000000    0.00000007    0.00003839
     atom   87 type  2   force =    -0.00000000    0.00000001    0.00003840
     atom   88 type  2   force =     0.00000010   -0.00000018    0.00022416
     atom   89 type  1   force =    -0.00000002   -0.00000007   -0.00007866
     atom   90 type  1   force =    -0.00000003   -0.00000002   -0.00030797
     atom   91 type  1   force =     0.00000004    0.00000001   -0.00030798
     atom   92 type  1   force =     0.00000000   -0.00000007   -0.00007847
     atom   93 type  2   force =     0.00000003   -0.00000012   -0.00001295
     atom   94 type  2   force =    -0.00000001    0.00000003    0.00013451
     atom   95 type  2   force =    -0.00000000   -0.00000005    0.00013383
     atom   96 type  2   force =     0.00000005   -0.00000012   -0.00001249
     atom   97 type  1   force =     0.00000000    0.00000003    0.00030787
     atom   98 type  1   force =    -0.00000012    0.00000013    0.00007853
     atom   99 type  1   force =     0.00000012    0.00000001    0.00007851
     atom  100 type  1   force =    -0.00000005    0.00000002    0.00030791
     atom  101 type  2   force =    -0.00000006   -0.00000002   -0.00013344
     atom  102 type  2   force =     0.00000000    0.00000013    0.00001239
     atom  103 type  2   force =     0.00000001    0.00000012    0.00001284
     atom  104 type  2   force =     0.00000005   -0.00000002   -0.00013360
     atom  105 type  1   force =     0.00000002    0.00000001   -0.00026548
     atom  106 type  1   force =     0.00000005    0.00000011   -0.00011857
     atom  107 type  1   force =    -0.00000001    0.00000005   -0.00011857
     atom  108 type  1   force =     0.00000000    0.00000001   -0.00026550
     atom  109 type  2   force =    -0.00000000   -0.00000000   -0.00003842
     atom  110 type  2   force =    -0.00000001    0.00000017   -0.00022420
     atom  111 type  2   force =    -0.00000000    0.00000022   -0.00022423
     atom  112 type  2   force =     0.00000005   -0.00000000   -0.00003844
     atom  113 type  1   force =     0.00000000    0.00000000    0.00011852
     atom  114 type  1   force =     0.00000003    0.00000013    0.00026534
     atom  115 type  1   force =    -0.00000003    0.00000001    0.00026535
     atom  116 type  1   force =     0.00000003   -0.00000000    0.00011836
     atom  117 type  2   force =    -0.00000010    0.00000001    0.00022418
     atom  118 type  2   force =    -0.00000000    0.00000011    0.00003840
     atom  119 type  2   force =    -0.00000000    0.00000017    0.00003841
     atom  120 type  2   force =     0.00000001    0.00000001    0.00022408
     atom  121 type  1   force =    -0.00000000   -0.00000001   -0.00007867
     atom  122 type  1   force =    -0.00000003    0.00000005   -0.00030801
     atom  123 type  1   force =     0.00000004    0.00000002   -0.00030802
     atom  124 type  1   force =     0.00000000   -0.00000001   -0.00007866
     atom  125 type  2   force =    -0.00000007    0.00000002   -0.00001260
     atom  126 type  2   force =    -0.00000001    0.00000017    0.00013456
     atom  127 type  2   force =     0.00000000    0.00000025    0.00013388
     atom  128 type  2   force =    -0.00000005    0.00000003   -0.00001293

     Total force =     0.002021     Total SCF correction =     0.000151


     Computing stress (Cartesian axis) and pressure

          total   stress  (Ry/bohr**3)                   (kbar)     P=      -48.70
  -0.00026968  -0.00000000   0.00000000          -39.67       -0.00        0.00
  -0.00000000  -0.00041022  -0.00000000           -0.00      -60.35       -0.00
   0.00000000  -0.00000000  -0.00031328            0.00       -0.00      -46.09


     Writing all to output data dir ./tmp/LiFcell/LiFcell.save/ :
     XML data file, charge density, pseudopotentials, collected wavefunctions

     init_run     :     50.37s CPU     73.95s WALL (       1 calls)
     electrons    :  15477.72s CPU  17766.55s WALL (       1 calls)
     forces       :    235.91s CPU    141.34s WALL (       1 calls)
     stress       :    739.53s CPU    421.13s WALL (       1 calls)

     Called by init_run:
     wfcinit      :     41.15s CPU     62.50s WALL (       1 calls)
     potinit      :      2.18s CPU      2.55s WALL (       1 calls)
     hinit0       :      3.04s CPU      3.14s WALL (       1 calls)

     Called by electrons:
     c_bands      :  14844.98s CPU  16979.61s WALL (      10 calls)
     sum_band     :    611.86s CPU    758.61s WALL (      10 calls)
     v_of_rho     :     17.41s CPU     22.43s WALL (      11 calls)
     mix_rho      :      2.67s CPU      3.67s WALL (      10 calls)

     Called by c_bands:
     init_us_2    :     83.45s CPU     98.78s WALL (     220 calls)
     cegterg      :  14640.16s CPU  16730.13s WALL (     100 calls)

     Called by *egterg:
     cdiaghg      :   2910.11s CPU   4653.98s WALL (     517 calls)
     h_psi        :   7370.09s CPU   6377.57s WALL (     527 calls)
     g_psi        :     18.52s CPU     22.43s WALL (     427 calls)

     Called by h_psi:
     h_psi:calbec :   1841.92s CPU   1078.63s WALL (     527 calls)
     vloc_psi     :   3611.93s CPU   4476.58s WALL (     527 calls)
                                        0.00s GPU  (     527 calls)
     add_vuspsi   :   1902.68s CPU    783.46s WALL (     527 calls)

     General routines
     calbec       :   2724.85s CPU   1517.78s WALL (     697 calls)
     fft          :     16.54s CPU     21.19s WALL (     154 calls)
     ffts         :      1.07s CPU      1.25s WALL (      21 calls)
     fftw         :   3708.09s CPU   4612.08s WALL (  253240 calls)
     interpolate  :      1.53s CPU      1.85s WALL (      11 calls)

     Parallel routines

     PWSCF        :      4h35m CPU      5h 7m WALL


   This run was terminated on:  21:41:16  22Jul2026            

=------------------------------------------------------------------------------=
   JOB DONE.
=------------------------------------------------------------------------------=
