
     Program PWSCF v.7.5 starts on 19Jun2026 at 16:28:19 

     This program is part of the open-source Quantum ESPRESSO suite
     for quantum simulation of materials; please cite
         "P. Giannozzi et al., J. Phys.:Condens. Matter 21 395502 (2009);
         "P. Giannozzi et al., J. Phys.:Condens. Matter 29 465901 (2017);
         "P. Giannozzi et al., J. Chem. Phys. 152 154105 (2020);
          URL http://www.quantum-espresso.org", 
     in publications or presentations arising from this work. More details at
     http://www.quantum-espresso.org/quote

     Parallel version (MPI), running on     8 processors

     MPI processes distributed on     1 nodes
     127828 MiB available memory on the printing compute node when the environment starts

     Waiting for input...
     Reading input from standard input

     Current dimensions of program PWSCF are:
     Max number of different atomic species (ntypx) = 10
     Max number of k-points (npk) =  40000
     Max angular momentum in pseudopotentials (lmaxx) =  4
     file C.pbe-n-kjpaw_psl.1.0.0.UPF: wavefunction(s)  2S 2P renormalized

     gamma-point specific algorithms are used

     R & G space division:  proc/nbgrp/npool/nimage =       8
     Subspace diagonalization in iterative solution of the eigenvalue problem:
     a serial algorithm will be used


     Parallelization info
     --------------------
     sticks:   dense  smooth     PW     G-vecs:    dense   smooth      PW
     Min        6818    3410    851              1198486   423658   52960
     Max        6821    3411    854              1198496   423661   52966
     Sum       54553   27281   6817              9587919  3389267  423701

     Using Slab Decomposition



     bravais-lattice index     =            0
     lattice parameter (alat)  =      37.7945  a.u.
     unit-cell volume          =   53986.6760 (a.u.)^3
     number of atoms/cell      =           14
     number of atomic types    =            3
     number of electrons       =        50.00
     number of Kohn-Sham states=           25
     kinetic-energy cutoff     =      60.0000  Ry
     charge density cutoff     =     480.0000  Ry
     scf convergence threshold =      1.0E-08
     mixing beta               =       0.3000
     number of iterations used =            8  plain     mixing
     energy convergence thresh.=      1.0E-04
     force convergence thresh. =      1.0E-03
     Exchange-correlation=  SLA  PW   PBX  PBC
                           (   1   4   3   4   0   0   0)
     nstep                     =           50


     celldm(1)=  37.794522  celldm(2)=   0.000000  celldm(3)=   0.000000
     celldm(4)=   0.000000  celldm(5)=   0.000000  celldm(6)=   0.000000

     crystal axes: (cart. coord. in units of alat)
               a(1) = (   1.000000   0.000000   0.000000 )  
               a(2) = (   0.000000   1.000000   0.000000 )  
               a(3) = (   0.000000   0.000000   1.000000 )  

     reciprocal axes: (cart. coord. in units 2 pi/alat)
               b(1) = (  1.000000  0.000000  0.000000 )  
               b(2) = (  0.000000  1.000000  0.000000 )  
               b(3) = (  0.000000  0.000000  1.000000 )  


     PseudoPot. # 1 for C  read from file:
     ./C.pbe-n-kjpaw_psl.1.0.0.UPF
     MD5 check sum: 5d2aebdfa2cae82b50a7e79e9516da0f
     Pseudo is Projector augmented-wave + core cor, Zval =  4.0
     Generated using "atomic" code by A. Dal Corso  v.5.1
     Shape of augmentation charge: PSQ
     Using radial grid of 1073 points,  4 beta functions with: 
                l(1) =   0
                l(2) =   0
                l(3) =   1
                l(4) =   1
     Q(r) pseudized with 0 coefficients 


     PseudoPot. # 2 for H  read from file:
     ./H.pbe-rrkjus_psl.1.0.0.UPF
     MD5 check sum: f52b6d4d1c606e5624b1dc7b2218f220
     Pseudo is Ultrasoft, Zval =  1.0
     Generated using "atomic" code by A. Dal Corso  v.5.1
     Using radial grid of  929 points,  2 beta functions with: 
                l(1) =   0
                l(2) =   0
     Q(r) pseudized with 0 coefficients 


     PseudoPot. # 3 for F  read from file:
     ./f_pbe_v1.4.uspp.F.UPF
     MD5 check sum: 4c38b6a325caf53ec0e86aed9459de46
     Pseudo is Ultrasoft, Zval =  7.0
     Generated by new atomic code, or converted to UPF format
     Using radial grid of  799 points,  4 beta functions with: 
                l(1) =   0
                l(2) =   0
                l(3) =   1
                l(4) =   1
     Q(r) pseudized with  8 coefficients,  rinner =    0.950   0.950   0.950


     atomic species   valence    mass     pseudopotential
     C                 4.00    12.01100     C ( 1.00)
     H                 1.00     1.00800     H ( 1.00)
     F                 7.00    18.99800     F ( 1.00)

     No symmetry found



   Cartesian axes

     site n.     atom                  positions (alat units)
         1        C      tau(   1) = (  -0.4069204   0.2442975   0.0077910  )
         2        C      tau(   2) = (  -0.3380423   0.2534882  -0.0226177  )
         3        H      tau(   3) = (  -0.4454105   0.2541369  -0.0298739  )
         4        H      tau(   4) = (  -0.4139662   0.1930436   0.0256129  )
         5        H      tau(   5) = (  -0.4150880   0.2790769   0.0492369  )
         6        C      tau(   6) = (  -0.2828533   0.2414282   0.0277949  )
         7        F      tau(   7) = (  -0.3322440   0.2108988  -0.0749494  )
         8        H      tau(   8) = (  -0.2871842   0.1906627   0.0479078  )
         9        C      tau(   9) = (  -0.2146230   0.2493857  -0.0034159  )
        10        F      tau(  10) = (  -0.3341418   0.3164180  -0.0473749  )
        11        H      tau(  11) = (  -0.2876848   0.2772406   0.0689745  )
        12        F      tau(  12) = (  -0.2066181   0.3112937  -0.0293132  )
        13        F      tau(  13) = (  -0.2054215   0.2048674  -0.0534627  )
        14        H      tau(  14) = (  -0.1752264   0.2413856   0.0336545  )

     number of k points=     1
                       cart. coord. in units 2pi/alat
        k(    1) = (   0.0000000   0.0000000   0.0000000), wk =   2.0000000

     Dense  grid:  4793960 G-vectors     FFT dimensions: ( 270, 270, 270)

     Smooth grid:  1694634 G-vectors     FFT dimensions: ( 192, 192, 192)

     Estimated max dynamical RAM per process >       1.01 GB

     Estimated total dynamical RAM >       8.12 GB

     Initial potential from superposition of free atoms

     starting charge      49.9998, renormalised to      50.0000

     negative rho (up, down):  3.075E-03 0.000E+00
     Starting wfcs are   38 randomized atomic wfcs
     Checking if some PAW data can be deallocated... 

     total cpu time spent up to now is       17.5 secs

     Self-consistent Calculation

     iteration #  1     ecut=    60.00 Ry     beta= 0.30
     Davidson diagonalization with overlap
     ethr =  1.00E-02,  avg # of iterations =  2.0

     negative rho (up, down):  3.681E-03 0.000E+00

     total cpu time spent up to now is       36.6 secs

     total energy              =    -275.34958640 Ry
     estimated scf accuracy    <       1.27060823 Ry

     iteration #  2     ecut=    60.00 Ry     beta= 0.30
     Davidson diagonalization with overlap
     ethr =  2.54E-03,  avg # of iterations =  2.0

     negative rho (up, down):  4.245E-03 0.000E+00

     total cpu time spent up to now is       53.2 secs

     total energy              =    -275.32895114 Ry
     estimated scf accuracy    <       0.28596285 Ry

     iteration #  3     ecut=    60.00 Ry     beta= 0.30
     Davidson diagonalization with overlap
     ethr =  5.72E-04,  avg # of iterations =  2.0

     negative rho (up, down):  4.611E-03 0.000E+00

     total cpu time spent up to now is       69.9 secs

     total energy              =    -275.36723286 Ry
     estimated scf accuracy    <       0.04736937 Ry

     iteration #  4     ecut=    60.00 Ry     beta= 0.30
     Davidson diagonalization with overlap
     ethr =  9.47E-05,  avg # of iterations =  2.0

     negative rho (up, down):  4.985E-03 0.000E+00

     total cpu time spent up to now is       84.1 secs

     total energy              =    -275.36607948 Ry
     estimated scf accuracy    <       0.00885832 Ry

     iteration #  5     ecut=    60.00 Ry     beta= 0.30
     Davidson diagonalization with overlap
     ethr =  1.77E-05,  avg # of iterations =  2.0

     negative rho (up, down):  4.985E-03 0.000E+00

     total cpu time spent up to now is       99.7 secs

     total energy              =    -275.36713566 Ry
     estimated scf accuracy    <       0.00107144 Ry

     iteration #  6     ecut=    60.00 Ry     beta= 0.30
     Davidson diagonalization with overlap
     ethr =  2.14E-06,  avg # of iterations =  2.0

     negative rho (up, down):  5.040E-03 0.000E+00

     total cpu time spent up to now is      114.0 secs

     total energy              =    -275.36706058 Ry
     estimated scf accuracy    <       0.00025872 Ry

     iteration #  7     ecut=    60.00 Ry     beta= 0.30
     Davidson diagonalization with overlap
     ethr =  5.17E-07,  avg # of iterations =  3.0

     negative rho (up, down):  5.078E-03 0.000E+00

     total cpu time spent up to now is      131.5 secs

     total energy              =    -275.36713182 Ry
     estimated scf accuracy    <       0.00036770 Ry

     iteration #  8     ecut=    60.00 Ry     beta= 0.30
     Davidson diagonalization with overlap
     ethr =  5.17E-07,  avg # of iterations =  2.0

     negative rho (up, down):  5.113E-03 0.000E+00

     total cpu time spent up to now is      146.9 secs

     total energy              =    -275.36714202 Ry
     estimated scf accuracy    <       0.00003864 Ry

     iteration #  9     ecut=    60.00 Ry     beta= 0.30
     Davidson diagonalization with overlap
     ethr =  7.73E-08,  avg # of iterations =  5.0

     negative rho (up, down):  5.137E-03 0.000E+00

     total cpu time spent up to now is      165.3 secs

     total energy              =    -275.36715980 Ry
     estimated scf accuracy    <       0.00006434 Ry

     iteration # 10     ecut=    60.00 Ry     beta= 0.30
     Davidson diagonalization with overlap
     ethr =  7.73E-08,  avg # of iterations =  3.0

     negative rho (up, down):  5.156E-03 0.000E+00

     total cpu time spent up to now is      180.9 secs

     total energy              =    -275.36716796 Ry
     estimated scf accuracy    <       0.00000322 Ry

     iteration # 11     ecut=    60.00 Ry     beta= 0.30
     Davidson diagonalization with overlap
     ethr =  6.43E-09,  avg # of iterations =  2.0

     negative rho (up, down):  5.169E-03 0.000E+00

     total cpu time spent up to now is      196.3 secs

     total energy              =    -275.36716811 Ry
     estimated scf accuracy    <       0.00000097 Ry

     iteration # 12     ecut=    60.00 Ry     beta= 0.30
     Davidson diagonalization with overlap
     ethr =  1.94E-09,  avg # of iterations =  3.0

     negative rho (up, down):  5.179E-03 0.000E+00

     total cpu time spent up to now is      212.1 secs

     total energy              =    -275.36716839 Ry
     estimated scf accuracy    <       0.00000003 Ry

     iteration # 13     ecut=    60.00 Ry     beta= 0.30
     Davidson diagonalization with overlap
     ethr =  5.06E-11,  avg # of iterations =  5.0

     negative rho (up, down):  5.186E-03 0.000E+00

     total cpu time spent up to now is      231.0 secs

     total energy              =    -275.36716841 Ry
     estimated scf accuracy    <       0.00000016 Ry

     iteration # 14     ecut=    60.00 Ry     beta= 0.30
     Davidson diagonalization with overlap
     ethr =  5.06E-11,  avg # of iterations =  3.0

     negative rho (up, down):  5.191E-03 0.000E+00

     total cpu time spent up to now is      246.9 secs

     total energy              =    -275.36716840 Ry
     estimated scf accuracy    <       0.00000004 Ry

     iteration # 15     ecut=    60.00 Ry     beta= 0.30
     Davidson diagonalization with overlap
     ethr =  5.06E-11,  avg # of iterations =  3.0

     negative rho (up, down):  5.203E-03 0.000E+00

     total cpu time spent up to now is      262.3 secs

     End of self-consistent calculation

          k = 0.0000 0.0000 0.0000 (211851 PWs)   bands (ev):

   -31.7224 -31.4502 -30.0573 -29.8742 -20.4161 -18.6949 -16.5288 -15.3860
   -13.8110 -13.7899 -13.2701 -13.1561 -12.1824 -11.7907 -11.0133 -10.5282
   -10.0335  -9.7556  -9.5896  -9.4227  -9.1954  -9.1763  -9.0381  -8.5235
    -7.3057

     highest occupied level (ev):    -7.3057

!    total energy              =    -275.36716843 Ry
     estimated scf accuracy    <          5.0E-10 Ry

     The total energy is the sum of the following terms:
     one-electron contribution =   -1033.52210237 Ry
     hartree contribution      =     525.81816846 Ry
     xc contribution           =     -60.20130399 Ry
     ewald contribution        =     317.19180026 Ry
     one-center paw contrib.   =     -24.65373079 Ry

     convergence has been achieved in  15 iterations

     negative rho (up, down):  5.203E-03 0.000E+00

     Forces acting on atoms (cartesian axes, Ry/au):

     atom    1 type  1   force =    -0.01534127   -0.00052452    0.00068089
     atom    2 type  1   force =    -0.05021908   -0.01637930    0.06097877
     atom    3 type  2   force =     0.00076213    0.00156549   -0.00577615
     atom    4 type  2   force =     0.00311010   -0.00309235    0.00270884
     atom    5 type  2   force =     0.00301015    0.00153428    0.00386809
     atom    6 type  1   force =     0.00867953    0.00294582   -0.00989504
     atom    7 type  3   force =     0.00391875   -0.03061926   -0.04236779
     atom    8 type  2   force =    -0.00074771   -0.00192304    0.00150312
     atom    9 type  1   force =     0.00309395   -0.01149194    0.04634792
     atom   10 type  3   force =     0.00242200    0.04790320   -0.02163435
     atom   11 type  2   force =    -0.00098769    0.00084217    0.00208250
     atom   12 type  3   force =     0.01363838    0.04227575   -0.01456924
     atom   13 type  3   force =     0.01472587   -0.03166868   -0.03114389
     atom   14 type  2   force =     0.01393490   -0.00136761    0.00721633

     Total force =     0.139493     Total SCF correction =     0.000042


     Computing stress (Cartesian axis) and pressure


     negative rho (up, down):  5.203E-03 0.000E+00
          total   stress  (Ry/bohr**3)                   (kbar)     P=        0.72
   0.00000504  -0.00000012   0.00000015            0.74       -0.02        0.02
  -0.00000012   0.00000601   0.00000058           -0.02        0.88        0.09
   0.00000015   0.00000058   0.00000367            0.02        0.09        0.54


     BFGS Geometry Optimization
     Energy error            =      1.9E-02 Ry
     Gradient error          =      6.1E-02 Ry/Bohr

     number of scf cycles    =   1
     number of bfgs steps    =   0

     energy             new  =    -275.3671684274 Ry

     new trust radius        =       0.0806761943 bohr
     new conv_thr            =       0.0000000100 Ry


ATOMIC_POSITIONS (angstrom)
C               -8.1465260166        4.8856724171        0.1561806412
C               -6.7874214140        5.0610961071       -0.4200845892
H               -8.9078061005        5.0835671209       -0.6005342761
H               -8.2776784284        3.8592363065        0.5136907134
H               -8.3001674629        5.5823506107        0.9867855230
C               -5.6524735455        4.8301238511        0.5506611967
F               -6.6428063146        4.2017722970       -1.5214088913
H               -5.7440803035        3.8122365838        0.9589511038
C               -4.2908226880        4.9816329760       -0.0437915127
F               -6.6815537959        6.3537089452       -0.9589462744
H               -5.7542182461        5.5452569328        1.3805921915
F               -4.1251443334        6.2482462677       -0.5939734662
F               -4.1006370636        4.0805892440       -1.0857354704
H               -3.4971539608        4.8269884115        0.6769091299



     Writing config-only to output data dir ./tmp/pvdf_dimer.save/ :
     XML data file
     NEW-OLD atomic charge density approx. for the potential

     negative rho (up, down):  4.920E-03 0.000E+00

     total cpu time spent up to now is      306.1 secs

     Self-consistent Calculation

     iteration #  1     ecut=    60.00 Ry     beta= 0.30
     Davidson diagonalization with overlap
     ethr =  1.00E-06,  avg # of iterations =  7.0

     negative rho (up, down):  4.939E-03 0.000E+00

     total cpu time spent up to now is      330.1 secs

     total energy              =    -275.37380360 Ry
     estimated scf accuracy    <       0.00425856 Ry

     iteration #  2     ecut=    60.00 Ry     beta= 0.30
     Davidson diagonalization with overlap
     ethr =  8.52E-06,  avg # of iterations =  1.0

     negative rho (up, down):  5.010E-03 0.000E+00

     total cpu time spent up to now is      343.7 secs

     total energy              =    -275.37342186 Ry
     estimated scf accuracy    <       0.00138700 Ry

     iteration #  3     ecut=    60.00 Ry     beta= 0.30
     Davidson diagonalization with overlap
     ethr =  2.77E-06,  avg # of iterations =  2.0

     negative rho (up, down):  5.016E-03 0.000E+00

     total cpu time spent up to now is      359.2 secs

     total energy              =    -275.37363958 Ry
     estimated scf accuracy    <       0.00019661 Ry

     iteration #  4     ecut=    60.00 Ry     beta= 0.30
     Davidson diagonalization with overlap
     ethr =  3.93E-07,  avg # of iterations =  1.0

     negative rho (up, down):  5.056E-03 0.000E+00

     total cpu time spent up to now is      372.9 secs

     total energy              =    -275.37363160 Ry
     estimated scf accuracy    <       0.00007339 Ry

     iteration #  5     ecut=    60.00 Ry     beta= 0.30
     Davidson diagonalization with overlap
     ethr =  1.47E-07,  avg # of iterations =  3.0

     negative rho (up, down):  5.060E-03 0.000E+00

     total cpu time spent up to now is      388.4 secs

     total energy              =    -275.37364423 Ry
     estimated scf accuracy    <       0.00003471 Ry

     iteration #  6     ecut=    60.00 Ry     beta= 0.30
     Davidson diagonalization with overlap
     ethr =  6.94E-08,  avg # of iterations =  3.0

     negative rho (up, down):  5.070E-03 0.000E+00

     total cpu time spent up to now is      404.1 secs

     total energy              =    -275.37364959 Ry
     estimated scf accuracy    <       0.00000234 Ry

     iteration #  7     ecut=    60.00 Ry     beta= 0.30
     Davidson diagonalization with overlap
     ethr =  4.68E-09,  avg # of iterations =  4.0

     negative rho (up, down):  5.075E-03 0.000E+00

     total cpu time spent up to now is      424.0 secs

     total energy              =    -275.37364961 Ry
     estimated scf accuracy    <       0.00000269 Ry

     iteration #  8     ecut=    60.00 Ry     beta= 0.30
     Davidson diagonalization with overlap
     ethr =  4.68E-09,  avg # of iterations =  3.0

     negative rho (up, down):  5.080E-03 0.000E+00

     total cpu time spent up to now is      440.5 secs

     total energy              =    -275.37365024 Ry
     estimated scf accuracy    <       0.00000005 Ry

     iteration #  9     ecut=    60.00 Ry     beta= 0.30
     Davidson diagonalization with overlap
     ethr =  9.87E-11,  avg # of iterations =  5.0

     negative rho (up, down):  5.084E-03 0.000E+00

     total cpu time spent up to now is      457.4 secs

     total energy              =    -275.37365025 Ry
     estimated scf accuracy    <       0.00000005 Ry

     iteration # 10     ecut=    60.00 Ry     beta= 0.30
     Davidson diagonalization with overlap
     ethr =  9.36E-11,  avg # of iterations =  2.0

     negative rho (up, down):  5.095E-03 0.000E+00

     total cpu time spent up to now is      471.6 secs

     End of self-consistent calculation

          k = 0.0000 0.0000 0.0000 (211851 PWs)   bands (ev):

   -31.1231 -30.8028 -29.6223 -29.3716 -20.6548 -18.9910 -16.5897 -15.1991
   -13.5967 -13.5646 -13.0447 -12.9480 -11.9832 -11.5581 -10.9113 -10.4962
   -10.0812  -9.6350  -9.5956  -9.3935  -9.0309  -8.9594  -8.8415  -8.6319
    -7.5929

     highest occupied level (ev):    -7.5929

!    total energy              =    -275.37365026 Ry
     estimated scf accuracy    <          3.2E-09 Ry

     The total energy is the sum of the following terms:
     one-electron contribution =   -1023.58032825 Ry
     hartree contribution      =     521.00969575 Ry
     xc contribution           =     -60.05889669 Ry
     ewald contribution        =     311.91025273 Ry
     one-center paw contrib.   =     -24.65437381 Ry

     convergence has been achieved in  10 iterations

     negative rho (up, down):  5.095E-03 0.000E+00

     Forces acting on atoms (cartesian axes, Ry/au):

     atom    1 type  1   force =    -0.02221599   -0.00302126    0.01054717
     atom    2 type  1   force =     0.00520973    0.00937439   -0.03575565
     atom    3 type  2   force =    -0.00183279    0.00184680   -0.00695840
     atom    4 type  2   force =     0.00018732   -0.00236961    0.00295847
     atom    5 type  2   force =     0.00005292    0.00058924    0.00360999
     atom    6 type  1   force =    -0.00978651   -0.00283008    0.00987233
     atom    7 type  3   force =    -0.00930720    0.00400193    0.01043449
     atom    8 type  2   force =     0.00087377    0.00232693    0.00110541
     atom    9 type  1   force =     0.00804419    0.00910979   -0.03920830
     atom   10 type  3   force =    -0.00915446   -0.00826211    0.00732094
     atom   11 type  2   force =     0.00062466   -0.00228823    0.00010215
     atom   12 type  3   force =     0.00909913   -0.00669092    0.01050900
     atom   13 type  3   force =     0.00921201    0.00099963    0.01212467
     atom   14 type  2   force =     0.01899320   -0.00278650    0.01333772

     Total force =     0.073649     Total SCF correction =     0.000143


     Computing stress (Cartesian axis) and pressure


     negative rho (up, down):  5.095E-03 0.000E+00
          total   stress  (Ry/bohr**3)                   (kbar)     P=        0.21
   0.00000529  -0.00000007   0.00000041            0.78       -0.01        0.06
  -0.00000007  -0.00000087  -0.00000022           -0.01       -0.13       -0.03
   0.00000041  -0.00000022  -0.00000006            0.06       -0.03       -0.01

     Energy error            =      6.5E-03 Ry
     Gradient error          =      3.9E-02 Ry/Bohr

     number of scf cycles    =   2
     number of bfgs steps    =   1

     energy             old  =    -275.3671684274 Ry
     energy             new  =    -275.3736502620 Ry

     CASE: energy            _new < energy            _old

     new trust radius        =       0.0264540274 bohr
     new conv_thr            =       0.0000000039 Ry


ATOMIC_POSITIONS (angstrom)
C               -8.1565759059        4.8844018567        0.1605453187
C               -6.7883785822        5.0639295968       -0.4309840926
H               -8.9085103366        5.0844204294       -0.6037418541
H               -8.2774101433        3.8580747021        0.5150700431
H               -8.2999604159        5.5826865858        0.9885032626
C               -5.6559500756        4.8291453400        0.5540980524
F               -6.6463795593        4.2015270247       -1.5197412286
H               -5.7437682307        3.8130718584        0.9594967160
C               -4.2873352620        4.9846589696       -0.0570070165
F               -6.6851566039        6.3532724902       -0.9572779819
H               -5.7540230505        5.5443709633        1.3807622934
F               -4.1205752388        6.2481072412       -0.5905634964
F               -4.0959547407        4.0790488598       -1.0826839503
H               -3.4885115283        4.8257621536        0.6828199535



     Writing config-only to output data dir ./tmp/pvdf_dimer.save/ :
     XML data file
     NEW-OLD atomic charge density approx. for the potential

     negative rho (up, down):  5.083E-03 0.000E+00

     total cpu time spent up to now is      515.6 secs

     Self-consistent Calculation

     iteration #  1     ecut=    60.00 Ry     beta= 0.30
     Davidson diagonalization with overlap
     ethr =  1.00E-06,  avg # of iterations =  6.0

     negative rho (up, down):  5.090E-03 0.000E+00

     total cpu time spent up to now is      536.1 secs

     total energy              =    -275.37582982 Ry
     estimated scf accuracy    <       0.00033418 Ry

     iteration #  2     ecut=    60.00 Ry     beta= 0.30
     Davidson diagonalization with overlap
     ethr =  6.68E-07,  avg # of iterations =  1.0

     negative rho (up, down):  5.108E-03 0.000E+00

     total cpu time spent up to now is      549.7 secs

     total energy              =    -275.37579849 Ry
     estimated scf accuracy    <       0.00012620 Ry

     iteration #  3     ecut=    60.00 Ry     beta= 0.30
     Davidson diagonalization with overlap
     ethr =  2.52E-07,  avg # of iterations =  2.0

     negative rho (up, down):  5.109E-03 0.000E+00

     total cpu time spent up to now is      564.7 secs

     total energy              =    -275.37581735 Ry
     estimated scf accuracy    <       0.00000948 Ry

     iteration #  4     ecut=    60.00 Ry     beta= 0.30
     Davidson diagonalization with overlap
     ethr =  1.90E-08,  avg # of iterations =  2.0

     negative rho (up, down):  5.112E-03 0.000E+00

     total cpu time spent up to now is      579.9 secs

     total energy              =    -275.37581880 Ry
     estimated scf accuracy    <       0.00000225 Ry

     iteration #  5     ecut=    60.00 Ry     beta= 0.30
     Davidson diagonalization with overlap
     ethr =  4.50E-09,  avg # of iterations =  2.0

     negative rho (up, down):  5.112E-03 0.000E+00

     total cpu time spent up to now is      596.9 secs

     total energy              =    -275.37581900 Ry
     estimated scf accuracy    <       0.00000033 Ry

     iteration #  6     ecut=    60.00 Ry     beta= 0.30
     Davidson diagonalization with overlap
     ethr =  6.70E-10,  avg # of iterations =  2.0

     negative rho (up, down):  5.112E-03 0.000E+00

     total cpu time spent up to now is      615.1 secs

     total energy              =    -275.37581903 Ry
     estimated scf accuracy    <       0.00000015 Ry

     iteration #  7     ecut=    60.00 Ry     beta= 0.30
     Davidson diagonalization with overlap
     ethr =  2.98E-10,  avg # of iterations =  2.0

     negative rho (up, down):  5.112E-03 0.000E+00

     total cpu time spent up to now is      632.4 secs

     total energy              =    -275.37581905 Ry
     estimated scf accuracy    <          4.7E-09 Ry

     iteration #  8     ecut=    60.00 Ry     beta= 0.30
     Davidson diagonalization with overlap
     ethr =  9.40E-12,  avg # of iterations =  4.0

     negative rho (up, down):  5.113E-03 0.000E+00

     total cpu time spent up to now is      649.1 secs

     total energy              =    -275.37581905 Ry
     estimated scf accuracy    <          4.1E-09 Ry

     iteration #  9     ecut=    60.00 Ry     beta= 0.30
     Davidson diagonalization with overlap
     ethr =  8.10E-12,  avg # of iterations =  2.0

     negative rho (up, down):  5.114E-03 0.000E+00

     total cpu time spent up to now is      664.2 secs

     End of self-consistent calculation

          k = 0.0000 0.0000 0.0000 (211851 PWs)   bands (ev):

   -31.2418 -30.9214 -29.7440 -29.4848 -20.5379 -18.8854 -16.5313 -15.2354
   -13.6004 -13.5914 -13.0327 -13.0202 -11.9934 -11.5933 -10.9368 -10.5222
   -10.0896  -9.6897  -9.5930  -9.4018  -9.1072  -9.0376  -8.9119  -8.5956
    -7.5075

     highest occupied level (ev):    -7.5075

!    total energy              =    -275.37581905 Ry
     estimated scf accuracy    <          1.9E-10 Ry

     The total energy is the sum of the following terms:
     one-electron contribution =   -1022.89080928 Ry
     hartree contribution      =     520.62031195 Ry
     xc contribution           =     -60.05638561 Ry
     ewald contribution        =     311.60436538 Ry
     one-center paw contrib.   =     -24.65330150 Ry

     convergence has been achieved in   9 iterations

     negative rho (up, down):  5.114E-03 0.000E+00

     Forces acting on atoms (cartesian axes, Ry/au):

     atom    1 type  1   force =    -0.00574761    0.00020468   -0.00109034
     atom    2 type  1   force =    -0.00506282    0.00230722   -0.00865682
     atom    3 type  2   force =    -0.00506247    0.00142405   -0.00555229
     atom    4 type  2   force =    -0.00130568   -0.00429909    0.00358844
     atom    5 type  2   force =    -0.00146628    0.00197497    0.00521056
     atom    6 type  1   force =    -0.00162696    0.00183981   -0.00766921
     atom    7 type  3   force =    -0.00783439    0.00227198    0.00365651
     atom    8 type  2   force =     0.00032718   -0.00058628    0.00146663
     atom    9 type  1   force =     0.01296671    0.00005335    0.00005598
     atom   10 type  3   force =    -0.00781139   -0.00358580    0.00232055
     atom   11 type  2   force =     0.00016841   -0.00013718    0.00150153
     atom   12 type  3   force =     0.00879212   -0.00040168    0.00303067
     atom   13 type  3   force =     0.00898192   -0.00128881    0.00284351
     atom   14 type  2   force =     0.00468125    0.00022277   -0.00070572

     Total force =     0.029351     Total SCF correction =     0.000033


     Computing stress (Cartesian axis) and pressure


     negative rho (up, down):  5.114E-03 0.000E+00
          total   stress  (Ry/bohr**3)                   (kbar)     P=        0.19
   0.00000394  -0.00000007   0.00000030            0.58       -0.01        0.04
  -0.00000007  -0.00000006  -0.00000000           -0.01       -0.01       -0.00
   0.00000030  -0.00000000  -0.00000010            0.04       -0.00       -0.01

     Energy error            =      2.2E-03 Ry
     Gradient error          =      1.3E-02 Ry/Bohr

     number of scf cycles    =   3
     number of bfgs steps    =   2

     energy             old  =    -275.3736502620 Ry
     energy             new  =    -275.3758190547 Ry

     CASE: energy            _new < energy            _old

     new trust radius        =       0.0194646252 bohr
     new conv_thr            =       0.0000000013 Ry


ATOMIC_POSITIONS (angstrom)
C               -8.1638130091        4.8841648676        0.1610629975
C               -6.7935002396        5.0658754226       -0.4383746062
H               -8.9121657825        5.0856846133       -0.6086277586
H               -8.2781446941        3.8547071649        0.5180015199
H               -8.3008254351        5.5841802232        0.9926766138
C               -5.6578232355        4.8302090849        0.5495455325
F               -6.6526714304        4.2021794178       -1.5179128830
H               -5.7434748928        3.8128555876        0.9607004839
C               -4.2773532647        4.9852463151       -0.0594787805
F               -6.6914820577        6.3519959080       -0.9557996973
H               -5.7538786572        5.5440465969        1.3818985275
F               -4.1128613647        6.2489474802       -0.5879068321
F               -4.0880484939        4.0768581942       -1.0807113114
H               -3.4824471166        4.8255271950        0.6842222132



     Writing config-only to output data dir ./tmp/pvdf_dimer.save/ :
     XML data file
     NEW-OLD atomic charge density approx. for the potential

     negative rho (up, down):  5.091E-03 0.000E+00

     total cpu time spent up to now is      711.7 secs

     Self-consistent Calculation

     iteration #  1     ecut=    60.00 Ry     beta= 0.30
     Davidson diagonalization with overlap
     ethr =  1.00E-06,  avg # of iterations =  4.0

     negative rho (up, down):  5.098E-03 0.000E+00

     total cpu time spent up to now is      733.1 secs

     total energy              =    -275.37674945 Ry
     estimated scf accuracy    <       0.00018597 Ry

     iteration #  2     ecut=    60.00 Ry     beta= 0.30
     Davidson diagonalization with overlap
     ethr =  3.72E-07,  avg # of iterations =  2.0

     negative rho (up, down):  5.113E-03 0.000E+00

     total cpu time spent up to now is      747.1 secs

     total energy              =    -275.37674044 Ry
     estimated scf accuracy    <       0.00007318 Ry

     iteration #  3     ecut=    60.00 Ry     beta= 0.30
     Davidson diagonalization with overlap
     ethr =  1.46E-07,  avg # of iterations =  2.0

     negative rho (up, down):  5.112E-03 0.000E+00

     total cpu time spent up to now is      762.7 secs

     total energy              =    -275.37675205 Ry
     estimated scf accuracy    <       0.00001019 Ry

     iteration #  4     ecut=    60.00 Ry     beta= 0.30
     Davidson diagonalization with overlap
     ethr =  2.04E-08,  avg # of iterations =  2.0

     negative rho (up, down):  5.119E-03 0.000E+00

     total cpu time spent up to now is      777.0 secs

     total energy              =    -275.37675260 Ry
     estimated scf accuracy    <       0.00000356 Ry

     iteration #  5     ecut=    60.00 Ry     beta= 0.30
     Davidson diagonalization with overlap
     ethr =  7.13E-09,  avg # of iterations =  2.0

     negative rho (up, down):  5.119E-03 0.000E+00

     total cpu time spent up to now is      792.3 secs

     total energy              =    -275.37675306 Ry
     estimated scf accuracy    <       0.00000073 Ry

     iteration #  6     ecut=    60.00 Ry     beta= 0.30
     Davidson diagonalization with overlap
     ethr =  1.45E-09,  avg # of iterations =  2.0

     negative rho (up, down):  5.120E-03 0.000E+00

     total cpu time spent up to now is      807.6 secs

     total energy              =    -275.37675319 Ry
     estimated scf accuracy    <       0.00000008 Ry

     iteration #  7     ecut=    60.00 Ry     beta= 0.30
     Davidson diagonalization with overlap
     ethr =  1.61E-10,  avg # of iterations =  3.0

     negative rho (up, down):  5.121E-03 0.000E+00

     total cpu time spent up to now is      823.2 secs

     total energy              =    -275.37675318 Ry
     estimated scf accuracy    <       0.00000005 Ry

     iteration #  8     ecut=    60.00 Ry     beta= 0.30
     Davidson diagonalization with overlap
     ethr =  1.07E-10,  avg # of iterations =  2.0

     negative rho (up, down):  5.121E-03 0.000E+00

     total cpu time spent up to now is      838.2 secs

     total energy              =    -275.37675319 Ry
     estimated scf accuracy    <          2.4E-09 Ry

     iteration #  9     ecut=    60.00 Ry     beta= 0.30
     Davidson diagonalization with overlap
     ethr =  4.76E-12,  avg # of iterations =  5.0

     negative rho (up, down):  5.121E-03 0.000E+00

     total cpu time spent up to now is      855.6 secs

     total energy              =    -275.37675319 Ry
     estimated scf accuracy    <          2.4E-09 Ry

     iteration # 10     ecut=    60.00 Ry     beta= 0.30
     Davidson diagonalization with overlap
     ethr =  4.76E-12,  avg # of iterations =  2.0

     negative rho (up, down):  5.123E-03 0.000E+00

     total cpu time spent up to now is      870.1 secs

     End of self-consistent calculation

          k = 0.0000 0.0000 0.0000 (211851 PWs)   bands (ev):

   -31.2782 -30.9983 -29.7824 -29.5587 -20.4498 -18.8286 -16.5225 -15.2482
   -13.6048 -13.5927 -13.0694 -13.0037 -12.0251 -11.6018 -10.9169 -10.5179
   -10.0968  -9.6890  -9.5881  -9.4023  -9.1275  -9.0832  -8.9492  -8.5637
    -7.4900

     highest occupied level (ev):    -7.4900

!    total energy              =    -275.37675319 Ry
     estimated scf accuracy    <          4.1E-10 Ry

     The total energy is the sum of the following terms:
     one-electron contribution =   -1021.62298534 Ry
     hartree contribution      =     519.96580861 Ry
     xc contribution           =     -60.04549326 Ry
     ewald contribution        =     310.97860423 Ry
     one-center paw contrib.   =     -24.65268742 Ry

     convergence has been achieved in  10 iterations

     negative rho (up, down):  5.123E-03 0.000E+00

     Forces acting on atoms (cartesian axes, Ry/au):

     atom    1 type  1   force =    -0.00159163    0.00021843   -0.00079396
     atom    2 type  1   force =    -0.00445909   -0.00169884    0.00680144
     atom    3 type  2   force =    -0.00513047    0.00060138   -0.00257039
     atom    4 type  2   force =    -0.00187762   -0.00048880    0.00168362
     atom    5 type  2   force =    -0.00194415   -0.00037264    0.00159512
     atom    6 type  1   force =     0.00449262    0.00125412   -0.00487544
     atom    7 type  3   force =    -0.00689152   -0.00047094   -0.00311273
     atom    8 type  2   force =     0.00016685    0.00251554   -0.00114661
     atom    9 type  1   force =     0.00034728   -0.00162440    0.00632475
     atom   10 type  3   force =    -0.00702171    0.00200244   -0.00218369
     atom   11 type  2   force =     0.00011709   -0.00175268   -0.00227422
     atom   12 type  3   force =     0.00955584    0.00058842    0.00065299
     atom   13 type  3   force =     0.00967130   -0.00094130    0.00051701
     atom   14 type  2   force =     0.00456521    0.00016927   -0.00061790

     Total force =     0.023374     Total SCF correction =     0.000026


     Computing stress (Cartesian axis) and pressure


     negative rho (up, down):  5.123E-03 0.000E+00
          total   stress  (Ry/bohr**3)                   (kbar)     P=        0.14
   0.00000307  -0.00000008   0.00000031            0.45       -0.01        0.05
  -0.00000008  -0.00000006   0.00000000           -0.01       -0.01        0.00
   0.00000031   0.00000000  -0.00000013            0.05        0.00       -0.02

     Energy error            =      9.3E-04 Ry
     Gradient error          =      9.7E-03 Ry/Bohr

     number of scf cycles    =   4
     number of bfgs steps    =   3

     energy             old  =    -275.3758190547 Ry
     energy             new  =    -275.3767531914 Ry

     CASE: energy            _new < energy            _old

     new trust radius        =       0.0322476394 bohr
     new conv_thr            =       0.0000000009 Ry


ATOMIC_POSITIONS (angstrom)
C               -8.1747648099        4.8836718788        0.1624862818
C               -6.8021158888        5.0668004827       -0.4416441951
H               -8.9197219702        5.0875159420       -0.6158856076
H               -8.2802247956        3.8512680352        0.5222581064
H               -8.3030872837        5.5851128309        0.9979274158
C               -5.6565400854        4.8317541612        0.5430954299
F               -6.6648717505        4.2018756495       -1.5190276116
H               -5.7429903912        3.8152406895        0.9608128491
C               -4.2681736292        4.9853430585       -0.0605489369
F               -6.7038482149        6.3530769515       -0.9561646101
H               -5.7535982017        5.5419045703        1.3808158882
F               -4.0966806913        6.2504228725       -0.5841185239
F               -4.0715668510        4.0734888253       -1.0778464679
H               -3.4703051104        4.8250021237        0.6871360010



     Writing config-only to output data dir ./tmp/pvdf_dimer.save/ :
     XML data file
     NEW-OLD atomic charge density approx. for the potential

     negative rho (up, down):  5.053E-03 0.000E+00

     total cpu time spent up to now is      913.8 secs

     Self-consistent Calculation

     iteration #  1     ecut=    60.00 Ry     beta= 0.30
     Davidson diagonalization with overlap
     ethr =  1.00E-06,  avg # of iterations =  5.0

     negative rho (up, down):  5.066E-03 0.000E+00

     total cpu time spent up to now is      934.5 secs

     total energy              =    -275.37773135 Ry
     estimated scf accuracy    <       0.00037745 Ry

     iteration #  2     ecut=    60.00 Ry     beta= 0.30
     Davidson diagonalization with overlap
     ethr =  7.55E-07,  avg # of iterations =  2.0

     negative rho (up, down):  5.090E-03 0.000E+00

     total cpu time spent up to now is      948.6 secs

     total energy              =    -275.37772785 Ry
     estimated scf accuracy    <       0.00012855 Ry

     iteration #  3     ecut=    60.00 Ry     beta= 0.30
     Davidson diagonalization with overlap
     ethr =  2.57E-07,  avg # of iterations =  2.0

     negative rho (up, down):  5.104E-03 0.000E+00

     total cpu time spent up to now is      965.3 secs

     total energy              =    -275.37774197 Ry
     estimated scf accuracy    <       0.00001786 Ry

     iteration #  4     ecut=    60.00 Ry     beta= 0.30
     Davidson diagonalization with overlap
     ethr =  3.57E-08,  avg # of iterations =  2.0

     negative rho (up, down):  5.112E-03 0.000E+00

     total cpu time spent up to now is      982.6 secs

     total energy              =    -275.37774429 Ry
     estimated scf accuracy    <       0.00000222 Ry

     iteration #  5     ecut=    60.00 Ry     beta= 0.30
     Davidson diagonalization with overlap
     ethr =  4.43E-09,  avg # of iterations =  2.0

     negative rho (up, down):  5.115E-03 0.000E+00

     total cpu time spent up to now is      999.3 secs

     total energy              =    -275.37774429 Ry
     estimated scf accuracy    <       0.00000030 Ry

     iteration #  6     ecut=    60.00 Ry     beta= 0.30
     Davidson diagonalization with overlap
     ethr =  5.93E-10,  avg # of iterations =  4.0

     negative rho (up, down):  5.117E-03 0.000E+00

     total cpu time spent up to now is     1018.1 secs

     total energy              =    -275.37774434 Ry
     estimated scf accuracy    <       0.00000023 Ry

     iteration #  7     ecut=    60.00 Ry     beta= 0.30
     Davidson diagonalization with overlap
     ethr =  4.60E-10,  avg # of iterations =  3.0

     negative rho (up, down):  5.119E-03 0.000E+00

     total cpu time spent up to now is     1035.6 secs

     total energy              =    -275.37774439 Ry
     estimated scf accuracy    <          8.5E-09 Ry

     iteration #  8     ecut=    60.00 Ry     beta= 0.30
     Davidson diagonalization with overlap
     ethr =  1.70E-11,  avg # of iterations =  4.0

     negative rho (up, down):  5.121E-03 0.000E+00

     total cpu time spent up to now is     1055.6 secs

     total energy              =    -275.37774439 Ry
     estimated scf accuracy    <          7.6E-09 Ry

     iteration #  9     ecut=    60.00 Ry     beta= 0.30
     Davidson diagonalization with overlap
     ethr =  1.51E-11,  avg # of iterations =  2.0

     negative rho (up, down):  5.126E-03 0.000E+00

     total cpu time spent up to now is     1070.7 secs

     End of self-consistent calculation

          k = 0.0000 0.0000 0.0000 (211851 PWs)   bands (ev):

   -31.2760 -31.0215 -29.7937 -29.5882 -20.3971 -18.8017 -16.5129 -15.2502
   -13.5970 -13.5705 -13.0878 -12.9928 -12.0378 -11.5987 -10.8926 -10.5149
   -10.1100  -9.6853  -9.5876  -9.3963  -9.1450  -9.1149  -8.9688  -8.5442
    -7.5010

     highest occupied level (ev):    -7.5010

!    total energy              =    -275.37774440 Ry
     estimated scf accuracy    <          4.2E-10 Ry

     The total energy is the sum of the following terms:
     one-electron contribution =   -1018.56700227 Ry
     hartree contribution      =     518.42137889 Ry
     xc contribution           =     -60.02001928 Ry
     ewald contribution        =     309.44000153 Ry
     one-center paw contrib.   =     -24.65210327 Ry

     convergence has been achieved in   9 iterations

     negative rho (up, down):  5.126E-03 0.000E+00

     Forces acting on atoms (cartesian axes, Ry/au):

     atom    1 type  1   force =     0.00228354    0.00050124   -0.00166912
     atom    2 type  1   force =    -0.00162432   -0.00306536    0.01195184
     atom    3 type  2   force =    -0.00273884   -0.00090254    0.00302167
     atom    4 type  2   force =    -0.00319650    0.00294290   -0.00018077
     atom    5 type  2   force =    -0.00320430   -0.00237827   -0.00172100
     atom    6 type  1   force =     0.00389950    0.00069004   -0.00266458
     atom    7 type  3   force =    -0.00566638   -0.00043215   -0.00459684
     atom    8 type  2   force =     0.00055103    0.00366081   -0.00322206
     atom    9 type  1   force =     0.00098656   -0.00270339    0.01134396
     atom   10 type  3   force =    -0.00578028    0.00259896   -0.00344602
     atom   11 type  2   force =     0.00063704   -0.00183558   -0.00463999
     atom   12 type  3   force =     0.00759579   -0.00057498   -0.00089498
     atom   13 type  3   force =     0.00757066    0.00088308   -0.00020666
     atom   14 type  2   force =    -0.00131351    0.00061525   -0.00307546

     Total force =     0.025720     Total SCF correction =     0.000040


     Computing stress (Cartesian axis) and pressure


     negative rho (up, down):  5.126E-03 0.000E+00
          total   stress  (Ry/bohr**3)                   (kbar)     P=        0.05
   0.00000187  -0.00000001   0.00000007            0.27       -0.00        0.01
  -0.00000001  -0.00000037   0.00000002           -0.00       -0.05        0.00
   0.00000007   0.00000002  -0.00000052            0.01        0.00       -0.08

     Energy error            =      9.9E-04 Ry
     Gradient error          =      1.2E-02 Ry/Bohr

     number of scf cycles    =   5
     number of bfgs steps    =   4

     energy             old  =    -275.3767531914 Ry
     energy             new  =    -275.3777444040 Ry

     CASE: energy            _new < energy            _old

     new trust radius        =       0.0457712818 bohr
     new conv_thr            =       0.0000000010 Ry


ATOMIC_POSITIONS (angstrom)
C               -8.1868156476        4.8832704527        0.1636031453
C               -6.8113955527        5.0667771207       -0.4411245861
H               -8.9294767888        5.0887542350       -0.6212194267
H               -8.2850732830        3.8497887546        0.5268367656
H               -8.3081509148        5.5842631691        1.0023948445
C               -5.6543742559        4.8335840834        0.5353230806
F               -6.6830377307        4.2021047882       -1.5218561125
H               -5.7418451295        3.8205878733        0.9585284651
C               -4.2546063052        4.9843773316       -0.0570686422
F               -6.7222325624        6.3545603707       -0.9579655193
H               -5.7526168827        5.5382214838        1.3761905347
F               -4.0732784561        6.2504032309       -0.5796235469
F               -4.0478724501        4.0710574143       -1.0734503075
H               -3.4577137143        4.8247277631        0.6887273244



     Writing config-only to output data dir ./tmp/pvdf_dimer.save/ :
     XML data file
     NEW-OLD atomic charge density approx. for the potential

     negative rho (up, down):  4.982E-03 0.000E+00

     total cpu time spent up to now is     1115.5 secs

     Self-consistent Calculation

     iteration #  1     ecut=    60.00 Ry     beta= 0.30
     Davidson diagonalization with overlap
     ethr =  1.00E-06,  avg # of iterations =  5.0

     negative rho (up, down):  5.006E-03 0.000E+00

     total cpu time spent up to now is     1137.6 secs

     total energy              =    -275.37866243 Ry
     estimated scf accuracy    <       0.00053337 Ry

     iteration #  2     ecut=    60.00 Ry     beta= 0.30
     Davidson diagonalization with overlap
     ethr =  1.07E-06,  avg # of iterations =  1.0

     negative rho (up, down):  5.059E-03 0.000E+00

     total cpu time spent up to now is     1152.1 secs

     total energy              =    -275.37865341 Ry
     estimated scf accuracy    <       0.00021485 Ry

     iteration #  3     ecut=    60.00 Ry     beta= 0.30
     Davidson diagonalization with overlap
     ethr =  4.30E-07,  avg # of iterations =  2.0

     negative rho (up, down):  5.069E-03 0.000E+00

     total cpu time spent up to now is     1167.7 secs

     total energy              =    -275.37867370 Ry
     estimated scf accuracy    <       0.00002558 Ry

     iteration #  4     ecut=    60.00 Ry     beta= 0.30
     Davidson diagonalization with overlap
     ethr =  5.12E-08,  avg # of iterations =  2.0

     negative rho (up, down):  5.086E-03 0.000E+00

     total cpu time spent up to now is     1183.4 secs

     total energy              =    -275.37867805 Ry
     estimated scf accuracy    <       0.00000475 Ry

     iteration #  5     ecut=    60.00 Ry     beta= 0.30
     Davidson diagonalization with overlap
     ethr =  9.49E-09,  avg # of iterations =  1.0

     negative rho (up, down):  5.090E-03 0.000E+00

     total cpu time spent up to now is     1198.0 secs

     total energy              =    -275.37867813 Ry
     estimated scf accuracy    <       0.00000043 Ry

     iteration #  6     ecut=    60.00 Ry     beta= 0.30
     Davidson diagonalization with overlap
     ethr =  8.63E-10,  avg # of iterations =  3.0

     negative rho (up, down):  5.095E-03 0.000E+00

     total cpu time spent up to now is     1216.9 secs

     total energy              =    -275.37867819 Ry
     estimated scf accuracy    <       0.00000023 Ry

     iteration #  7     ecut=    60.00 Ry     beta= 0.30
     Davidson diagonalization with overlap
     ethr =  4.67E-10,  avg # of iterations =  3.0

     negative rho (up, down):  5.100E-03 0.000E+00

     total cpu time spent up to now is     1234.0 secs

     total energy              =    -275.37867826 Ry
     estimated scf accuracy    <       0.00000007 Ry

     iteration #  8     ecut=    60.00 Ry     beta= 0.30
     Davidson diagonalization with overlap
     ethr =  1.43E-10,  avg # of iterations =  2.0

     negative rho (up, down):  5.103E-03 0.000E+00

     total cpu time spent up to now is     1253.4 secs

     total energy              =    -275.37867828 Ry
     estimated scf accuracy    <          9.8E-09 Ry

     iteration #  9     ecut=    60.00 Ry     beta= 0.30
     Davidson diagonalization with overlap
     ethr =  1.96E-11,  avg # of iterations =  3.0

     negative rho (up, down):  5.106E-03 0.000E+00

     total cpu time spent up to now is     1275.3 secs

     total energy              =    -275.37867829 Ry
     estimated scf accuracy    <          1.2E-09 Ry

     iteration # 10     ecut=    60.00 Ry     beta= 0.30
     Davidson diagonalization with overlap
     ethr =  2.31E-12,  avg # of iterations =  2.0

     negative rho (up, down):  5.113E-03 0.000E+00

     total cpu time spent up to now is     1293.1 secs

     End of self-consistent calculation

          k = 0.0000 0.0000 0.0000 (211851 PWs)   bands (ev):

   -31.2500 -31.0142 -29.7802 -29.5830 -20.3705 -18.7916 -16.5336 -15.2469
   -13.5779 -13.5528 -13.0886 -12.9916 -12.0553 -11.5866 -10.8698 -10.5064
   -10.1261  -9.6746  -9.5977  -9.3876  -9.1587  -9.1275  -8.9671  -8.5292
    -7.5436

     highest occupied level (ev):    -7.5436

!    total energy              =    -275.37867829 Ry
     estimated scf accuracy    <          3.6E-10 Ry

     The total energy is the sum of the following terms:
     one-electron contribution =   -1014.59100186 Ry
     hartree contribution      =     516.42532681 Ry
     xc contribution           =     -59.99923625 Ry
     ewald contribution        =     307.43808091 Ry
     one-center paw contrib.   =     -24.65184790 Ry

     convergence has been achieved in  10 iterations

     negative rho (up, down):  5.113E-03 0.000E+00

     Forces acting on atoms (cartesian axes, Ry/au):

     atom    1 type  1   force =     0.00635767    0.00027255   -0.00052301
     atom    2 type  1   force =    -0.00048807   -0.00212267    0.00796277
     atom    3 type  2   force =    -0.00021633   -0.00200891    0.00717196
     atom    4 type  2   force =    -0.00455500    0.00450257   -0.00150312
     atom    5 type  2   force =    -0.00454409   -0.00307472   -0.00363528
     atom    6 type  1   force =     0.00527531    0.00059347   -0.00211651
     atom    7 type  3   force =    -0.00323411    0.00032482   -0.00308595
     atom    8 type  2   force =     0.00062172    0.00153703   -0.00375904
     atom    9 type  1   force =    -0.00413054   -0.00134069    0.00566243
     atom   10 type  3   force =    -0.00324956    0.00116565   -0.00246305
     atom   11 type  2   force =     0.00080382    0.00026227   -0.00413753
     atom   12 type  3   force =     0.00487756   -0.00211974   -0.00078650
     atom   13 type  3   force =     0.00471433    0.00225905    0.00061079
     atom   14 type  2   force =    -0.00223272   -0.00025068    0.00060205

     Total force =     0.021666     Total SCF correction =     0.000054


     Computing stress (Cartesian axis) and pressure


     negative rho (up, down):  5.113E-03 0.000E+00
          total   stress  (Ry/bohr**3)                   (kbar)     P=       -0.03
   0.00000062   0.00000003  -0.00000008            0.09        0.01       -0.01
   0.00000003  -0.00000052   0.00000003            0.01       -0.08        0.00
  -0.00000008   0.00000003  -0.00000066           -0.01        0.00       -0.10

     Energy error            =      9.3E-04 Ry
     Gradient error          =      8.0E-03 Ry/Bohr

     number of scf cycles    =   6
     number of bfgs steps    =   5

     energy             old  =    -275.3777444040 Ry
     energy             new  =    -275.3786782941 Ry

     CASE: energy            _new < energy            _old

     new trust radius        =       0.0367306332 bohr
     new conv_thr            =       0.0000000008 Ry


ATOMIC_POSITIONS (angstrom)
C               -8.1910054962        4.8830861473        0.1643607627
C               -6.8177628274        5.0662724498       -0.4390593141
H               -8.9361386145        5.0883200702       -0.6202898231
H               -8.2914834621        3.8513006583        0.5291332780
H               -8.3147137391        5.5819561399        1.0034158437
C               -5.6498366961        4.8352857840        0.5283379520
F               -6.6975410351        4.2031746694       -1.5243027015
H               -5.7406477014        3.8245105531        0.9548495133
C               -4.2477377501        4.9835145626       -0.0537780188
F               -6.7368510096        6.3550032434       -0.9598390244
H               -5.7514193352        5.5363786654        1.3709692742
F               -4.0543902287        6.2483180493       -0.5764372906
F               -4.0289026552        4.0711864098       -1.0692161892
H               -3.4500591231        4.8241706688        0.6911517570



     Writing config-only to output data dir ./tmp/pvdf_dimer.save/ :
     XML data file
     NEW-OLD atomic charge density approx. for the potential

     negative rho (up, down):  5.026E-03 0.000E+00

     total cpu time spent up to now is     1339.4 secs

     Self-consistent Calculation

     iteration #  1     ecut=    60.00 Ry     beta= 0.30
     Davidson diagonalization with overlap
     ethr =  1.00E-06,  avg # of iterations =  5.0

     negative rho (up, down):  5.042E-03 0.000E+00

     total cpu time spent up to now is     1361.1 secs

     total energy              =    -275.37922340 Ry
     estimated scf accuracy    <       0.00028433 Ry

     iteration #  2     ecut=    60.00 Ry     beta= 0.30
     Davidson diagonalization with overlap
     ethr =  5.69E-07,  avg # of iterations =  1.0

     negative rho (up, down):  5.081E-03 0.000E+00

     total cpu time spent up to now is     1378.8 secs

     total energy              =    -275.37921665 Ry
     estimated scf accuracy    <       0.00012427 Ry

     iteration #  3     ecut=    60.00 Ry     beta= 0.30
     Davidson diagonalization with overlap
     ethr =  2.49E-07,  avg # of iterations =  2.0

     negative rho (up, down):  5.084E-03 0.000E+00

     total cpu time spent up to now is     1396.5 secs

     total energy              =    -275.37922663 Ry
     estimated scf accuracy    <       0.00000896 Ry

     iteration #  4     ecut=    60.00 Ry     beta= 0.30
     Davidson diagonalization with overlap
     ethr =  1.79E-08,  avg # of iterations =  2.0

     negative rho (up, down):  5.092E-03 0.000E+00

     total cpu time spent up to now is     1414.3 secs

     total energy              =    -275.37922828 Ry
     estimated scf accuracy    <       0.00000157 Ry

     iteration #  5     ecut=    60.00 Ry     beta= 0.30
     Davidson diagonalization with overlap
     ethr =  3.15E-09,  avg # of iterations =  2.0

     negative rho (up, down):  5.096E-03 0.000E+00

     total cpu time spent up to now is     1429.9 secs

     total energy              =    -275.37922836 Ry
     estimated scf accuracy    <       0.00000020 Ry

     iteration #  6     ecut=    60.00 Ry     beta= 0.30
     Davidson diagonalization with overlap
     ethr =  3.98E-10,  avg # of iterations =  2.0

     negative rho (up, down):  5.100E-03 0.000E+00

     total cpu time spent up to now is     1450.3 secs

     total energy              =    -275.37922837 Ry
     estimated scf accuracy    <       0.00000008 Ry

     iteration #  7     ecut=    60.00 Ry     beta= 0.30
     Davidson diagonalization with overlap
     ethr =  1.59E-10,  avg # of iterations =  3.0

     negative rho (up, down):  5.103E-03 0.000E+00

     total cpu time spent up to now is     1471.6 secs

     total energy              =    -275.37922841 Ry
     estimated scf accuracy    <       0.00000005 Ry

     iteration #  8     ecut=    60.00 Ry     beta= 0.30
     Davidson diagonalization with overlap
     ethr =  9.21E-11,  avg # of iterations =  1.0

     negative rho (up, down):  5.106E-03 0.000E+00

     total cpu time spent up to now is     1491.0 secs

     total energy              =    -275.37922841 Ry
     estimated scf accuracy    <       0.00000001 Ry

     iteration #  9     ecut=    60.00 Ry     beta= 0.30
     Davidson diagonalization with overlap
     ethr =  2.75E-11,  avg # of iterations =  3.0

     negative rho (up, down):  5.107E-03 0.000E+00

     total cpu time spent up to now is     1509.5 secs

     total energy              =    -275.37922842 Ry
     estimated scf accuracy    <          2.4E-09 Ry

     iteration # 10     ecut=    60.00 Ry     beta= 0.30
     Davidson diagonalization with overlap
     ethr =  4.85E-12,  avg # of iterations =  2.0

     negative rho (up, down):  5.112E-03 0.000E+00

     total cpu time spent up to now is     1527.7 secs

     End of self-consistent calculation

          k = 0.0000 0.0000 0.0000 (211851 PWs)   bands (ev):

   -31.2377 -31.0064 -29.7671 -29.5690 -20.3806 -18.8168 -16.5501 -15.2463
   -13.5687 -13.5460 -13.0878 -13.0146 -12.0686 -11.5879 -10.8557 -10.5050
   -10.1306  -9.6667  -9.6091  -9.3833  -9.1638  -9.1271  -8.9580  -8.5281
    -7.5832

     highest occupied level (ev):    -7.5832

!    total energy              =    -275.37922843 Ry
     estimated scf accuracy    <          2.3E-10 Ry

     The total energy is the sum of the following terms:
     one-electron contribution =   -1012.17841400 Ry
     hartree contribution      =     515.21302195 Ry
     xc contribution           =     -59.99552250 Ry
     ewald contribution        =     306.23361509 Ry
     one-center paw contrib.   =     -24.65192896 Ry

     convergence has been achieved in  10 iterations

     negative rho (up, down):  5.112E-03 0.000E+00

     Forces acting on atoms (cartesian axes, Ry/au):

     atom    1 type  1   force =     0.00386621   -0.00022316    0.00114378
     atom    2 type  1   force =     0.00272986   -0.00033388    0.00119590
     atom    3 type  2   force =     0.00180959   -0.00223450    0.00809780
     atom    4 type  2   force =    -0.00442121    0.00312413   -0.00141640
     atom    5 type  2   force =    -0.00443213   -0.00193009   -0.00285192
     atom    6 type  1   force =     0.00024933   -0.00007633    0.00002316
     atom    7 type  3   force =    -0.00122301    0.00037710   -0.00145091
     atom    8 type  2   force =     0.00115005    0.00034495   -0.00387104
     atom    9 type  1   force =     0.00030766   -0.00027897    0.00158732
     atom   10 type  3   force =    -0.00116544    0.00034005   -0.00108075
     atom   11 type  2   force =     0.00134120    0.00146228   -0.00357603
     atom   12 type  3   force =     0.00213630   -0.00124113   -0.00076301
     atom   13 type  3   force =     0.00193465    0.00141304    0.00018501
     atom   14 type  2   force =    -0.00428307   -0.00074349    0.00277709

     Total force =     0.015599     Total SCF correction =     0.000046


     Computing stress (Cartesian axis) and pressure


     negative rho (up, down):  5.112E-03 0.000E+00
          total   stress  (Ry/bohr**3)                   (kbar)     P=       -0.04
   0.00000006   0.00000010  -0.00000031            0.01        0.01       -0.04
   0.00000010  -0.00000033   0.00000004            0.01       -0.05        0.01
  -0.00000031   0.00000004  -0.00000053           -0.04        0.01       -0.08

     Energy error            =      5.5E-04 Ry
     Gradient error          =      8.1E-03 Ry/Bohr

     number of scf cycles    =   7
     number of bfgs steps    =   6

     energy             old  =    -275.3786782941 Ry
     energy             new  =    -275.3792284284 Ry

     CASE: energy            _new < energy            _old

     new trust radius        =       0.0269269193 bohr
     new conv_thr            =       0.0000000006 Ry


ATOMIC_POSITIONS (angstrom)
C               -8.1914683299        4.8827798490        0.1657378700
C               -6.8196479045        5.0659663435       -0.4378053335
H               -8.9393607381        5.0865235634       -0.6142134525
H               -8.2988320980        3.8540698592        0.5298381030
H               -8.3221796444        5.5793511823        1.0024565435
C               -5.6472718908        4.8363662251        0.5236170786
F               -6.7080631986        4.2042984187       -1.5265894429
H               -5.7389740038        3.8272464857        0.9497228345
C               -4.2420564391        4.9828095609       -0.0506913022
F               -6.7473972659        6.3552369294       -0.9616010409
H               -5.7496169068        5.5362768359        1.3650848070
F               -4.0404086864        6.2461218282       -0.5747849336
F               -4.0150073999        4.0721638789       -1.0662475045
H               -3.4482051675        4.8232671113        0.6947717930



     Writing config-only to output data dir ./tmp/pvdf_dimer.save/ :
     XML data file
     NEW-OLD atomic charge density approx. for the potential

     negative rho (up, down):  5.074E-03 0.000E+00

     total cpu time spent up to now is     1573.5 secs

     Self-consistent Calculation

     iteration #  1     ecut=    60.00 Ry     beta= 0.30
     Davidson diagonalization with overlap
     ethr =  1.00E-06,  avg # of iterations =  4.0

     negative rho (up, down):  5.084E-03 0.000E+00

     total cpu time spent up to now is     1595.0 secs

     total energy              =    -275.37958219 Ry
     estimated scf accuracy    <       0.00017456 Ry

     iteration #  2     ecut=    60.00 Ry     beta= 0.30
     Davidson diagonalization with overlap
     ethr =  3.49E-07,  avg # of iterations =  1.0

     negative rho (up, down):  5.104E-03 0.000E+00

     total cpu time spent up to now is     1608.2 secs

     total energy              =    -275.37957626 Ry
     estimated scf accuracy    <       0.00007547 Ry

     iteration #  3     ecut=    60.00 Ry     beta= 0.30
     Davidson diagonalization with overlap
     ethr =  1.51E-07,  avg # of iterations =  2.0

     negative rho (up, down):  5.104E-03 0.000E+00

     total cpu time spent up to now is     1625.1 secs

     total energy              =    -275.37958459 Ry
     estimated scf accuracy    <       0.00000812 Ry

     iteration #  4     ecut=    60.00 Ry     beta= 0.30
     Davidson diagonalization with overlap
     ethr =  1.62E-08,  avg # of iterations =  2.0

     negative rho (up, down):  5.111E-03 0.000E+00

     total cpu time spent up to now is     1641.6 secs

     total energy              =    -275.37958497 Ry
     estimated scf accuracy    <       0.00000252 Ry

     iteration #  5     ecut=    60.00 Ry     beta= 0.30
     Davidson diagonalization with overlap
     ethr =  5.04E-09,  avg # of iterations =  2.0

     negative rho (up, down):  5.113E-03 0.000E+00

     total cpu time spent up to now is     1658.7 secs

     total energy              =    -275.37958540 Ry
     estimated scf accuracy    <       0.00000052 Ry

     iteration #  6     ecut=    60.00 Ry     beta= 0.30
     Davidson diagonalization with overlap
     ethr =  1.05E-09,  avg # of iterations =  2.0

     negative rho (up, down):  5.115E-03 0.000E+00

     total cpu time spent up to now is     1673.6 secs

     total energy              =    -275.37958547 Ry
     estimated scf accuracy    <       0.00000008 Ry

     iteration #  7     ecut=    60.00 Ry     beta= 0.30
     Davidson diagonalization with overlap
     ethr =  1.64E-10,  avg # of iterations =  2.0

     negative rho (up, down):  5.117E-03 0.000E+00

     total cpu time spent up to now is     1690.6 secs

     total energy              =    -275.37958548 Ry
     estimated scf accuracy    <       0.00000002 Ry

     iteration #  8     ecut=    60.00 Ry     beta= 0.30
     Davidson diagonalization with overlap
     ethr =  5.00E-11,  avg # of iterations =  2.0

     negative rho (up, down):  5.119E-03 0.000E+00

     total cpu time spent up to now is     1708.2 secs

     total energy              =    -275.37958549 Ry
     estimated scf accuracy    <          2.3E-09 Ry

     iteration #  9     ecut=    60.00 Ry     beta= 0.30
     Davidson diagonalization with overlap
     ethr =  4.64E-12,  avg # of iterations =  3.0

     negative rho (up, down):  5.120E-03 0.000E+00

     total cpu time spent up to now is     1726.1 secs

     total energy              =    -275.37958549 Ry
     estimated scf accuracy    <          5.8E-10 Ry

     iteration # 10     ecut=    60.00 Ry     beta= 0.30
     Davidson diagonalization with overlap
     ethr =  1.17E-12,  avg # of iterations =  2.0

     negative rho (up, down):  5.122E-03 0.000E+00

     total cpu time spent up to now is     1742.2 secs

     End of self-consistent calculation

          k = 0.0000 0.0000 0.0000 (211851 PWs)   bands (ev):

   -31.2332 -31.0020 -29.7578 -29.5589 -20.3965 -18.8328 -16.5733 -15.2502
   -13.5659 -13.5498 -13.0865 -13.0342 -12.0838 -11.5906 -10.8567 -10.5070
   -10.1258  -9.6640  -9.6204  -9.3841  -9.1673  -9.1265  -8.9517  -8.5291
    -7.6115

     highest occupied level (ev):    -7.6115

!    total energy              =    -275.37958550 Ry
     estimated scf accuracy    <          1.0E-10 Ry

     The total energy is the sum of the following terms:
     one-electron contribution =   -1010.68136249 Ry
     hartree contribution      =     514.46075109 Ry
     xc contribution           =     -60.00138149 Ry
     ewald contribution        =     305.49454988 Ry
     one-center paw contrib.   =     -24.65214249 Ry

     convergence has been achieved in  10 iterations

     negative rho (up, down):  5.122E-03 0.000E+00

     Forces acting on atoms (cartesian axes, Ry/au):

     atom    1 type  1   force =     0.00236248   -0.00053364    0.00215965
     atom    2 type  1   force =     0.00121704    0.00091569   -0.00366994
     atom    3 type  2   force =     0.00157257   -0.00149129    0.00537980
     atom    4 type  2   force =    -0.00339564   -0.00005118   -0.00027503
     atom    5 type  2   force =    -0.00344795    0.00022345   -0.00027465
     atom    6 type  1   force =    -0.00000372    0.00022361   -0.00083943
     atom    7 type  3   force =     0.00079690    0.00023379   -0.00023790
     atom    8 type  2   force =     0.00105001   -0.00154256   -0.00286817
     atom    9 type  1   force =     0.00005936    0.00083367   -0.00332052
     atom   10 type  3   force =     0.00090891   -0.00004308   -0.00001134
     atom   11 type  2   force =     0.00119185    0.00264528   -0.00182775
     atom   12 type  3   force =     0.00052688   -0.00043713   -0.00008877
     atom   13 type  3   force =     0.00035164    0.00033281    0.00029524
     atom   14 type  2   force =    -0.00319033   -0.00130943    0.00557880

     Total force =     0.012842     Total SCF correction =     0.000025


     Computing stress (Cartesian axis) and pressure


     negative rho (up, down):  5.122E-03 0.000E+00
          total   stress  (Ry/bohr**3)                   (kbar)     P=       -0.02
  -0.00000017   0.00000010  -0.00000031           -0.02        0.01       -0.05
   0.00000010   0.00000001   0.00000005            0.01        0.00        0.01
  -0.00000031   0.00000005  -0.00000021           -0.05        0.01       -0.03

     Energy error            =      3.6E-04 Ry
     Gradient error          =      5.6E-03 Ry/Bohr

     number of scf cycles    =   8
     number of bfgs steps    =   7

     energy             old  =    -275.3792284284 Ry
     energy             new  =    -275.3795855025 Ry

     CASE: energy            _new < energy            _old

     new trust radius        =       0.0185793641 bohr
     new conv_thr            =       0.0000000004 Ry


ATOMIC_POSITIONS (angstrom)
C               -8.1891761867        4.8822789310        0.1679215236
C               -6.8203991745        5.0661122084       -0.4384375434
H               -8.9405175725        5.0842021705       -0.6061182841
H               -8.3063076911        3.8558249193        0.5301010331
H               -8.3297710049        5.5778271948        1.0016359858
C               -5.6448194707        4.8374221350        0.5192871668
F               -6.7142882181        4.2051465114       -1.5286492427
H               -5.7371193895        3.8278624178        0.9440931480
C               -4.2388776829        4.9826866914       -0.0499796978
F               -6.7535572371        6.3555966621       -0.9630569275
H               -5.7475635274        5.5382457711        1.3597434029
F               -4.0307600201        6.2444073648       -0.5739926740
F               -4.0055515385        4.0731109856       -1.0642910149
H               -3.4497809598        4.8217541082        0.7010391434



     Writing config-only to output data dir ./tmp/pvdf_dimer.save/ :
     XML data file
     NEW-OLD atomic charge density approx. for the potential

     negative rho (up, down):  5.107E-03 0.000E+00

     total cpu time spent up to now is     1788.1 secs

     Self-consistent Calculation

     iteration #  1     ecut=    60.00 Ry     beta= 0.30
     Davidson diagonalization with overlap
     ethr =  1.00E-06,  avg # of iterations =  4.0

     negative rho (up, down):  5.111E-03 0.000E+00

     total cpu time spent up to now is     1809.1 secs

     total energy              =    -275.37983515 Ry
     estimated scf accuracy    <       0.00010342 Ry

     iteration #  2     ecut=    60.00 Ry     beta= 0.30
     Davidson diagonalization with overlap
     ethr =  2.07E-07,  avg # of iterations =  2.0

     negative rho (up, down):  5.119E-03 0.000E+00

     total cpu time spent up to now is     1825.6 secs

     total energy              =    -275.37983202 Ry
     estimated scf accuracy    <       0.00004427 Ry

     iteration #  3     ecut=    60.00 Ry     beta= 0.30
     Davidson diagonalization with overlap
     ethr =  8.85E-08,  avg # of iterations =  2.0

     negative rho (up, down):  5.120E-03 0.000E+00

     total cpu time spent up to now is     1844.5 secs

     total energy              =    -275.37983724 Ry
     estimated scf accuracy    <       0.00000468 Ry

     iteration #  4     ecut=    60.00 Ry     beta= 0.30
     Davidson diagonalization with overlap
     ethr =  9.35E-09,  avg # of iterations =  2.0

     negative rho (up, down):  5.123E-03 0.000E+00

     total cpu time spent up to now is     1861.5 secs

     total energy              =    -275.37983768 Ry
     estimated scf accuracy    <       0.00000135 Ry

     iteration #  5     ecut=    60.00 Ry     beta= 0.30
     Davidson diagonalization with overlap
     ethr =  2.69E-09,  avg # of iterations =  3.0

     negative rho (up, down):  5.124E-03 0.000E+00

     total cpu time spent up to now is     1879.3 secs

     total energy              =    -275.37983786 Ry
     estimated scf accuracy    <       0.00000021 Ry

     iteration #  6     ecut=    60.00 Ry     beta= 0.30
     Davidson diagonalization with overlap
     ethr =  4.21E-10,  avg # of iterations =  3.0

     negative rho (up, down):  5.125E-03 0.000E+00

     total cpu time spent up to now is     1897.2 secs

     total energy              =    -275.37983790 Ry
     estimated scf accuracy    <       0.00000005 Ry

     iteration #  7     ecut=    60.00 Ry     beta= 0.30
     Davidson diagonalization with overlap
     ethr =  9.41E-11,  avg # of iterations =  2.0

     negative rho (up, down):  5.126E-03 0.000E+00

     total cpu time spent up to now is     1916.1 secs

     total energy              =    -275.37983790 Ry
     estimated scf accuracy    <          1.4E-09 Ry

     iteration #  8     ecut=    60.00 Ry     beta= 0.30
     Davidson diagonalization with overlap
     ethr =  2.75E-12,  avg # of iterations =  4.0

     negative rho (up, down):  5.126E-03 0.000E+00

     total cpu time spent up to now is     1935.6 secs

     total energy              =    -275.37983791 Ry
     estimated scf accuracy    <          8.5E-10 Ry

     iteration #  9     ecut=    60.00 Ry     beta= 0.30
     Davidson diagonalization with overlap
     ethr =  1.70E-12,  avg # of iterations =  3.0

     negative rho (up, down):  5.128E-03 0.000E+00

     total cpu time spent up to now is     1953.1 secs

     End of self-consistent calculation

          k = 0.0000 0.0000 0.0000 (211851 PWs)   bands (ev):

   -31.2407 -31.0075 -29.7601 -29.5607 -20.4054 -18.8452 -16.5829 -15.2548
   -13.5697 -13.5549 -13.0921 -13.0500 -12.0953 -11.5969 -10.8597 -10.5109
   -10.1127  -9.6660  -9.6275  -9.3862  -9.1750  -9.1285  -8.9536  -8.5299
    -7.6248

     highest occupied level (ev):    -7.6248

!    total energy              =    -275.37983792 Ry
     estimated scf accuracy    <          2.9E-10 Ry

     The total energy is the sum of the following terms:
     one-electron contribution =   -1009.86504578 Ry
     hartree contribution      =     514.04641839 Ry
     xc contribution           =     -60.00691191 Ry
     ewald contribution        =     305.09794921 Ry
     one-center paw contrib.   =     -24.65224782 Ry

     convergence has been achieved in   9 iterations

     negative rho (up, down):  5.128E-03 0.000E+00

     Forces acting on atoms (cartesian axes, Ry/au):

     atom    1 type  1   force =    -0.00093019   -0.00075449    0.00272557
     atom    2 type  1   force =     0.00123855    0.00127777   -0.00482970
     atom    3 type  2   force =     0.00069753   -0.00057276    0.00198508
     atom    4 type  2   force =    -0.00161083   -0.00232269    0.00083564
     atom    5 type  2   force =    -0.00167110    0.00162609    0.00180634
     atom    6 type  1   force =    -0.00153162    0.00014576   -0.00092446
     atom    7 type  3   force =     0.00178709    0.00009192    0.00009856
     atom    8 type  2   force =     0.00106561   -0.00141817   -0.00232294
     atom    9 type  1   force =     0.00195743    0.00080924   -0.00327047
     atom   10 type  3   force =     0.00191289    0.00000130    0.00025765
     atom   11 type  2   force =     0.00113162    0.00236382   -0.00130558
     atom   12 type  3   force =    -0.00021755    0.00066751    0.00003039
     atom   13 type  3   force =    -0.00034501   -0.00076027   -0.00020906
     atom   14 type  2   force =    -0.00348442   -0.00115502    0.00512298

     Total force =     0.011871     Total SCF correction =     0.000028


     Computing stress (Cartesian axis) and pressure


     negative rho (up, down):  5.128E-03 0.000E+00
          total   stress  (Ry/bohr**3)                   (kbar)     P=        0.00
  -0.00000019   0.00000009  -0.00000030           -0.03        0.01       -0.04
   0.00000009   0.00000021   0.00000005            0.01        0.03        0.01
  -0.00000030   0.00000005  -0.00000000           -0.04        0.01       -0.00

     Energy error            =      2.5E-04 Ry
     Gradient error          =      5.1E-03 Ry/Bohr

     number of scf cycles    =   9
     number of bfgs steps    =   8

     energy             old  =    -275.3795855025 Ry
     energy             new  =    -275.3798379175 Ry

     CASE: energy            _new < energy            _old

     new trust radius        =       0.0184666180 bohr
     new conv_thr            =       0.0000000003 Ry


ATOMIC_POSITIONS (angstrom)
C               -8.1874868514        4.8813651562        0.1715385992
C               -6.8199979772        5.0667118078       -0.4407152743
H               -8.9409246423        5.0818146649       -0.5977912430
H               -8.3135290158        3.8558094399        0.5307871707
H               -8.3371200558        5.5776274597        1.0020364247
C               -5.6435751183        4.8383838852        0.5150634980
F               -6.7177289533        4.2057039684       -1.5308796668
H               -5.7348136229        3.8275690469        0.9375284611
C               -4.2354601209        4.9828123614       -0.0502490767
F               -6.7568610794        6.3563652465       -0.9645030868
H               -5.7450373053        5.5414969750        1.3540897869
F               -4.0232559279        6.2437213720       -0.5737355854
F               -3.9983083992        4.0733222682       -1.0632992042
H               -3.4543906040        4.8197744193        0.7094252159



     Writing config-only to output data dir ./tmp/pvdf_dimer.save/ :
     XML data file
     NEW-OLD atomic charge density approx. for the potential

     negative rho (up, down):  5.120E-03 0.000E+00

     total cpu time spent up to now is     2001.5 secs

     Self-consistent Calculation

     iteration #  1     ecut=    60.00 Ry     beta= 0.30
     Davidson diagonalization with overlap
     ethr =  1.00E-06,  avg # of iterations =  4.0

     negative rho (up, down):  5.121E-03 0.000E+00

     total cpu time spent up to now is     2023.0 secs

     total energy              =    -275.38003615 Ry
     estimated scf accuracy    <       0.00008430 Ry

     iteration #  2     ecut=    60.00 Ry     beta= 0.30
     Davidson diagonalization with overlap
     ethr =  1.69E-07,  avg # of iterations =  2.0

     negative rho (up, down):  5.126E-03 0.000E+00

     total cpu time spent up to now is     2039.7 secs

     total energy              =    -275.38003623 Ry
     estimated scf accuracy    <       0.00003792 Ry

     iteration #  3     ecut=    60.00 Ry     beta= 0.30
     Davidson diagonalization with overlap
     ethr =  7.58E-08,  avg # of iterations =  2.0

     negative rho (up, down):  5.127E-03 0.000E+00

     total cpu time spent up to now is     2059.1 secs

     total energy              =    -275.38003998 Ry
     estimated scf accuracy    <       0.00000273 Ry

     iteration #  4     ecut=    60.00 Ry     beta= 0.30
     Davidson diagonalization with overlap
     ethr =  5.47E-09,  avg # of iterations =  2.0

     negative rho (up, down):  5.128E-03 0.000E+00

     total cpu time spent up to now is     2074.5 secs

     total energy              =    -275.38004013 Ry
     estimated scf accuracy    <       0.00000077 Ry

     iteration #  5     ecut=    60.00 Ry     beta= 0.30
     Davidson diagonalization with overlap
     ethr =  1.55E-09,  avg # of iterations =  2.0

     negative rho (up, down):  5.128E-03 0.000E+00

     total cpu time spent up to now is     2091.2 secs

     total energy              =    -275.38004027 Ry
     estimated scf accuracy    <       0.00000013 Ry

     iteration #  6     ecut=    60.00 Ry     beta= 0.30
     Davidson diagonalization with overlap
     ethr =  2.66E-10,  avg # of iterations =  2.0

     negative rho (up, down):  5.129E-03 0.000E+00

     total cpu time spent up to now is     2105.9 secs

     total energy              =    -275.38004027 Ry
     estimated scf accuracy    <       0.00000004 Ry

     iteration #  7     ecut=    60.00 Ry     beta= 0.30
     Davidson diagonalization with overlap
     ethr =  7.97E-11,  avg # of iterations =  3.0

     negative rho (up, down):  5.129E-03 0.000E+00

     total cpu time spent up to now is     2122.4 secs

     total energy              =    -275.38004027 Ry
     estimated scf accuracy    <       0.00000001 Ry

     iteration #  8     ecut=    60.00 Ry     beta= 0.30
     Davidson diagonalization with overlap
     ethr =  2.77E-11,  avg # of iterations =  2.0

     negative rho (up, down):  5.129E-03 0.000E+00

     total cpu time spent up to now is     2140.9 secs

     total energy              =    -275.38004027 Ry
     estimated scf accuracy    <          1.9E-09 Ry

     iteration #  9     ecut=    60.00 Ry     beta= 0.30
     Davidson diagonalization with overlap
     ethr =  3.82E-12,  avg # of iterations =  4.0

     negative rho (up, down):  5.130E-03 0.000E+00

     total cpu time spent up to now is     2159.6 secs

     total energy              =    -275.38004028 Ry
     estimated scf accuracy    <          7.6E-10 Ry

     iteration # 10     ecut=    60.00 Ry     beta= 0.30
     Davidson diagonalization with overlap
     ethr =  1.52E-12,  avg # of iterations =  2.0

     negative rho (up, down):  5.130E-03 0.000E+00

     total cpu time spent up to now is     2178.5 secs

     End of self-consistent calculation

          k = 0.0000 0.0000 0.0000 (211851 PWs)   bands (ev):

   -31.2477 -31.0172 -29.7661 -29.5707 -20.4034 -18.8407 -16.5894 -15.2590
   -13.5748 -13.5598 -13.0989 -13.0549 -12.1026 -11.5976 -10.8658 -10.5151
   -10.0959  -9.6704  -9.6322  -9.3885  -9.1864  -9.1342  -8.9625  -8.5285
    -7.6285

     highest occupied level (ev):    -7.6285

!    total energy              =    -275.38004028 Ry
     estimated scf accuracy    <          9.4E-11 Ry

     The total energy is the sum of the following terms:
     one-electron contribution =   -1009.13654382 Ry
     hartree contribution      =     513.67554395 Ry
     xc contribution           =     -60.00800638 Ry
     ewald contribution        =     304.74117882 Ry
     one-center paw contrib.   =     -24.65221284 Ry

     convergence has been achieved in  10 iterations

     negative rho (up, down):  5.130E-03 0.000E+00

     Forces acting on atoms (cartesian axes, Ry/au):

     atom    1 type  1   force =    -0.00204209   -0.00053776    0.00180132
     atom    2 type  1   force =    -0.00061566    0.00076859   -0.00285628
     atom    3 type  2   force =    -0.00066123    0.00027141   -0.00116972
     atom    4 type  2   force =     0.00027878   -0.00330656    0.00171883
     atom    5 type  2   force =     0.00023416    0.00204482    0.00305040
     atom    6 type  1   force =    -0.00064015    0.00043218   -0.00151115
     atom    7 type  3   force =     0.00209946    0.00020965    0.00007935
     atom    8 type  2   force =     0.00078509   -0.00083416   -0.00168933
     atom    9 type  1   force =     0.00077868    0.00051524   -0.00238648
     atom   10 type  3   force =     0.00222699   -0.00002820    0.00009294
     atom   11 type  2   force =     0.00079056    0.00147673   -0.00108177
     atom   12 type  3   force =    -0.00015606    0.00073146    0.00033306
     atom   13 type  3   force =    -0.00023057   -0.00095930   -0.00006925
     atom   14 type  2   force =    -0.00284795   -0.00078411    0.00368807

     Total force =     0.009860     Total SCF correction =     0.000014


     Computing stress (Cartesian axis) and pressure


     negative rho (up, down):  5.130E-03 0.000E+00
          total   stress  (Ry/bohr**3)                   (kbar)     P=        0.00
  -0.00000023   0.00000005  -0.00000017           -0.03        0.01       -0.03
   0.00000005   0.00000022   0.00000003            0.01        0.03        0.00
  -0.00000017   0.00000003   0.00000007           -0.03        0.00        0.01

     Energy error            =      2.0E-04 Ry
     Gradient error          =      3.7E-03 Ry/Bohr

     number of scf cycles    =  10
     number of bfgs steps    =   9

     energy             old  =    -275.3798379175 Ry
     energy             new  =    -275.3800402797 Ry

     CASE: energy            _new < energy            _old

     new trust radius        =       0.0188262299 bohr
     new conv_thr            =       0.0000000002 Ry


ATOMIC_POSITIONS (angstrom)
C               -8.1872267745        4.8804280793        0.1750583452
C               -6.8203090909        5.0673594129       -0.4431510593
H               -8.9415487442        5.0802948138       -0.5926304453
H               -8.3181977111        3.8537981827        0.5323215884
H               -8.3418975993        5.5787232509        1.0041690487
C               -5.6427993165        4.8393520520        0.5112251963
F               -6.7183397323        4.2061288684       -1.5326888413
H               -5.7327105611        3.8268958029        0.9317238922
C               -4.2333361227        4.9831092580       -0.0515141347
F               -6.7572917302        6.3571216500       -0.9656768402
H               -5.7427699010        5.5446933835        1.3492791209
F               -4.0184475666        6.2437639798       -0.5735179322
F               -3.9937384808        4.0728943694       -1.0628326127
H               -3.4598763426        4.8179149679        0.7175306931



     Writing config-only to output data dir ./tmp/pvdf_dimer.save/ :
     XML data file
     NEW-OLD atomic charge density approx. for the potential

     negative rho (up, down):  5.127E-03 0.000E+00

     total cpu time spent up to now is     2225.1 secs

     Self-consistent Calculation

     iteration #  1     ecut=    60.00 Ry     beta= 0.30
     Davidson diagonalization with overlap
     ethr =  1.00E-06,  avg # of iterations =  3.0

     negative rho (up, down):  5.127E-03 0.000E+00

     total cpu time spent up to now is     2244.3 secs

     total energy              =    -275.38016881 Ry
     estimated scf accuracy    <       0.00005639 Ry

     iteration #  2     ecut=    60.00 Ry     beta= 0.30
     Davidson diagonalization with overlap
     ethr =  1.13E-07,  avg # of iterations =  2.0

     negative rho (up, down):  5.129E-03 0.000E+00

     total cpu time spent up to now is     2261.6 secs

     total energy              =    -275.38016997 Ry
     estimated scf accuracy    <       0.00002540 Ry

     iteration #  3     ecut=    60.00 Ry     beta= 0.30
     Davidson diagonalization with overlap
     ethr =  5.08E-08,  avg # of iterations =  2.0

     negative rho (up, down):  5.129E-03 0.000E+00

     total cpu time spent up to now is     2276.5 secs

     total energy              =    -275.38017224 Ry
     estimated scf accuracy    <       0.00000244 Ry

     iteration #  4     ecut=    60.00 Ry     beta= 0.30
     Davidson diagonalization with overlap
     ethr =  4.89E-09,  avg # of iterations =  2.0

     negative rho (up, down):  5.130E-03 0.000E+00

     total cpu time spent up to now is     2292.2 secs

     total energy              =    -275.38017239 Ry
     estimated scf accuracy    <       0.00000050 Ry

     iteration #  5     ecut=    60.00 Ry     beta= 0.30
     Davidson diagonalization with overlap
     ethr =  1.00E-09,  avg # of iterations =  2.0

     negative rho (up, down):  5.130E-03 0.000E+00

     total cpu time spent up to now is     2309.1 secs

     total energy              =    -275.38017247 Ry
     estimated scf accuracy    <       0.00000005 Ry

     iteration #  6     ecut=    60.00 Ry     beta= 0.30
     Davidson diagonalization with overlap
     ethr =  1.04E-10,  avg # of iterations =  2.0

     negative rho (up, down):  5.130E-03 0.000E+00

     total cpu time spent up to now is     2326.1 secs

     total energy              =    -275.38017247 Ry
     estimated scf accuracy    <       0.00000002 Ry

     iteration #  7     ecut=    60.00 Ry     beta= 0.30
     Davidson diagonalization with overlap
     ethr =  3.34E-11,  avg # of iterations =  3.0

     negative rho (up, down):  5.130E-03 0.000E+00

     total cpu time spent up to now is     2343.5 secs

     total energy              =    -275.38017248 Ry
     estimated scf accuracy    <          3.0E-09 Ry

     iteration #  8     ecut=    60.00 Ry     beta= 0.30
     Davidson diagonalization with overlap
     ethr =  6.00E-12,  avg # of iterations =  2.0

     negative rho (up, down):  5.130E-03 0.000E+00

     total cpu time spent up to now is     2360.6 secs

     total energy              =    -275.38017247 Ry
     estimated scf accuracy    <          3.2E-10 Ry

     iteration #  9     ecut=    60.00 Ry     beta= 0.30
     Davidson diagonalization with overlap
     ethr =  6.34E-13,  avg # of iterations =  4.0

     negative rho (up, down):  5.131E-03 0.000E+00

     total cpu time spent up to now is     2379.4 secs

     total energy              =    -275.38017247 Ry
     estimated scf accuracy    <          2.4E-10 Ry

     iteration # 10     ecut=    60.00 Ry     beta= 0.30
     Davidson diagonalization with overlap
     ethr =  4.84E-13,  avg # of iterations =  2.0

     negative rho (up, down):  5.131E-03 0.000E+00

     total cpu time spent up to now is     2394.2 secs

     End of self-consistent calculation

          k = 0.0000 0.0000 0.0000 (211851 PWs)   bands (ev):

   -31.2539 -31.0258 -29.7743 -29.5809 -20.3952 -18.8318 -16.5877 -15.2594
   -13.5790 -13.5618 -13.1056 -13.0529 -12.1028 -11.5943 -10.8700 -10.5160
   -10.0842  -9.6751  -9.6341  -9.3889  -9.1970  -9.1405  -8.9714  -8.5251
    -7.6257

     highest occupied level (ev):    -7.6257

!    total energy              =    -275.38017247 Ry
     estimated scf accuracy    <          7.4E-11 Ry

     The total energy is the sum of the following terms:
     one-electron contribution =   -1008.61270081 Ry
     hartree contribution      =     513.40794134 Ry
     xc contribution           =     -60.00410995 Ry
     ewald contribution        =     304.48076221 Ry
     one-center paw contrib.   =     -24.65206527 Ry

     convergence has been achieved in  10 iterations

     negative rho (up, down):  5.131E-03 0.000E+00

     Forces acting on atoms (cartesian axes, Ry/au):

     atom    1 type  1   force =    -0.00249462   -0.00028563    0.00084229
     atom    2 type  1   force =    -0.00081276    0.00008463   -0.00009224
     atom    3 type  2   force =    -0.00133126    0.00056320   -0.00227928
     atom    4 type  2   force =     0.00163487   -0.00207671    0.00172713
     atom    5 type  2   force =     0.00163448    0.00100261    0.00243697
     atom    6 type  1   force =    -0.00056991    0.00029082   -0.00147826
     atom    7 type  3   force =     0.00146834    0.00041032   -0.00003327
     atom    8 type  2   force =     0.00057303    0.00025047   -0.00132606
     atom    9 type  1   force =    -0.00003890   -0.00004879   -0.00004167
     atom   10 type  3   force =     0.00156300   -0.00014428   -0.00017376
     atom   11 type  2   force =     0.00053236    0.00042065   -0.00118381
     atom   12 type  3   force =     0.00029669    0.00045266    0.00030605
     atom   13 type  3   force =     0.00023806   -0.00067798    0.00001301
     atom   14 type  2   force =    -0.00269340   -0.00024199    0.00128290

     Total force =     0.007473     Total SCF correction =     0.000018


     Computing stress (Cartesian axis) and pressure


     negative rho (up, down):  5.131E-03 0.000E+00
          total   stress  (Ry/bohr**3)                   (kbar)     P=       -0.01
  -0.00000029   0.00000002  -0.00000007           -0.04        0.00       -0.01
   0.00000002   0.00000005   0.00000001            0.00        0.01        0.00
  -0.00000007   0.00000001  -0.00000002           -0.01        0.00       -0.00

     Energy error            =      1.3E-04 Ry
     Gradient error          =      2.7E-03 Ry/Bohr

     number of scf cycles    =  11
     number of bfgs steps    =  10

     energy             old  =    -275.3800402797 Ry
     energy             new  =    -275.3801724747 Ry

     CASE: energy            _new < energy            _old

     new trust radius        =       0.0147393323 bohr
     new conv_thr            =       0.0000000001 Ry


ATOMIC_POSITIONS (angstrom)
C               -8.1888835765        4.8796559093        0.1778005842
C               -6.8209584092        5.0677883834       -0.4445984025
H               -8.9427524855        5.0797439917       -0.5910056657
H               -8.3197736827        3.8514040026        0.5343695114
H               -8.3435332369        5.5798966243        1.0069503789
C               -5.6428440949        4.8400594594        0.5080865521
F               -6.7176820490        4.2066474111       -1.5338166922
H               -5.7310507180        3.8267418160        0.9273073887
C               -4.2322547781        4.9832736817       -0.0523805778
F               -6.7564635934        6.3575026610       -0.9665118827
H               -5.7410413574        5.5468577547        1.3455418651
F               -4.0153825502        6.2440852826       -0.5731766280
F               -3.9908610380        4.0721868167       -1.0625335106
H               -3.4650081039        4.8166342767        0.7232630983



     Writing config-only to output data dir ./tmp/pvdf_dimer.save/ :
     XML data file
     NEW-OLD atomic charge density approx. for the potential

     negative rho (up, down):  5.130E-03 0.000E+00

     total cpu time spent up to now is     2442.4 secs

     Self-consistent Calculation

     iteration #  1     ecut=    60.00 Ry     beta= 0.30
     Davidson diagonalization with overlap
     ethr =  1.00E-06,  avg # of iterations =  3.0

     Threshold (ethr) on eigenvalues was too large:
     Diagonalizing with lowered threshold

     Davidson diagonalization with overlap
     ethr =  7.93E-08,  avg # of iterations =  2.0

     negative rho (up, down):  5.130E-03 0.000E+00

     total cpu time spent up to now is     2476.4 secs

     total energy              =    -275.38025037 Ry
     estimated scf accuracy    <       0.00004505 Ry

     iteration #  2     ecut=    60.00 Ry     beta= 0.30
     Davidson diagonalization with overlap
     ethr =  9.01E-08,  avg # of iterations =  2.0

     negative rho (up, down):  5.130E-03 0.000E+00

     total cpu time spent up to now is     2493.1 secs

     total energy              =    -275.38024957 Ry
     estimated scf accuracy    <       0.00001450 Ry

     iteration #  3     ecut=    60.00 Ry     beta= 0.30
     Davidson diagonalization with overlap
     ethr =  2.90E-08,  avg # of iterations =  2.0

     negative rho (up, down):  5.131E-03 0.000E+00

     total cpu time spent up to now is     2510.0 secs

     total energy              =    -275.38025143 Ry
     estimated scf accuracy    <       0.00000209 Ry

     iteration #  4     ecut=    60.00 Ry     beta= 0.30
     Davidson diagonalization with overlap
     ethr =  4.18E-09,  avg # of iterations =  2.0

     negative rho (up, down):  5.131E-03 0.000E+00

     total cpu time spent up to now is     2526.2 secs

     total energy              =    -275.38025162 Ry
     estimated scf accuracy    <       0.00000033 Ry

     iteration #  5     ecut=    60.00 Ry     beta= 0.30
     Davidson diagonalization with overlap
     ethr =  6.70E-10,  avg # of iterations =  2.0

     negative rho (up, down):  5.131E-03 0.000E+00

     total cpu time spent up to now is     2542.8 secs

     total energy              =    -275.38025163 Ry
     estimated scf accuracy    <       0.00000005 Ry

     iteration #  6     ecut=    60.00 Ry     beta= 0.30
     Davidson diagonalization with overlap
     ethr =  1.03E-10,  avg # of iterations =  3.0

     negative rho (up, down):  5.132E-03 0.000E+00

     total cpu time spent up to now is     2560.0 secs

     total energy              =    -275.38025164 Ry
     estimated scf accuracy    <       0.00000002 Ry

     iteration #  7     ecut=    60.00 Ry     beta= 0.30
     Davidson diagonalization with overlap
     ethr =  4.68E-11,  avg # of iterations =  2.0

     negative rho (up, down):  5.132E-03 0.000E+00

     total cpu time spent up to now is     2579.1 secs

     total energy              =    -275.38025164 Ry
     estimated scf accuracy    <          1.4E-09 Ry

     iteration #  8     ecut=    60.00 Ry     beta= 0.30
     Davidson diagonalization with overlap
     ethr =  2.76E-12,  avg # of iterations =  3.0

     negative rho (up, down):  5.132E-03 0.000E+00

     total cpu time spent up to now is     2598.8 secs

     total energy              =    -275.38025164 Ry
     estimated scf accuracy    <          3.0E-10 Ry

     iteration #  9     ecut=    60.00 Ry     beta= 0.30
     Davidson diagonalization with overlap
     ethr =  6.00E-13,  avg # of iterations =  2.0

     negative rho (up, down):  5.132E-03 0.000E+00

     total cpu time spent up to now is     2616.7 secs

     End of self-consistent calculation

          k = 0.0000 0.0000 0.0000 (211851 PWs)   bands (ev):

   -31.2545 -31.0299 -29.7779 -29.5858 -20.3897 -18.8224 -16.5867 -15.2577
   -13.5810 -13.5624 -13.1079 -13.0481 -12.0997 -11.5870 -10.8732 -10.5154
   -10.0816  -9.6777  -9.6360  -9.3881  -9.2031  -9.1443  -8.9762  -8.5216
    -7.6228

     highest occupied level (ev):    -7.6228

!    total energy              =    -275.38025164 Ry
     estimated scf accuracy    <          2.7E-11 Ry

     The total energy is the sum of the following terms:
     one-electron contribution =   -1008.25053224 Ry
     hartree contribution      =     513.22396739 Ry
     xc contribution           =     -59.99935157 Ry
     ewald contribution        =     304.29760590 Ry
     one-center paw contrib.   =     -24.65194114 Ry

     convergence has been achieved in   9 iterations

     negative rho (up, down):  5.132E-03 0.000E+00

     Forces acting on atoms (cartesian axes, Ry/au):

     atom    1 type  1   force =    -0.00119711    0.00012570   -0.00054846
     atom    2 type  1   force =    -0.00119300   -0.00036633    0.00151148
     atom    3 type  2   force =    -0.00128873    0.00038530   -0.00163492
     atom    4 type  2   force =     0.00202132   -0.00036498    0.00132336
     atom    5 type  2   force =     0.00204630   -0.00025156    0.00124863
     atom    6 type  1   force =    -0.00018929    0.00031483   -0.00091955
     atom    7 type  3   force =     0.00056942    0.00045568   -0.00006702
     atom    8 type  2   force =     0.00029416    0.00066117   -0.00091742
     atom    9 type  1   force =    -0.00119058   -0.00025934    0.00076097
     atom   10 type  3   force =     0.00063361   -0.00021702   -0.00023264
     atom   11 type  2   force =     0.00026087   -0.00025551   -0.00114486
     atom   12 type  3   force =     0.00068316   -0.00013917    0.00034199
     atom   13 type  3   force =     0.00063791   -0.00012606    0.00033723
     atom   14 type  2   force =    -0.00208804    0.00003729   -0.00005879

     Total force =     0.005852     Total SCF correction =     0.000010


     Computing stress (Cartesian axis) and pressure


     negative rho (up, down):  5.132E-03 0.000E+00
          total   stress  (Ry/bohr**3)                   (kbar)     P=       -0.03
  -0.00000036  -0.00000001   0.00000003           -0.05       -0.00        0.00
  -0.00000001  -0.00000013  -0.00000001           -0.00       -0.02       -0.00
   0.00000003  -0.00000001  -0.00000013            0.00       -0.00       -0.02

     Energy error            =      7.9E-05 Ry
     Gradient error          =      2.1E-03 Ry/Bohr

     number of scf cycles    =  12
     number of bfgs steps    =  11

     energy             old  =    -275.3801724747 Ry
     energy             new  =    -275.3802516439 Ry

     CASE: energy            _new < energy            _old

     new trust radius        =       0.0104780300 bohr
     new conv_thr            =            1.0E-10 Ry


ATOMIC_POSITIONS (angstrom)
C               -8.1909002930        4.8792909765        0.1790231660
C               -6.8222177964        5.0679142425       -0.4449091852
H               -8.9443533297        5.0797154398       -0.5912918676
H               -8.3191842417        3.8497249493        0.5365586872
H               -8.3429628391        5.5803982781        1.0095190882
C               -5.6432002038        4.8406855821        0.5057420405
F               -6.7169717811        4.2073046204       -1.5343511932
H               -5.7298796323        3.8270710236        0.9241590008
C               -4.2323322258        4.9833124128       -0.0528986099
F               -6.7556057048        6.3574633800       -0.9670282792
H               -5.7398563880        5.5479302064        1.3426249876
F               -4.0130701493        6.2441193840       -0.5726013160
F               -3.9886867460        4.0716691089       -1.0619810467
H               -3.4692683429        4.8158784668        0.7267305468



     Writing config-only to output data dir ./tmp/pvdf_dimer.save/ :
     XML data file
     NEW-OLD atomic charge density approx. for the potential

     negative rho (up, down):  5.132E-03 0.000E+00

     total cpu time spent up to now is     2664.8 secs

     Self-consistent Calculation

     iteration #  1     ecut=    60.00 Ry     beta= 0.30
     Davidson diagonalization with overlap
     ethr =  1.00E-06,  avg # of iterations =  3.0

     Threshold (ethr) on eigenvalues was too large:
     Diagonalizing with lowered threshold

     Davidson diagonalization with overlap
     ethr =  4.63E-08,  avg # of iterations =  4.0

     negative rho (up, down):  5.132E-03 0.000E+00

     total cpu time spent up to now is     2696.9 secs

     total energy              =    -275.38029874 Ry
     estimated scf accuracy    <       0.00002715 Ry

     iteration #  2     ecut=    60.00 Ry     beta= 0.30
     Davidson diagonalization with overlap
     ethr =  5.43E-08,  avg # of iterations =  2.0

     negative rho (up, down):  5.132E-03 0.000E+00

     total cpu time spent up to now is     2713.7 secs

     total energy              =    -275.38029868 Ry
     estimated scf accuracy    <       0.00000771 Ry

     iteration #  3     ecut=    60.00 Ry     beta= 0.30
     Davidson diagonalization with overlap
     ethr =  1.54E-08,  avg # of iterations =  2.0

     negative rho (up, down):  5.132E-03 0.000E+00

     total cpu time spent up to now is     2730.3 secs

     total energy              =    -275.38029971 Ry
     estimated scf accuracy    <       0.00000128 Ry

     iteration #  4     ecut=    60.00 Ry     beta= 0.30
     Davidson diagonalization with overlap
     ethr =  2.56E-09,  avg # of iterations =  2.0

     negative rho (up, down):  5.132E-03 0.000E+00

     total cpu time spent up to now is     2749.5 secs

     total energy              =    -275.38029984 Ry
     estimated scf accuracy    <       0.00000016 Ry

     iteration #  5     ecut=    60.00 Ry     beta= 0.30
     Davidson diagonalization with overlap
     ethr =  3.11E-10,  avg # of iterations =  2.0

     negative rho (up, down):  5.133E-03 0.000E+00

     total cpu time spent up to now is     2766.9 secs

     total energy              =    -275.38029985 Ry
     estimated scf accuracy    <       0.00000002 Ry

     iteration #  6     ecut=    60.00 Ry     beta= 0.30
     Davidson diagonalization with overlap
     ethr =  3.69E-11,  avg # of iterations =  4.0

     negative rho (up, down):  5.133E-03 0.000E+00

     total cpu time spent up to now is     2785.8 secs

     total energy              =    -275.38029985 Ry
     estimated scf accuracy    <       0.00000002 Ry

     iteration #  7     ecut=    60.00 Ry     beta= 0.30
     Davidson diagonalization with overlap
     ethr =  3.69E-11,  avg # of iterations =  3.0

     negative rho (up, down):  5.133E-03 0.000E+00

     total cpu time spent up to now is     2803.7 secs

     total energy              =    -275.38029985 Ry
     estimated scf accuracy    <          7.2E-10 Ry

     iteration #  8     ecut=    60.00 Ry     beta= 0.30
     Davidson diagonalization with overlap
     ethr =  1.44E-12,  avg # of iterations =  3.0

     negative rho (up, down):  5.133E-03 0.000E+00

     total cpu time spent up to now is     2822.8 secs

     total energy              =    -275.38029985 Ry
     estimated scf accuracy    <          2.4E-10 Ry

     iteration #  9     ecut=    60.00 Ry     beta= 0.30
     Davidson diagonalization with overlap
     ethr =  4.71E-13,  avg # of iterations =  2.0

     negative rho (up, down):  5.133E-03 0.000E+00

     total cpu time spent up to now is     2842.0 secs

     End of self-consistent calculation

          k = 0.0000 0.0000 0.0000 (211851 PWs)   bands (ev):

   -31.2541 -31.0308 -29.7790 -29.5854 -20.3903 -18.8207 -16.5861 -15.2555
   -13.5820 -13.5630 -13.1082 -13.0458 -12.0973 -11.5810 -10.8759 -10.5123
   -10.0870  -9.6788  -9.6385  -9.3867  -9.2050  -9.1455  -8.9758  -8.5190
    -7.6224

     highest occupied level (ev):    -7.6224

!    total energy              =    -275.38029985 Ry
     estimated scf accuracy    <          2.6E-11 Ry

     The total energy is the sum of the following terms:
     one-electron contribution =   -1008.07820281 Ry
     hartree contribution      =     513.13662468 Ry
     xc contribution           =     -59.99707888 Ry
     ewald contribution        =     304.21025733 Ry
     one-center paw contrib.   =     -24.65190017 Ry

     convergence has been achieved in   9 iterations

     negative rho (up, down):  5.133E-03 0.000E+00

     Forces acting on atoms (cartesian axes, Ry/au):

     atom    1 type  1   force =    -0.00004896    0.00021288   -0.00078084
     atom    2 type  1   force =    -0.00059883   -0.00031818    0.00136796
     atom    3 type  2   force =    -0.00091909    0.00006117   -0.00043037
     atom    4 type  2   force =     0.00182774    0.00117622    0.00065457
     atom    5 type  2   force =     0.00186191   -0.00122810   -0.00007380
     atom    6 type  1   force =    -0.00039259    0.00000065   -0.00046215
     atom    7 type  3   force =    -0.00022267    0.00025286   -0.00005480
     atom    8 type  2   force =     0.00006782    0.00058812   -0.00049355
     atom    9 type  1   force =    -0.00130397   -0.00024567    0.00091407
     atom   10 type  3   force =    -0.00020752   -0.00010406   -0.00012333
     atom   11 type  2   force =     0.00003271   -0.00028299   -0.00063796
     atom   12 type  3   force =     0.00077086   -0.00034642    0.00023320
     atom   13 type  3   force =     0.00071347    0.00013221    0.00039508
     atom   14 type  2   force =    -0.00158090    0.00010131   -0.00050808

     Total force =     0.004755     Total SCF correction =     0.000007


     Computing stress (Cartesian axis) and pressure


     negative rho (up, down):  5.133E-03 0.000E+00
          total   stress  (Ry/bohr**3)                   (kbar)     P=       -0.04
  -0.00000039  -0.00000002   0.00000006           -0.06       -0.00        0.01
  -0.00000002  -0.00000022  -0.00000002           -0.00       -0.03       -0.00
   0.00000006  -0.00000002  -0.00000019            0.01       -0.00       -0.03

     Energy error            =      4.8E-05 Ry
     Gradient error          =      1.9E-03 Ry/Bohr

     number of scf cycles    =  13
     number of bfgs steps    =  12

     energy             old  =    -275.3802516439 Ry
     energy             new  =    -275.3802998532 Ry

     CASE: energy            _new < energy            _old

     new trust radius        =       0.0079457389 bohr
     new conv_thr            =            1.0E-10 Ry


ATOMIC_POSITIONS (angstrom)
C               -8.1924760986        4.8791678428        0.1793892287
C               -6.8234119004        5.0679265674       -0.4447159783
H               -8.9461206234        5.0797712721       -0.5919028872
H               -8.3175009202        3.8494159868        0.5384951816
H               -8.3412716598        5.5798766882        1.0112054449
C               -5.6438814904        4.8410569019        0.5038571970
F               -6.7168545948        4.2079425955       -1.5345788683
H               -5.7290774619        3.8276557392        0.9218498711
C               -4.2330024918        4.9832565847       -0.0529527804
F               -6.7553841291        6.3572625627       -0.9673260003
H               -5.7390775636        5.5484534997        1.3404006182
F               -4.0108774297        6.2438722386       -0.5719458378
F               -3.9866229007        4.0713879550       -1.0612269295
H               -3.4729304093        4.8154316368        0.7287477595



     Writing config-only to output data dir ./tmp/pvdf_dimer.save/ :
     XML data file
     NEW-OLD atomic charge density approx. for the potential

     negative rho (up, down):  5.133E-03 0.000E+00

     total cpu time spent up to now is     2894.7 secs

     Self-consistent Calculation

     iteration #  1     ecut=    60.00 Ry     beta= 0.30
     Davidson diagonalization with overlap
     ethr =  1.00E-06,  avg # of iterations =  3.0

     Threshold (ethr) on eigenvalues was too large:
     Diagonalizing with lowered threshold

     Davidson diagonalization with overlap
     ethr =  2.28E-08,  avg # of iterations =  4.0

     negative rho (up, down):  5.133E-03 0.000E+00

     total cpu time spent up to now is     2924.7 secs

     total energy              =    -275.38033082 Ry
     estimated scf accuracy    <       0.00001474 Ry

     iteration #  2     ecut=    60.00 Ry     beta= 0.30
     Davidson diagonalization with overlap
     ethr =  2.95E-08,  avg # of iterations =  2.0

     negative rho (up, down):  5.133E-03 0.000E+00

     total cpu time spent up to now is     2940.3 secs

     total energy              =    -275.38033066 Ry
     estimated scf accuracy    <       0.00000478 Ry

     iteration #  3     ecut=    60.00 Ry     beta= 0.30
     Davidson diagonalization with overlap
     ethr =  9.55E-09,  avg # of iterations =  2.0

     negative rho (up, down):  5.133E-03 0.000E+00

     total cpu time spent up to now is     2956.5 secs

     total energy              =    -275.38033120 Ry
     estimated scf accuracy    <       0.00000076 Ry

     iteration #  4     ecut=    60.00 Ry     beta= 0.30
     Davidson diagonalization with overlap
     ethr =  1.52E-09,  avg # of iterations =  2.0

     negative rho (up, down):  5.133E-03 0.000E+00

     total cpu time spent up to now is     2971.0 secs

     total energy              =    -275.38033129 Ry
     estimated scf accuracy    <       0.00000008 Ry

     iteration #  5     ecut=    60.00 Ry     beta= 0.30
     Davidson diagonalization with overlap
     ethr =  1.63E-10,  avg # of iterations =  2.0

     negative rho (up, down):  5.133E-03 0.000E+00

     total cpu time spent up to now is     2987.3 secs

     total energy              =    -275.38033130 Ry
     estimated scf accuracy    <       0.00000001 Ry

     iteration #  6     ecut=    60.00 Ry     beta= 0.30
     Davidson diagonalization with overlap
     ethr =  2.79E-11,  avg # of iterations =  3.0

     negative rho (up, down):  5.133E-03 0.000E+00

     total cpu time spent up to now is     3006.3 secs

     total energy              =    -275.38033130 Ry
     estimated scf accuracy    <       0.00000001 Ry

     iteration #  7     ecut=    60.00 Ry     beta= 0.30
     Davidson diagonalization with overlap
     ethr =  2.64E-11,  avg # of iterations =  2.0

     negative rho (up, down):  5.133E-03 0.000E+00

     total cpu time spent up to now is     3021.9 secs

     total energy              =    -275.38033130 Ry
     estimated scf accuracy    <          1.8E-10 Ry

     iteration #  8     ecut=    60.00 Ry     beta= 0.30
     Davidson diagonalization with overlap
     ethr =  3.56E-13,  avg # of iterations =  5.0

     negative rho (up, down):  5.133E-03 0.000E+00

     total cpu time spent up to now is     3042.3 secs

     total energy              =    -275.38033130 Ry
     estimated scf accuracy    <          1.5E-10 Ry

     iteration #  9     ecut=    60.00 Ry     beta= 0.30
     Davidson diagonalization with overlap
     ethr =  2.99E-13,  avg # of iterations =  2.0

     negative rho (up, down):  5.133E-03 0.000E+00

     total cpu time spent up to now is     3058.4 secs

     End of self-consistent calculation

          k = 0.0000 0.0000 0.0000 (211851 PWs)   bands (ev):

   -31.2530 -31.0309 -29.7778 -29.5834 -20.3965 -18.8243 -16.5880 -15.2545
   -13.5832 -13.5646 -13.1076 -13.0465 -12.0976 -11.5767 -10.8785 -10.5102
   -10.0953  -9.6789  -9.6414  -9.3859  -9.2051  -9.1451  -8.9737  -8.5180
    -7.6243

     highest occupied level (ev):    -7.6243

!    total energy              =    -275.38033130 Ry
     estimated scf accuracy    <          2.4E-11 Ry

     The total energy is the sum of the following terms:
     one-electron contribution =   -1008.00817185 Ry
     hartree contribution      =     513.10103496 Ry
     xc contribution           =     -59.99784539 Ry
     ewald contribution        =     304.17659006 Ry
     one-center paw contrib.   =     -24.65193909 Ry

     convergence has been achieved in   9 iterations

     negative rho (up, down):  5.133E-03 0.000E+00

     Forces acting on atoms (cartesian axes, Ry/au):

     atom    1 type  1   force =     0.00080552    0.00033291   -0.00107540
     atom    2 type  1   force =    -0.00024393   -0.00008267    0.00030472
     atom    3 type  2   force =    -0.00036923   -0.00024994    0.00074298
     atom    4 type  2   force =     0.00135531    0.00151152    0.00021677
     atom    5 type  2   force =     0.00136808   -0.00130268   -0.00060190
     atom    6 type  1   force =    -0.00041552    0.00007216    0.00011741
     atom    7 type  3   force =    -0.00066265   -0.00006897   -0.00012253
     atom    8 type  2   force =    -0.00017745    0.00009725   -0.00005383
     atom    9 type  1   force =    -0.00091688   -0.00008652    0.00024696
     atom   10 type  3   force =    -0.00067088    0.00015276    0.00000861
     atom   11 type  2   force =    -0.00018242   -0.00019999   -0.00018037
     atom   12 type  3   force =     0.00055865   -0.00034205    0.00017297
     atom   13 type  3   force =     0.00052109    0.00016824    0.00037293
     atom   14 type  2   force =    -0.00096971   -0.00000203   -0.00014932

     Total force =     0.003869     Total SCF correction =     0.000008


     Computing stress (Cartesian axis) and pressure


     negative rho (up, down):  5.133E-03 0.000E+00
          total   stress  (Ry/bohr**3)                   (kbar)     P=       -0.04
  -0.00000038  -0.00000003   0.00000007           -0.06       -0.00        0.01
  -0.00000003  -0.00000019  -0.00000002           -0.00       -0.03       -0.00
   0.00000007  -0.00000002  -0.00000017            0.01       -0.00       -0.02

     Energy error            =      3.1E-05 Ry
     Gradient error          =      1.5E-03 Ry/Bohr

     number of scf cycles    =  14
     number of bfgs steps    =  13

     energy             old  =    -275.3802998532 Ry
     energy             new  =    -275.3803313010 Ry

     CASE: energy            _new < energy            _old

     new trust radius        =       0.0069480547 bohr
     new conv_thr            =            1.0E-10 Ry


ATOMIC_POSITIONS (angstrom)
C               -8.1931110455        4.8793179091        0.1788925701
C               -6.8244835161        5.0679458236       -0.4446423425
H               -8.9477243088        5.0796217293       -0.5917832167
H               -8.3154078038        3.8501067805        0.5401270644
H               -8.3391709971        5.5786752494        1.0121395775
C               -5.6446658681        4.8414498420        0.5024811459
F               -6.7173662458        4.2083749200       -1.5348122312
H               -5.7286109990        3.8280942130        0.9201022003
C               -4.2339100112        4.9831802086       -0.0529447196
F               -6.7558220973        6.3572033631       -0.9675115854
H               -5.7386275995        5.5487218998        1.3386206425
F               -4.0087354395        6.2434368232       -0.5712915113
F               -3.9845984639        4.0712812815       -1.0603562731
H               -3.4762552783        4.8150680283        0.7302746984



     Writing config-only to output data dir ./tmp/pvdf_dimer.save/ :
     XML data file
     NEW-OLD atomic charge density approx. for the potential

     negative rho (up, down):  5.134E-03 0.000E+00

     total cpu time spent up to now is     3105.9 secs

     Self-consistent Calculation

     iteration #  1     ecut=    60.00 Ry     beta= 0.30
     Davidson diagonalization with overlap
     ethr =  1.00E-06,  avg # of iterations =  3.0

     Threshold (ethr) on eigenvalues was too large:
     Diagonalizing with lowered threshold

     Davidson diagonalization with overlap
     ethr =  1.47E-08,  avg # of iterations =  4.0

     negative rho (up, down):  5.134E-03 0.000E+00

     total cpu time spent up to now is     3137.2 secs

     total energy              =    -275.38035389 Ry
     estimated scf accuracy    <       0.00000931 Ry

     iteration #  2     ecut=    60.00 Ry     beta= 0.30
     Davidson diagonalization with overlap
     ethr =  1.86E-08,  avg # of iterations =  2.0

     negative rho (up, down):  5.133E-03 0.000E+00

     total cpu time spent up to now is     3152.9 secs

     total energy              =    -275.38035364 Ry
     estimated scf accuracy    <       0.00000364 Ry

     iteration #  3     ecut=    60.00 Ry     beta= 0.30
     Davidson diagonalization with overlap
     ethr =  7.28E-09,  avg # of iterations =  2.0

     negative rho (up, down):  5.133E-03 0.000E+00

     total cpu time spent up to now is     3168.6 secs

     total energy              =    -275.38035391 Ry
     estimated scf accuracy    <       0.00000033 Ry

     iteration #  4     ecut=    60.00 Ry     beta= 0.30
     Davidson diagonalization with overlap
     ethr =  6.60E-10,  avg # of iterations =  2.0

     negative rho (up, down):  5.133E-03 0.000E+00

     total cpu time spent up to now is     3185.0 secs

     total energy              =    -275.38035395 Ry
     estimated scf accuracy    <       0.00000002 Ry

     iteration #  5     ecut=    60.00 Ry     beta= 0.30
     Davidson diagonalization with overlap
     ethr =  3.75E-11,  avg # of iterations =  2.0

     negative rho (up, down):  5.133E-03 0.000E+00

     total cpu time spent up to now is     3201.6 secs

     total energy              =    -275.38035395 Ry
     estimated scf accuracy    <          4.8E-09 Ry

     iteration #  6     ecut=    60.00 Ry     beta= 0.30
     Davidson diagonalization with overlap
     ethr =  9.60E-12,  avg # of iterations =  3.0

     negative rho (up, down):  5.133E-03 0.000E+00

     total cpu time spent up to now is     3219.4 secs

     total energy              =    -275.38035395 Ry
     estimated scf accuracy    <          4.9E-09 Ry

     iteration #  7     ecut=    60.00 Ry     beta= 0.30
     Davidson diagonalization with overlap
     ethr =  9.60E-12,  avg # of iterations =  3.0

     negative rho (up, down):  5.133E-03 0.000E+00

     total cpu time spent up to now is     3236.7 secs

     total energy              =    -275.38035396 Ry
     estimated scf accuracy    <          1.6E-10 Ry

     iteration #  8     ecut=    60.00 Ry     beta= 0.30
     Davidson diagonalization with overlap
     ethr =  3.28E-13,  avg # of iterations =  5.0

     negative rho (up, down):  5.133E-03 0.000E+00

     total cpu time spent up to now is     3257.1 secs

     total energy              =    -275.38035396 Ry
     estimated scf accuracy    <          1.5E-10 Ry

     iteration #  9     ecut=    60.00 Ry     beta= 0.30
     Davidson diagonalization with overlap
     ethr =  3.07E-13,  avg # of iterations =  2.0

     negative rho (up, down):  5.133E-03 0.000E+00

     total cpu time spent up to now is     3272.5 secs

     End of self-consistent calculation

          k = 0.0000 0.0000 0.0000 (211851 PWs)   bands (ev):

   -31.2534 -31.0314 -29.7772 -29.5823 -20.4045 -18.8316 -16.5902 -15.2547
   -13.5851 -13.5668 -13.1079 -13.0490 -12.1000 -11.5755 -10.8811 -10.5074
   -10.1050  -9.6792  -9.6444  -9.3856  -9.2051  -9.1446  -8.9719  -8.5180
    -7.6266

     highest occupied level (ev):    -7.6266

!    total energy              =    -275.38035396 Ry
     estimated scf accuracy    <          2.1E-11 Ry

     The total energy is the sum of the following terms:
     one-electron contribution =   -1007.98408179 Ry
     hartree contribution      =     513.08804889 Ry
     xc contribution           =     -60.00060502 Ry
     ewald contribution        =     304.16830000 Ry
     one-center paw contrib.   =     -24.65201604 Ry

     convergence has been achieved in   9 iterations

     negative rho (up, down):  5.133E-03 0.000E+00

     Forces acting on atoms (cartesian axes, Ry/au):

     atom    1 type  1   force =     0.00108141    0.00013164   -0.00039773
     atom    2 type  1   force =     0.00021126    0.00025162   -0.00086776
     atom    3 type  2   force =    -0.00017970   -0.00034807    0.00113470
     atom    4 type  2   force =     0.00093579    0.00121644   -0.00012580
     atom    5 type  2   force =     0.00092015   -0.00086654   -0.00072227
     atom    6 type  1   force =    -0.00043816   -0.00021068    0.00016783
     atom    7 type  3   force =    -0.00074185   -0.00031752   -0.00026598
     atom    8 type  2   force =    -0.00037651   -0.00019036    0.00024107
     atom    9 type  1   force =    -0.00017862    0.00006122   -0.00016656
     atom   10 type  3   force =    -0.00078103    0.00042057    0.00000033
     atom   11 type  2   force =    -0.00038976    0.00008695    0.00038891
     atom   12 type  3   force =     0.00021813   -0.00012537    0.00006568
     atom   13 type  3   force =     0.00017680    0.00001573    0.00020377
     atom   14 type  2   force =    -0.00045790   -0.00012565    0.00034382

     Total force =     0.003317     Total SCF correction =     0.000010


     Computing stress (Cartesian axis) and pressure


     negative rho (up, down):  5.133E-03 0.000E+00
          total   stress  (Ry/bohr**3)                   (kbar)     P=       -0.03
  -0.00000032  -0.00000002   0.00000006           -0.05       -0.00        0.01
  -0.00000002  -0.00000011  -0.00000001           -0.00       -0.02       -0.00
   0.00000006  -0.00000001  -0.00000010            0.01       -0.00       -0.01

     Energy error            =      2.3E-05 Ry
     Gradient error          =      1.2E-03 Ry/Bohr

     number of scf cycles    =  15
     number of bfgs steps    =  14

     energy             old  =    -275.3803313010 Ry
     energy             new  =    -275.3803539561 Ry

     CASE: energy            _new < energy            _old

     new trust radius        =       0.0065098927 bohr
     new conv_thr            =            1.0E-10 Ry


ATOMIC_POSITIONS (angstrom)
C               -8.1927987057        4.8794899669        0.1783430749
C               -6.8251798718        5.0681354832       -0.4451439154
H               -8.9492076378        5.0792471218       -0.5908589685
H               -8.3131565776        3.8514370066        0.5413427000
H               -8.3369288696        5.5771782886        1.0124170260
C               -5.6455140044        4.8415873294        0.5013384360
F               -6.7183174382        4.2084971360       -1.5352701237
H               -5.7284980114        3.8283324529        0.9187989942
C               -4.2346869060        4.9831297791       -0.0528835180
F               -6.7567440426        6.3574978168       -0.9677278435
H               -5.7385391705        5.5490551099        1.3374402259
F               -4.0068040641        6.2430234200       -0.5707532562
F               -3.9827961583        4.0711941960       -1.0595478084
H               -3.4793182157        4.8146729643        0.7318009960



     Writing config-only to output data dir ./tmp/pvdf_dimer.save/ :
     XML data file
     NEW-OLD atomic charge density approx. for the potential

     negative rho (up, down):  5.134E-03 0.000E+00

     total cpu time spent up to now is     3318.8 secs

     Self-consistent Calculation

     iteration #  1     ecut=    60.00 Ry     beta= 0.30
     Davidson diagonalization with overlap
     ethr =  1.00E-06,  avg # of iterations =  3.0

     Threshold (ethr) on eigenvalues was too large:
     Diagonalizing with lowered threshold

     Davidson diagonalization with overlap
     ethr =  1.47E-08,  avg # of iterations =  4.0

     negative rho (up, down):  5.133E-03 0.000E+00

     total cpu time spent up to now is     3349.0 secs

     total energy              =    -275.38037138 Ry
     estimated scf accuracy    <       0.00000939 Ry

     iteration #  2     ecut=    60.00 Ry     beta= 0.30
     Davidson diagonalization with overlap
     ethr =  1.88E-08,  avg # of iterations =  1.0

     negative rho (up, down):  5.133E-03 0.000E+00

     total cpu time spent up to now is     3363.9 secs

     total energy              =    -275.38037112 Ry
     estimated scf accuracy    <       0.00000355 Ry

     iteration #  3     ecut=    60.00 Ry     beta= 0.30
     Davidson diagonalization with overlap
     ethr =  7.09E-09,  avg # of iterations =  2.0

     negative rho (up, down):  5.132E-03 0.000E+00

     total cpu time spent up to now is     3381.0 secs

     total energy              =    -275.38037144 Ry
     estimated scf accuracy    <       0.00000040 Ry

     iteration #  4     ecut=    60.00 Ry     beta= 0.30
     Davidson diagonalization with overlap
     ethr =  8.08E-10,  avg # of iterations =  2.0

     negative rho (up, down):  5.132E-03 0.000E+00

     total cpu time spent up to now is     3396.3 secs

     total energy              =    -275.38037146 Ry
     estimated scf accuracy    <       0.00000008 Ry

     iteration #  5     ecut=    60.00 Ry     beta= 0.30
     Davidson diagonalization with overlap
     ethr =  1.52E-10,  avg # of iterations =  3.0

     negative rho (up, down):  5.132E-03 0.000E+00

     total cpu time spent up to now is     3414.6 secs

     total energy              =    -275.38037147 Ry
     estimated scf accuracy    <       0.00000001 Ry

     iteration #  6     ecut=    60.00 Ry     beta= 0.30
     Davidson diagonalization with overlap
     ethr =  2.70E-11,  avg # of iterations =  3.0

     negative rho (up, down):  5.132E-03 0.000E+00

     total cpu time spent up to now is     3433.8 secs

     total energy              =    -275.38037147 Ry
     estimated scf accuracy    <          6.5E-09 Ry

     iteration #  7     ecut=    60.00 Ry     beta= 0.30
     Davidson diagonalization with overlap
     ethr =  1.29E-11,  avg # of iterations =  2.0

     negative rho (up, down):  5.132E-03 0.000E+00

     total cpu time spent up to now is     3450.0 secs

     total energy              =    -275.38037147 Ry
     estimated scf accuracy    <          1.0E-09 Ry

     iteration #  8     ecut=    60.00 Ry     beta= 0.30
     Davidson diagonalization with overlap
     ethr =  2.00E-12,  avg # of iterations =  3.0

     negative rho (up, down):  5.132E-03 0.000E+00

     total cpu time spent up to now is     3467.3 secs

     End of self-consistent calculation

          k = 0.0000 0.0000 0.0000 (211851 PWs)   bands (ev):

   -31.2540 -31.0327 -29.7771 -29.5836 -20.4115 -18.8385 -16.5919 -15.2561
   -13.5873 -13.5693 -13.1092 -13.0513 -12.1034 -11.5758 -10.8828 -10.5068
   -10.1116  -9.6796  -9.6468  -9.3862  -9.2063  -9.1445  -8.9726  -8.5187
    -7.6283

     highest occupied level (ev):    -7.6283

!    total energy              =    -275.38037148 Ry
     estimated scf accuracy    <          5.1E-11 Ry

     The total energy is the sum of the following terms:
     one-electron contribution =   -1007.94047386 Ry
     hartree contribution      =     513.06470897 Ry
     xc contribution           =     -60.00359273 Ry
     ewald contribution        =     304.15107347 Ry
     one-center paw contrib.   =     -24.65208732 Ry

     convergence has been achieved in   8 iterations

     negative rho (up, down):  5.132E-03 0.000E+00

     Forces acting on atoms (cartesian axes, Ry/au):

     atom    1 type  1   force =     0.00075136    0.00012586   -0.00025739
     atom    2 type  1   force =     0.00036439    0.00036323   -0.00144408
     atom    3 type  2   force =     0.00004348   -0.00037624    0.00126762
     atom    4 type  2   force =     0.00063506    0.00019159   -0.00017393
     atom    5 type  2   force =     0.00058596    0.00000774   -0.00026936
     atom    6 type  1   force =    -0.00021891    0.00010464    0.00022129
     atom    7 type  3   force =    -0.00058709   -0.00033123   -0.00048062
     atom    8 type  2   force =    -0.00055864   -0.00041453    0.00040248
     atom    9 type  1   force =     0.00037210    0.00007792   -0.00038640
     atom   10 type  3   force =    -0.00061468    0.00052701   -0.00015811
     atom   11 type  2   force =    -0.00054275    0.00001266    0.00043848
     atom   12 type  3   force =    -0.00013260    0.00002945    0.00002667
     atom   13 type  3   force =    -0.00013394   -0.00011361    0.00007252
     atom   14 type  2   force =     0.00003627   -0.00020448    0.00074083

     Total force =     0.003030     Total SCF correction =     0.000013


     Computing stress (Cartesian axis) and pressure


     negative rho (up, down):  5.132E-03 0.000E+00
          total   stress  (Ry/bohr**3)                   (kbar)     P=       -0.02
  -0.00000024  -0.00000002   0.00000004           -0.04       -0.00        0.01
  -0.00000002  -0.00000003  -0.00000001           -0.00       -0.00       -0.00
   0.00000004  -0.00000001  -0.00000003            0.01       -0.00       -0.00

     Energy error            =      1.8E-05 Ry
     Gradient error          =      1.4E-03 Ry/Bohr

     number of scf cycles    =  16
     number of bfgs steps    =  15

     energy             old  =    -275.3803539561 Ry
     energy             new  =    -275.3803714759 Ry

     CASE: energy            _new < energy            _old

     new trust radius        =       0.0058734580 bohr
     new conv_thr            =            1.0E-10 Ry


ATOMIC_POSITIONS (angstrom)
C               -8.1919562489        4.8797520478        0.1776261535
C               -6.8255050299        5.0684598927       -0.4462762024
H               -8.9503496993        5.0786567879       -0.5891381548
H               -8.3108904275        3.8525771011        0.5422004661
H               -8.3347060203        5.5760308389        1.0124771943
C               -5.6462386645        4.8418614769        0.5005461218
F               -6.7194280435        4.2083703918       -1.5360907504
H               -5.7288142689        3.8282504099        0.9179770341
C               -4.2351687671        4.9830774145       -0.0528735457
F               -6.7578459800        6.3581545012       -0.9681088671
H               -5.7388558628        5.5492893438        1.3366901847
F               -4.0053836050        6.2427203018       -0.5703523548
F               -3.9814770216        4.0710580583       -1.0588977392
H               -3.4818700343        4.8142195048        0.7335164792



     Writing config-only to output data dir ./tmp/pvdf_dimer.save/ :
     XML data file
     NEW-OLD atomic charge density approx. for the potential

     negative rho (up, down):  5.133E-03 0.000E+00

     total cpu time spent up to now is     3512.4 secs

     Self-consistent Calculation

     iteration #  1     ecut=    60.00 Ry     beta= 0.30
     Davidson diagonalization with overlap
     ethr =  1.00E-06,  avg # of iterations =  2.0

     Threshold (ethr) on eigenvalues was too large:
     Diagonalizing with lowered threshold

     Davidson diagonalization with overlap
     ethr =  1.49E-08,  avg # of iterations =  4.0

     negative rho (up, down):  5.132E-03 0.000E+00

     total cpu time spent up to now is     3542.5 secs

     total energy              =    -275.38038516 Ry
     estimated scf accuracy    <       0.00000941 Ry

     iteration #  2     ecut=    60.00 Ry     beta= 0.30
     Davidson diagonalization with overlap
     ethr =  1.88E-08,  avg # of iterations =  2.0

     negative rho (up, down):  5.131E-03 0.000E+00

     total cpu time spent up to now is     3558.9 secs

     total energy              =    -275.38038513 Ry
     estimated scf accuracy    <       0.00000318 Ry

     iteration #  3     ecut=    60.00 Ry     beta= 0.30
     Davidson diagonalization with overlap
     ethr =  6.36E-09,  avg # of iterations =  2.0

     negative rho (up, down):  5.131E-03 0.000E+00

     total cpu time spent up to now is     3576.0 secs

     total energy              =    -275.38038540 Ry
     estimated scf accuracy    <       0.00000053 Ry

     iteration #  4     ecut=    60.00 Ry     beta= 0.30
     Davidson diagonalization with overlap
     ethr =  1.06E-09,  avg # of iterations =  1.0

     negative rho (up, down):  5.131E-03 0.000E+00

     total cpu time spent up to now is     3591.8 secs

     total energy              =    -275.38038543 Ry
     estimated scf accuracy    <       0.00000008 Ry

     iteration #  5     ecut=    60.00 Ry     beta= 0.30
     Davidson diagonalization with overlap
     ethr =  1.53E-10,  avg # of iterations =  2.0

     negative rho (up, down):  5.131E-03 0.000E+00

     total cpu time spent up to now is     3609.7 secs

     total energy              =    -275.38038544 Ry
     estimated scf accuracy    <          8.4E-09 Ry

     iteration #  6     ecut=    60.00 Ry     beta= 0.30
     Davidson diagonalization with overlap
     ethr =  1.69E-11,  avg # of iterations =  3.0

     negative rho (up, down):  5.131E-03 0.000E+00

     total cpu time spent up to now is     3627.5 secs

     total energy              =    -275.38038544 Ry
     estimated scf accuracy    <          5.5E-09 Ry

     iteration #  7     ecut=    60.00 Ry     beta= 0.30
     Davidson diagonalization with overlap
     ethr =  1.10E-11,  avg # of iterations =  2.0

     negative rho (up, down):  5.131E-03 0.000E+00

     total cpu time spent up to now is     3644.8 secs

     total energy              =    -275.38038544 Ry
     estimated scf accuracy    <          1.9E-10 Ry

     iteration #  8     ecut=    60.00 Ry     beta= 0.30
     Davidson diagonalization with overlap
     ethr =  3.83E-13,  avg # of iterations =  5.0

     negative rho (up, down):  5.131E-03 0.000E+00

     total cpu time spent up to now is     3663.3 secs

     total energy              =    -275.38038544 Ry
     estimated scf accuracy    <          1.8E-10 Ry

     iteration #  9     ecut=    60.00 Ry     beta= 0.30
     Davidson diagonalization with overlap
     ethr =  3.64E-13,  avg # of iterations =  2.0

     negative rho (up, down):  5.131E-03 0.000E+00

     total cpu time spent up to now is     3679.5 secs

     End of self-consistent calculation

          k = 0.0000 0.0000 0.0000 (211851 PWs)   bands (ev):

   -31.2553 -31.0338 -29.7783 -29.5865 -20.4155 -18.8429 -16.5922 -15.2577
   -13.5892 -13.5713 -13.1114 -13.0526 -12.1058 -11.5774 -10.8833 -10.5057
   -10.1167  -9.6803  -9.6487  -9.3869  -9.2084  -9.1452  -8.9750  -8.5196
    -7.6286

     highest occupied level (ev):    -7.6286

!    total energy              =    -275.38038544 Ry
     estimated scf accuracy    <          1.6E-11 Ry

     The total energy is the sum of the following terms:
     one-electron contribution =   -1007.85904281 Ry
     hartree contribution      =     513.02204187 Ry
     xc contribution           =     -60.00542909 Ry
     ewald contribution        =     304.11416843 Ry
     one-center paw contrib.   =     -24.65212385 Ry

     convergence has been achieved in   9 iterations

     negative rho (up, down):  5.131E-03 0.000E+00

     Forces acting on atoms (cartesian axes, Ry/au):

     atom    1 type  1   force =     0.00049315   -0.00016366    0.00055917
     atom    2 type  1   force =     0.00028979    0.00039045   -0.00134466
     atom    3 type  2   force =    -0.00017427   -0.00023137    0.00075831
     atom    4 type  2   force =     0.00050230   -0.00052094   -0.00023188
     atom    5 type  2   force =     0.00043453    0.00067063    0.00006043
     atom    6 type  1   force =    -0.00001937   -0.00018405   -0.00009968
     atom    7 type  3   force =    -0.00027382   -0.00009256   -0.00063365
     atom    8 type  2   force =    -0.00064205   -0.00007430    0.00026740
     atom    9 type  1   force =     0.00065462    0.00004036   -0.00008985
     atom   10 type  3   force =    -0.00030310    0.00042439   -0.00044504
     atom   11 type  2   force =    -0.00064699    0.00002018    0.00042766
     atom   12 type  3   force =    -0.00033176    0.00008192    0.00000874
     atom   13 type  3   force =    -0.00034296   -0.00016673    0.00001469
     atom   14 type  2   force =     0.00035992   -0.00019433    0.00074835

     Total force =     0.002833     Total SCF correction =     0.000008


     Computing stress (Cartesian axis) and pressure


     negative rho (up, down):  5.131E-03 0.000E+00
          total   stress  (Ry/bohr**3)                   (kbar)     P=       -0.01
  -0.00000017  -0.00000001   0.00000003           -0.03       -0.00        0.00
  -0.00000001  -0.00000001  -0.00000000           -0.00       -0.00       -0.00
   0.00000003  -0.00000000   0.00000000            0.00       -0.00        0.00

     Energy error            =      1.4E-05 Ry
     Gradient error          =      1.3E-03 Ry/Bohr

     number of scf cycles    =  17
     number of bfgs steps    =  16

     energy             old  =    -275.3803714759 Ry
     energy             new  =    -275.3803854439 Ry

     CASE: energy            _new < energy            _old

     new trust radius        =       0.0057143155 bohr
     new conv_thr            =            1.0E-10 Ry


ATOMIC_POSITIONS (angstrom)
C               -8.1907047146        4.8798453736        0.1774313711
C               -6.8256360257        5.0689831115       -0.4480205894
H               -8.9515680836        5.0779472028       -0.5870144083
H               -8.3083612598        3.8533421697        0.5427878000
H               -8.3322639993        5.5754095894        1.0125055791
C               -5.6468806199        4.8418934971        0.4997170620
F               -6.7205778034        4.2082053522       -1.5373810887
H               -5.7295868704        3.8282236245        0.9173601471
C               -4.2352990404        4.9830178360       -0.0527254125
F               -6.7590119549        6.3590934986       -0.9688644500
H               -5.7396376499        5.5495109540        1.3362785681
F               -4.0043582374        6.2424956247       -0.5700132714
F               -3.9805615024        4.0708306872       -1.0583153059
H               -3.4840419120        4.8136795502        0.7355500180



     Writing config-only to output data dir ./tmp/pvdf_dimer.save/ :
     XML data file
     NEW-OLD atomic charge density approx. for the potential

     negative rho (up, down):  5.131E-03 0.000E+00

     total cpu time spent up to now is     3725.3 secs

     Self-consistent Calculation

     iteration #  1     ecut=    60.00 Ry     beta= 0.30
     Davidson diagonalization with overlap
     ethr =  1.00E-06,  avg # of iterations =  2.0

     Threshold (ethr) on eigenvalues was too large:
     Diagonalizing with lowered threshold

     Davidson diagonalization with overlap
     ethr =  1.94E-08,  avg # of iterations =  4.0

     negative rho (up, down):  5.130E-03 0.000E+00

     total cpu time spent up to now is     3755.7 secs

     total energy              =    -275.38039812 Ry
     estimated scf accuracy    <       0.00001134 Ry

     iteration #  2     ecut=    60.00 Ry     beta= 0.30
     Davidson diagonalization with overlap
     ethr =  2.27E-08,  avg # of iterations =  2.0

     negative rho (up, down):  5.130E-03 0.000E+00

     total cpu time spent up to now is     3772.2 secs

     total energy              =    -275.38039822 Ry
     estimated scf accuracy    <       0.00000372 Ry

     iteration #  3     ecut=    60.00 Ry     beta= 0.30
     Davidson diagonalization with overlap
     ethr =  7.45E-09,  avg # of iterations =  2.0

     negative rho (up, down):  5.129E-03 0.000E+00

     total cpu time spent up to now is     3788.1 secs

     total energy              =    -275.38039846 Ry
     estimated scf accuracy    <       0.00000070 Ry

     iteration #  4     ecut=    60.00 Ry     beta= 0.30
     Davidson diagonalization with overlap
     ethr =  1.39E-09,  avg # of iterations =  2.0

     negative rho (up, down):  5.129E-03 0.000E+00

     total cpu time spent up to now is     3804.1 secs

     total energy              =    -275.38039851 Ry
     estimated scf accuracy    <       0.00000006 Ry

     iteration #  5     ecut=    60.00 Ry     beta= 0.30
     Davidson diagonalization with overlap
     ethr =  1.14E-10,  avg # of iterations =  2.0

     negative rho (up, down):  5.129E-03 0.000E+00

     total cpu time spent up to now is     3822.0 secs

     total energy              =    -275.38039851 Ry
     estimated scf accuracy    <          7.0E-09 Ry

     iteration #  6     ecut=    60.00 Ry     beta= 0.30
     Davidson diagonalization with overlap
     ethr =  1.41E-11,  avg # of iterations =  2.0

     negative rho (up, down):  5.129E-03 0.000E+00

     total cpu time spent up to now is     3838.9 secs

     total energy              =    -275.38039852 Ry
     estimated scf accuracy    <          1.1E-09 Ry

     iteration #  7     ecut=    60.00 Ry     beta= 0.30
     Davidson diagonalization with overlap
     ethr =  2.21E-12,  avg # of iterations =  2.0

     negative rho (up, down):  5.129E-03 0.000E+00

     total cpu time spent up to now is     3856.5 secs

     total energy              =    -275.38039852 Ry
     estimated scf accuracy    <          1.3E-10 Ry

     iteration #  8     ecut=    60.00 Ry     beta= 0.30
     Davidson diagonalization with overlap
     ethr =  2.66E-13,  avg # of iterations =  3.0

     negative rho (up, down):  5.129E-03 0.000E+00

     total cpu time spent up to now is     3874.5 secs

     End of self-consistent calculation

          k = 0.0000 0.0000 0.0000 (211851 PWs)   bands (ev):

   -31.2562 -31.0348 -29.7798 -29.5905 -20.4169 -18.8444 -16.5910 -15.2592
   -13.5906 -13.5729 -13.1137 -13.0524 -12.1068 -11.5792 -10.8824 -10.5069
   -10.1176  -9.6809  -9.6497  -9.3879  -9.2115  -9.1462  -8.9789  -8.5203
    -7.6279

     highest occupied level (ev):    -7.6279

!    total energy              =    -275.38039852 Ry
     estimated scf accuracy    <          6.8E-11 Ry

     The total energy is the sum of the following terms:
     one-electron contribution =   -1007.72857450 Ry
     hartree contribution      =     512.95477358 Ry
     xc contribution           =     -60.00574595 Ry
     ewald contribution        =     304.05127000 Ry
     one-center paw contrib.   =     -24.65212164 Ry

     convergence has been achieved in   8 iterations

     negative rho (up, down):  5.129E-03 0.000E+00

     Forces acting on atoms (cartesian axes, Ry/au):

     atom    1 type  1   force =    -0.00011576   -0.00008177    0.00046159
     atom    2 type  1   force =     0.00016610    0.00016598   -0.00065405
     atom    3 type  2   force =    -0.00007147   -0.00017799    0.00057580
     atom    4 type  2   force =     0.00044325   -0.00119603   -0.00011233
     atom    5 type  2   force =     0.00037103    0.00113346    0.00044194
     atom    6 type  1   force =     0.00017917    0.00027418   -0.00026335
     atom    7 type  3   force =     0.00000623    0.00032114   -0.00072088
     atom    8 type  2   force =    -0.00069071    0.00009172    0.00009030
     atom    9 type  1   force =     0.00049945   -0.00011665    0.00029987
     atom   10 type  3   force =     0.00001520    0.00011964   -0.00071347
     atom   11 type  2   force =    -0.00066118   -0.00029211   -0.00005103
     atom   12 type  3   force =    -0.00039936   -0.00000116    0.00007666
     atom   13 type  3   force =    -0.00037281   -0.00012492    0.00006261
     atom   14 type  2   force =     0.00063088   -0.00011549    0.00050635

     Total force =     0.002833     Total SCF correction =     0.000024


     Computing stress (Cartesian axis) and pressure


     negative rho (up, down):  5.129E-03 0.000E+00
          total   stress  (Ry/bohr**3)                   (kbar)     P=       -0.01
  -0.00000013  -0.00000000   0.00000001           -0.02       -0.00        0.00
  -0.00000000  -0.00000002  -0.00000001           -0.00       -0.00       -0.00
   0.00000001  -0.00000001  -0.00000002            0.00       -0.00       -0.00

     Energy error            =      1.3E-05 Ry
     Gradient error          =      1.2E-03 Ry/Bohr

     number of scf cycles    =  18
     number of bfgs steps    =  17

     energy             old  =    -275.3803854439 Ry
     energy             new  =    -275.3803985190 Ry

     CASE: energy            _new < energy            _old

     new trust radius        =       0.0063111296 bohr
     new conv_thr            =            1.0E-10 Ry


ATOMIC_POSITIONS (angstrom)
C               -8.1894022962        4.8799564264        0.1773911842
C               -6.8256469132        5.0696496733       -0.4503531663
H               -8.9529071913        5.0769924501       -0.5841117071
H               -8.3050709912        3.8533932252        0.5433580299
H               -8.3291227087        5.5754791119        1.0128060190
C               -5.6475097100        4.8422306528        0.4986880583
F               -6.7218416576        4.2082772345       -1.5393786959
H               -5.7310097445        3.8282414950        0.9167738766
C               -4.2352309830        4.9828455826       -0.0523270592
F               -6.7602832451        6.3602245947       -0.9702582295
H               -5.7410406800        5.5494628966        1.3357445985
F               -4.0035656182        6.2422214985       -0.5695663988
F               -3.9798650693        4.0704976145       -1.0576018212
H               -3.4859928655        4.8130056152        0.7381313307



     Writing config-only to output data dir ./tmp/pvdf_dimer.save/ :
     XML data file
     NEW-OLD atomic charge density approx. for the potential

     negative rho (up, down):  5.129E-03 0.000E+00

     total cpu time spent up to now is     3920.0 secs

     Self-consistent Calculation

     iteration #  1     ecut=    60.00 Ry     beta= 0.30
     Davidson diagonalization with overlap
     ethr =  1.00E-06,  avg # of iterations =  3.0

     Threshold (ethr) on eigenvalues was too large:
     Diagonalizing with lowered threshold

     Davidson diagonalization with overlap
     ethr =  2.93E-08,  avg # of iterations =  4.0

     negative rho (up, down):  5.128E-03 0.000E+00

     total cpu time spent up to now is     3950.9 secs

     total energy              =    -275.38041293 Ry
     estimated scf accuracy    <       0.00001575 Ry

     iteration #  2     ecut=    60.00 Ry     beta= 0.30
     Davidson diagonalization with overlap
     ethr =  3.15E-08,  avg # of iterations =  2.0

     negative rho (up, down):  5.128E-03 0.000E+00

     total cpu time spent up to now is     3968.4 secs

     total energy              =    -275.38041311 Ry
     estimated scf accuracy    <       0.00000563 Ry

     iteration #  3     ecut=    60.00 Ry     beta= 0.30
     Davidson diagonalization with overlap
     ethr =  1.13E-08,  avg # of iterations =  2.0

     negative rho (up, down):  5.128E-03 0.000E+00

     total cpu time spent up to now is     3985.3 secs

     total energy              =    -275.38041337 Ry
     estimated scf accuracy    <       0.00000107 Ry

     iteration #  4     ecut=    60.00 Ry     beta= 0.30
     Davidson diagonalization with overlap
     ethr =  2.14E-09,  avg # of iterations =  2.0

     negative rho (up, down):  5.128E-03 0.000E+00

     total cpu time spent up to now is     4002.0 secs

     total energy              =    -275.38041344 Ry
     estimated scf accuracy    <       0.00000007 Ry

     iteration #  5     ecut=    60.00 Ry     beta= 0.30
     Davidson diagonalization with overlap
     ethr =  1.32E-10,  avg # of iterations =  2.0

     negative rho (up, down):  5.127E-03 0.000E+00

     total cpu time spent up to now is     4019.0 secs

     total energy              =    -275.38041344 Ry
     estimated scf accuracy    <          9.8E-09 Ry

     iteration #  6     ecut=    60.00 Ry     beta= 0.30
     Davidson diagonalization with overlap
     ethr =  1.95E-11,  avg # of iterations =  2.0

     negative rho (up, down):  5.127E-03 0.000E+00

     total cpu time spent up to now is     4036.9 secs

     total energy              =    -275.38041345 Ry
     estimated scf accuracy    <          1.1E-09 Ry

     iteration #  7     ecut=    60.00 Ry     beta= 0.30
     Davidson diagonalization with overlap
     ethr =  2.15E-12,  avg # of iterations =  2.0

     negative rho (up, down):  5.128E-03 0.000E+00

     total cpu time spent up to now is     4055.0 secs

     total energy              =    -275.38041345 Ry
     estimated scf accuracy    <          1.5E-10 Ry

     iteration #  8     ecut=    60.00 Ry     beta= 0.30
     Davidson diagonalization with overlap
     ethr =  2.97E-13,  avg # of iterations =  3.0

     negative rho (up, down):  5.128E-03 0.000E+00

     total cpu time spent up to now is     4072.9 secs

     End of self-consistent calculation

          k = 0.0000 0.0000 0.0000 (211851 PWs)   bands (ev):

   -31.2572 -31.0353 -29.7816 -29.5939 -20.4173 -18.8435 -16.5891 -15.2604
   -13.5915 -13.5739 -13.1160 -13.0520 -12.1059 -11.5811 -10.8801 -10.5079
   -10.1189  -9.6812  -9.6509  -9.3888  -9.2148  -9.1471  -8.9826  -8.5208
    -7.6270

     highest occupied level (ev):    -7.6270

!    total energy              =    -275.38041345 Ry
     estimated scf accuracy    <          5.6E-11 Ry

     The total energy is the sum of the following terms:
     one-electron contribution =   -1007.55779922 Ry
     hartree contribution      =     512.86728991 Ry
     xc contribution           =     -60.00482261 Ry
     ewald contribution        =     303.96701126 Ry
     one-center paw contrib.   =     -24.65209279 Ry

     convergence has been achieved in   8 iterations

     negative rho (up, down):  5.128E-03 0.000E+00

     Forces acting on atoms (cartesian axes, Ry/au):

     atom    1 type  1   force =    -0.00017074   -0.00030619    0.00092063
     atom    2 type  1   force =    -0.00018753    0.00000587    0.00018176
     atom    3 type  2   force =    -0.00026230   -0.00004037    0.00008930
     atom    4 type  2   force =     0.00038940   -0.00114732   -0.00009018
     atom    5 type  2   force =     0.00032539    0.00111832    0.00047388
     atom    6 type  1   force =     0.00022443   -0.00006226   -0.00047034
     atom    7 type  3   force =     0.00030057    0.00078446   -0.00064959
     atom    8 type  2   force =    -0.00064740    0.00062480   -0.00030266
     atom    9 type  1   force =     0.00020574   -0.00019873    0.00077135
     atom   10 type  3   force =     0.00032168   -0.00027851   -0.00092785
     atom   11 type  2   force =    -0.00063432   -0.00032320   -0.00037099
     atom   12 type  3   force =    -0.00030895   -0.00013449    0.00018073
     atom   13 type  3   force =    -0.00030527   -0.00005465    0.00019741
     atom   14 type  2   force =     0.00074930    0.00001226   -0.00000346

     Total force =     0.003112     Total SCF correction =     0.000016


     Computing stress (Cartesian axis) and pressure


     negative rho (up, down):  5.128E-03 0.000E+00
          total   stress  (Ry/bohr**3)                   (kbar)     P=       -0.01
  -0.00000010   0.00000000  -0.00000001           -0.01        0.00       -0.00
   0.00000000  -0.00000008  -0.00000001            0.00       -0.01       -0.00
  -0.00000001  -0.00000001  -0.00000006           -0.00       -0.00       -0.01

     Energy error            =      1.5E-05 Ry
     Gradient error          =      1.1E-03 Ry/Bohr

     number of scf cycles    =  19
     number of bfgs steps    =  18

     energy             old  =    -275.3803985190 Ry
     energy             new  =    -275.3804134522 Ry

     CASE: energy            _new < energy            _old

     new trust radius        =       0.0085183094 bohr
     new conv_thr            =            1.0E-10 Ry


ATOMIC_POSITIONS (angstrom)
C               -8.1878319786        4.8798198082        0.1780907587
C               -6.8258137658        5.0705354610       -0.4532586973
H               -8.9547556070        5.0757991663       -0.5805135305
H               -8.3006436590        3.8527854601        0.5439485099
H               -8.3249253245        5.5762827957        1.0134192077
C               -5.6482376350        4.8424361661        0.4971863172
F               -6.7231918660        4.2089475304       -1.5422444684
H               -5.7332820206        3.8287595772        0.9158913804
C               -4.2349953597        4.9825386889       -0.0514176367
F               -6.7616340730        6.3613766335       -0.9726106727
H               -5.7432886133        5.5491882200        1.3349400178
F               -4.0028671958        6.2417690601       -0.5688420995
F               -3.9792898864        4.0700419169       -1.0565303895
H               -3.4877326890        4.8121975870        0.7412373222



     Writing config-only to output data dir ./tmp/pvdf_dimer.save/ :
     XML data file
     NEW-OLD atomic charge density approx. for the potential

     negative rho (up, down):  5.127E-03 0.000E+00

     total cpu time spent up to now is     4117.6 secs

     Self-consistent Calculation

     iteration #  1     ecut=    60.00 Ry     beta= 0.30
     Davidson diagonalization with overlap
     ethr =  1.00E-06,  avg # of iterations =  3.0

     Threshold (ethr) on eigenvalues was too large:
     Diagonalizing with lowered threshold

     Davidson diagonalization with overlap
     ethr =  4.76E-08,  avg # of iterations =  2.0

     negative rho (up, down):  5.126E-03 0.000E+00

     total cpu time spent up to now is     4144.1 secs

     total energy              =    -275.38043077 Ry
     estimated scf accuracy    <       0.00002508 Ry

     iteration #  2     ecut=    60.00 Ry     beta= 0.30
     Davidson diagonalization with overlap
     ethr =  5.02E-08,  avg # of iterations =  2.0

     negative rho (up, down):  5.126E-03 0.000E+00

     total cpu time spent up to now is     4158.7 secs

     total energy              =    -275.38043080 Ry
     estimated scf accuracy    <       0.00000953 Ry

     iteration #  3     ecut=    60.00 Ry     beta= 0.30
     Davidson diagonalization with overlap
     ethr =  1.91E-08,  avg # of iterations =  2.0

     negative rho (up, down):  5.126E-03 0.000E+00

     total cpu time spent up to now is     4172.9 secs

     total energy              =    -275.38043133 Ry
     estimated scf accuracy    <       0.00000159 Ry

     iteration #  4     ecut=    60.00 Ry     beta= 0.30
     Davidson diagonalization with overlap
     ethr =  3.17E-09,  avg # of iterations =  2.0

     negative rho (up, down):  5.126E-03 0.000E+00

     total cpu time spent up to now is     4187.9 secs

     total energy              =    -275.38043144 Ry
     estimated scf accuracy    <       0.00000012 Ry

     iteration #  5     ecut=    60.00 Ry     beta= 0.30
     Davidson diagonalization with overlap
     ethr =  2.39E-10,  avg # of iterations =  2.0

     negative rho (up, down):  5.126E-03 0.000E+00

     total cpu time spent up to now is     4203.6 secs

     total energy              =    -275.38043145 Ry
     estimated scf accuracy    <       0.00000002 Ry

     iteration #  6     ecut=    60.00 Ry     beta= 0.30
     Davidson diagonalization with overlap
     ethr =  3.47E-11,  avg # of iterations =  2.0

     negative rho (up, down):  5.126E-03 0.000E+00

     total cpu time spent up to now is     4219.8 secs

     total energy              =    -275.38043145 Ry
     estimated scf accuracy    <          1.8E-09 Ry

     iteration #  7     ecut=    60.00 Ry     beta= 0.30
     Davidson diagonalization with overlap
     ethr =  3.55E-12,  avg # of iterations =  2.0

     negative rho (up, down):  5.126E-03 0.000E+00

     total cpu time spent up to now is     4236.4 secs

     total energy              =    -275.38043146 Ry
     estimated scf accuracy    <          3.3E-10 Ry

     iteration #  8     ecut=    60.00 Ry     beta= 0.30
     Davidson diagonalization with overlap
     ethr =  6.59E-13,  avg # of iterations =  2.0

     negative rho (up, down):  5.126E-03 0.000E+00

     total cpu time spent up to now is     4254.5 secs

     total energy              =    -275.38043146 Ry
     estimated scf accuracy    <          1.2E-10 Ry

     iteration #  9     ecut=    60.00 Ry     beta= 0.30
     Davidson diagonalization with overlap
     ethr =  2.40E-13,  avg # of iterations =  2.0

     negative rho (up, down):  5.126E-03 0.000E+00

     total cpu time spent up to now is     4272.2 secs

     End of self-consistent calculation

          k = 0.0000 0.0000 0.0000 (211851 PWs)   bands (ev):

   -31.2578 -31.0360 -29.7826 -29.5963 -20.4178 -18.8414 -16.5863 -15.2614
   -13.5917 -13.5746 -13.1176 -13.0518 -12.1037 -11.5830 -10.8766 -10.5116
   -10.1182  -9.6810  -9.6514  -9.3900  -9.2182  -9.1476  -8.9856  -8.5208
    -7.6263

     highest occupied level (ev):    -7.6263

!    total energy              =    -275.38043146 Ry
     estimated scf accuracy    <          1.8E-11 Ry

     The total energy is the sum of the following terms:
     one-electron contribution =   -1007.36972198 Ry
     hartree contribution      =     512.77143014 Ry
     xc contribution           =     -60.00324128 Ry
     ewald contribution        =     303.87315319 Ry
     one-center paw contrib.   =     -24.65205152 Ry

     convergence has been achieved in   9 iterations

     negative rho (up, down):  5.126E-03 0.000E+00

     Forces acting on atoms (cartesian axes, Ry/au):

     atom    1 type  1   force =    -0.00048678   -0.00009642    0.00049821
     atom    2 type  1   force =    -0.00025493   -0.00025044    0.00098574
     atom    3 type  2   force =    -0.00001243   -0.00005107    0.00012855
     atom    4 type  2   force =     0.00027399   -0.00088764    0.00009087
     atom    5 type  2   force =     0.00023740    0.00072032    0.00041945
     atom    6 type  1   force =     0.00012454    0.00031199   -0.00046731
     atom    7 type  3   force =     0.00044574    0.00111643   -0.00046401
     atom    8 type  2   force =    -0.00057554    0.00060215   -0.00056796
     atom    9 type  1   force =    -0.00030511   -0.00029744    0.00095472
     atom   10 type  3   force =     0.00049803   -0.00065234   -0.00092171
     atom   11 type  2   force =    -0.00052076   -0.00040460   -0.00082977
     atom   12 type  3   force =    -0.00012160   -0.00025321    0.00035086
     atom   13 type  3   force =    -0.00009883   -0.00000936    0.00037642
     atom   14 type  2   force =     0.00079630    0.00015164   -0.00055407

     Total force =     0.003362     Total SCF correction =     0.000017


     Computing stress (Cartesian axis) and pressure


     negative rho (up, down):  5.126E-03 0.000E+00
          total   stress  (Ry/bohr**3)                   (kbar)     P=       -0.02
  -0.00000009   0.00000001  -0.00000004           -0.01        0.00       -0.01
   0.00000001  -0.00000014  -0.00000001            0.00       -0.02       -0.00
  -0.00000004  -0.00000001  -0.00000014           -0.01       -0.00       -0.02

     Energy error            =      1.8E-05 Ry
     Gradient error          =      1.1E-03 Ry/Bohr

     number of scf cycles    =  20
     number of bfgs steps    =  19

     energy             old  =    -275.3804134522 Ry
     energy             new  =    -275.3804314568 Ry

     CASE: energy            _new < energy            _old

     new trust radius        =       0.0094164771 bohr
     new conv_thr            =            1.0E-10 Ry


ATOMIC_POSITIONS (angstrom)
C               -8.1866539426        4.8796636880        0.1790917579
C               -6.8260667582        5.0713533181       -0.4559226310
H               -8.9565950991        5.0745037584       -0.5766142360
H               -8.2958677763        3.8515455118        0.5446439334
H               -8.3204139730        5.5775817578        1.0143398308
C               -5.6490260686        4.8429490979        0.4953814788
F               -6.7243665143        4.2104142157       -1.5454563582
H               -5.7360832684        3.8295824145        0.9146712775
C               -4.2348493532        4.9820662007       -0.0500776360
F               -6.7627723971        6.3620773802       -0.9756079254
H               -5.7460180403        5.5486320494        1.3336018961
F               -4.0022178821        6.2411195211       -0.5677729747
F               -3.9787439938        4.0695320233       -1.0550909518
H               -3.4888146068        4.8114571343        0.7441085576



     Writing config-only to output data dir ./tmp/pvdf_dimer.save/ :
     XML data file
     NEW-OLD atomic charge density approx. for the potential

     negative rho (up, down):  5.125E-03 0.000E+00

     total cpu time spent up to now is     4318.6 secs

     Self-consistent Calculation

     iteration #  1     ecut=    60.00 Ry     beta= 0.30
     Davidson diagonalization with overlap
     ethr =  1.00E-06,  avg # of iterations =  3.0

     Threshold (ethr) on eigenvalues was too large:
     Diagonalizing with lowered threshold

     Davidson diagonalization with overlap
     ethr =  5.10E-08,  avg # of iterations =  2.0

     negative rho (up, down):  5.125E-03 0.000E+00

     total cpu time spent up to now is     4347.3 secs

     total energy              =    -275.38044832 Ry
     estimated scf accuracy    <       0.00002738 Ry

     iteration #  2     ecut=    60.00 Ry     beta= 0.30
     Davidson diagonalization with overlap
     ethr =  5.48E-08,  avg # of iterations =  2.0

     negative rho (up, down):  5.125E-03 0.000E+00

     total cpu time spent up to now is     4363.0 secs

     total energy              =    -275.38044809 Ry
     estimated scf accuracy    <       0.00001086 Ry

     iteration #  3     ecut=    60.00 Ry     beta= 0.30
     Davidson diagonalization with overlap
     ethr =  2.17E-08,  avg # of iterations =  2.0

     negative rho (up, down):  5.125E-03 0.000E+00

     total cpu time spent up to now is     4378.9 secs

     total energy              =    -275.38044879 Ry
     estimated scf accuracy    <       0.00000151 Ry

     iteration #  4     ecut=    60.00 Ry     beta= 0.30
     Davidson diagonalization with overlap
     ethr =  3.02E-09,  avg # of iterations =  1.0

     negative rho (up, down):  5.125E-03 0.000E+00

     total cpu time spent up to now is     4393.8 secs

     total energy              =    -275.38044887 Ry
     estimated scf accuracy    <       0.00000018 Ry

     iteration #  5     ecut=    60.00 Ry     beta= 0.30
     Davidson diagonalization with overlap
     ethr =  3.59E-10,  avg # of iterations =  2.0

     negative rho (up, down):  5.125E-03 0.000E+00

     total cpu time spent up to now is     4410.3 secs

     total energy              =    -275.38044890 Ry
     estimated scf accuracy    <       0.00000002 Ry

     iteration #  6     ecut=    60.00 Ry     beta= 0.30
     Davidson diagonalization with overlap
     ethr =  4.14E-11,  avg # of iterations =  2.0

     negative rho (up, down):  5.125E-03 0.000E+00

     total cpu time spent up to now is     4426.5 secs

     total energy              =    -275.38044890 Ry
     estimated scf accuracy    <          3.9E-09 Ry

     iteration #  7     ecut=    60.00 Ry     beta= 0.30
     Davidson diagonalization with overlap
     ethr =  7.89E-12,  avg # of iterations =  2.0

     negative rho (up, down):  5.125E-03 0.000E+00

     total cpu time spent up to now is     4443.1 secs

     total energy              =    -275.38044890 Ry
     estimated scf accuracy    <          4.7E-10 Ry

     iteration #  8     ecut=    60.00 Ry     beta= 0.30
     Davidson diagonalization with overlap
     ethr =  9.34E-13,  avg # of iterations =  3.0

     negative rho (up, down):  5.125E-03 0.000E+00

     total cpu time spent up to now is     4460.5 secs

     total energy              =    -275.38044890 Ry
     estimated scf accuracy    <          2.0E-10 Ry

     iteration #  9     ecut=    60.00 Ry     beta= 0.30
     Davidson diagonalization with overlap
     ethr =  3.99E-13,  avg # of iterations =  2.0

     negative rho (up, down):  5.125E-03 0.000E+00

     total cpu time spent up to now is     4477.0 secs

     End of self-consistent calculation

          k = 0.0000 0.0000 0.0000 (211851 PWs)   bands (ev):

   -31.2584 -31.0370 -29.7827 -29.5958 -20.4207 -18.8394 -16.5848 -15.2621
   -13.5915 -13.5748 -13.1182 -13.0538 -12.1009 -11.5843 -10.8730 -10.5151
   -10.1199  -9.6802  -9.6521  -9.3911  -9.2202  -9.1472  -8.9854  -8.5205
    -7.6270

     highest occupied level (ev):    -7.6270

!    total energy              =    -275.38044889 Ry
     estimated scf accuracy    <          2.0E-11 Ry

     The total energy is the sum of the following terms:
     one-electron contribution =   -1007.23816820 Ry
     hartree contribution      =     512.70448999 Ry
     xc contribution           =     -60.00220815 Ry
     ewald contribution        =     303.80746877 Ry
     one-center paw contrib.   =     -24.65203131 Ry

     convergence has been achieved in   9 iterations

     negative rho (up, down):  5.125E-03 0.000E+00

     Forces acting on atoms (cartesian axes, Ry/au):

     atom    1 type  1   force =    -0.00008611   -0.00020198    0.00044837
     atom    2 type  1   force =    -0.00039085   -0.00022368    0.00106525
     atom    3 type  2   force =    -0.00001589   -0.00001177   -0.00000447
     atom    4 type  2   force =     0.00007921   -0.00004400    0.00019692
     atom    5 type  2   force =     0.00006332    0.00000513    0.00017204
     atom    6 type  1   force =    -0.00007981   -0.00007591   -0.00023481
     atom    7 type  3   force =     0.00046706    0.00101693   -0.00017447
     atom    8 type  2   force =    -0.00044106    0.00056633   -0.00078618
     atom    9 type  1   force =    -0.00051899   -0.00020445    0.00074937
     atom   10 type  3   force =     0.00050933   -0.00069641   -0.00065484
     atom   11 type  2   force =    -0.00039226   -0.00006175   -0.00080354
     atom   12 type  3   force =     0.00009966   -0.00021863    0.00046632
     atom   13 type  3   force =     0.00008500   -0.00007858    0.00048915
     atom   14 type  2   force =     0.00062139    0.00022877   -0.00092912

     Total force =     0.002972     Total SCF correction =     0.000012


     Computing stress (Cartesian axis) and pressure


     negative rho (up, down):  5.125E-03 0.000E+00
          total   stress  (Ry/bohr**3)                   (kbar)     P=       -0.02
  -0.00000009   0.00000002  -0.00000005           -0.01        0.00       -0.01
   0.00000002  -0.00000017  -0.00000000            0.00       -0.03       -0.00
  -0.00000005  -0.00000000  -0.00000019           -0.01       -0.00       -0.03

     Energy error            =      1.7E-05 Ry
     Gradient error          =      1.1E-03 Ry/Bohr

     number of scf cycles    =  21
     number of bfgs steps    =  20

     energy             old  =    -275.3804314568 Ry
     energy             new  =    -275.3804488933 Ry

     CASE: energy            _new < energy            _old

     new trust radius        =       0.0061267222 bohr
     new conv_thr            =            1.0E-10 Ry


ATOMIC_POSITIONS (angstrom)
C               -8.1859802009        4.8793757279        0.1801437540
C               -6.8264741975        5.0718308141       -0.4572750498
H               -8.9578132798        5.0736630824       -0.5741128793
H               -8.2928104392        3.8506483352        0.5452431971
H               -8.3175453276        5.5784884886        1.0151140018
C               -5.6496387938        4.8431757974        0.4940707397
F               -6.7248792000        4.2120474444       -1.5476009831
H               -5.7382212875        3.8304546641        0.9133677374
C               -4.2348823647        4.9816771014       -0.0489012129
F               -6.7632352722        6.3620408961       -0.9779427554
H               -5.7480771508        5.5482912629        1.3322605770
F               -4.0016877428        6.2405622349       -0.5667081118
F               -3.9782922103        4.0691078193       -1.0537790419
H               -3.4889522068        4.8111144027        0.7454160466



     Writing config-only to output data dir ./tmp/pvdf_dimer.save/ :
     XML data file
     NEW-OLD atomic charge density approx. for the potential

     negative rho (up, down):  5.125E-03 0.000E+00

     total cpu time spent up to now is     4521.0 secs

     Self-consistent Calculation

     iteration #  1     ecut=    60.00 Ry     beta= 0.30
     Davidson diagonalization with overlap
     ethr =  1.00E-06,  avg # of iterations =  3.0

     Threshold (ethr) on eigenvalues was too large:
     Diagonalizing with lowered threshold

     Davidson diagonalization with overlap
     ethr =  2.26E-08,  avg # of iterations =  3.0

     negative rho (up, down):  5.125E-03 0.000E+00

     total cpu time spent up to now is     4548.1 secs

     total energy              =    -275.38045967 Ry
     estimated scf accuracy    <       0.00001339 Ry

     iteration #  2     ecut=    60.00 Ry     beta= 0.30
     Davidson diagonalization with overlap
     ethr =  2.68E-08,  avg # of iterations =  1.0

     negative rho (up, down):  5.125E-03 0.000E+00

     total cpu time spent up to now is     4562.0 secs

     total energy              =    -275.38045944 Ry
     estimated scf accuracy    <       0.00000507 Ry

     iteration #  3     ecut=    60.00 Ry     beta= 0.30
     Davidson diagonalization with overlap
     ethr =  1.01E-08,  avg # of iterations =  2.0

     negative rho (up, down):  5.125E-03 0.000E+00

     total cpu time spent up to now is     4576.3 secs

     total energy              =    -275.38045986 Ry
     estimated scf accuracy    <       0.00000065 Ry

     iteration #  4     ecut=    60.00 Ry     beta= 0.30
     Davidson diagonalization with overlap
     ethr =  1.30E-09,  avg # of iterations =  2.0

     negative rho (up, down):  5.125E-03 0.000E+00

     total cpu time spent up to now is     4591.1 secs

     total energy              =    -275.38045989 Ry
     estimated scf accuracy    <       0.00000011 Ry

     iteration #  5     ecut=    60.00 Ry     beta= 0.30
     Davidson diagonalization with overlap
     ethr =  2.25E-10,  avg # of iterations =  3.0

     negative rho (up, down):  5.125E-03 0.000E+00

     total cpu time spent up to now is     4606.3 secs

     total energy              =    -275.38045991 Ry
     estimated scf accuracy    <       0.00000002 Ry

     iteration #  6     ecut=    60.00 Ry     beta= 0.30
     Davidson diagonalization with overlap
     ethr =  3.35E-11,  avg # of iterations =  3.0

     negative rho (up, down):  5.125E-03 0.000E+00

     total cpu time spent up to now is     4621.7 secs

     total energy              =    -275.38045992 Ry
     estimated scf accuracy    <          5.5E-09 Ry

     iteration #  7     ecut=    60.00 Ry     beta= 0.30
     Davidson diagonalization with overlap
     ethr =  1.11E-11,  avg # of iterations =  2.0

     negative rho (up, down):  5.125E-03 0.000E+00

     total cpu time spent up to now is     4636.8 secs

     total energy              =    -275.38045992 Ry
     estimated scf accuracy    <          9.7E-10 Ry

     iteration #  8     ecut=    60.00 Ry     beta= 0.30
     Davidson diagonalization with overlap
     ethr =  1.94E-12,  avg # of iterations =  3.0

     negative rho (up, down):  5.125E-03 0.000E+00

     total cpu time spent up to now is     4654.7 secs

     total energy              =    -275.38045992 Ry
     estimated scf accuracy    <          2.9E-10 Ry

     iteration #  9     ecut=    60.00 Ry     beta= 0.30
     Davidson diagonalization with overlap
     ethr =  5.73E-13,  avg # of iterations =  2.0

     negative rho (up, down):  5.125E-03 0.000E+00

     total cpu time spent up to now is     4671.7 secs

     End of self-consistent calculation

          k = 0.0000 0.0000 0.0000 (211851 PWs)   bands (ev):

   -31.2586 -31.0387 -29.7818 -29.5935 -20.4246 -18.8395 -16.5848 -15.2628
   -13.5914 -13.5746 -13.1177 -13.0569 -12.1000 -11.5850 -10.8719 -10.5184
   -10.1214  -9.6794  -9.6518  -9.3921  -9.2206  -9.1465  -8.9827  -8.5198
    -7.6284

     highest occupied level (ev):    -7.6284

!    total energy              =    -275.38045992 Ry
     estimated scf accuracy    <          1.7E-11 Ry

     The total energy is the sum of the following terms:
     one-electron contribution =   -1007.22062947 Ry
     hartree contribution      =     512.69560576 Ry
     xc contribution           =     -60.00276990 Ry
     ewald contribution        =     303.79938270 Ry
     one-center paw contrib.   =     -24.65204901 Ry

     convergence has been achieved in   9 iterations

     negative rho (up, down):  5.125E-03 0.000E+00

     Forces acting on atoms (cartesian axes, Ry/au):

     atom    1 type  1   force =    -0.00004808    0.00007856   -0.00004361
     atom    2 type  1   force =    -0.00004016   -0.00013097    0.00054369
     atom    3 type  2   force =     0.00018524   -0.00007249    0.00019108
     atom    4 type  2   force =    -0.00008337    0.00033939    0.00036525
     atom    5 type  2   force =    -0.00007975   -0.00050161    0.00005112
     atom    6 type  1   force =    -0.00021386    0.00011741   -0.00002646
     atom    7 type  3   force =     0.00030226    0.00052351   -0.00000321
     atom    8 type  2   force =    -0.00036136   -0.00002814   -0.00060285
     atom    9 type  1   force =    -0.00044005   -0.00009904    0.00024448
     atom   10 type  3   force =     0.00032394   -0.00038204   -0.00023456
     atom   11 type  2   force =    -0.00028610    0.00022133   -0.00054903
     atom   12 type  3   force =     0.00016764   -0.00005078    0.00045034
     atom   13 type  3   force =     0.00015549   -0.00020606    0.00042392
     atom   14 type  2   force =     0.00041815    0.00019094   -0.00081015

     Total force =     0.002046     Total SCF correction =     0.000011


     Computing stress (Cartesian axis) and pressure


     negative rho (up, down):  5.125E-03 0.000E+00
          total   stress  (Ry/bohr**3)                   (kbar)     P=       -0.02
  -0.00000009   0.00000002  -0.00000006           -0.01        0.00       -0.01
   0.00000002  -0.00000013   0.00000000            0.00       -0.02        0.00
  -0.00000006   0.00000000  -0.00000019           -0.01        0.00       -0.03

     Energy error            =      1.1E-05 Ry
     Gradient error          =      8.1E-04 Ry/Bohr

     bfgs converged in  22 scf cycles and  21 bfgs steps
     (criteria: energy <  1.0E-04 Ry, force <  1.0E-03 Ry/Bohr)

     End of BFGS Geometry Optimization

     Final energy             =    -275.3804599153 Ry

     File ./tmp/pvdf_dimer.bfgs deleted, as requested
Begin final coordinates

ATOMIC_POSITIONS (angstrom)
C               -8.1859802009        4.8793757279        0.1801437540
C               -6.8264741975        5.0718308141       -0.4572750498
H               -8.9578132798        5.0736630824       -0.5741128793
H               -8.2928104392        3.8506483352        0.5452431971
H               -8.3175453276        5.5784884886        1.0151140018
C               -5.6496387938        4.8431757974        0.4940707397
F               -6.7248792000        4.2120474444       -1.5476009831
H               -5.7382212875        3.8304546641        0.9133677374
C               -4.2348823647        4.9816771014       -0.0489012129
F               -6.7632352722        6.3620408961       -0.9779427554
H               -5.7480771508        5.5482912629        1.3322605770
F               -4.0016877428        6.2405622349       -0.5667081118
F               -3.9782922103        4.0691078193       -1.0537790419
H               -3.4889522068        4.8111144027        0.7454160466
End final coordinates



     Writing all to output data dir ./tmp/pvdf_dimer.save/ :
     XML data file, charge density, pseudopotentials, collected wavefunctions

     init_run     :     15.24s CPU     17.25s WALL (       1 calls)
     electrons    :   3233.87s CPU   3696.62s WALL (      22 calls)
     update_pot   :     62.38s CPU     80.67s WALL (      21 calls)
     forces       :    213.19s CPU    255.08s WALL (      22 calls)
     stress       :    504.87s CPU    572.88s WALL (      22 calls)

     Called by init_run:
     wfcinit      :      3.28s CPU      3.56s WALL (       1 calls)
     potinit      :      3.85s CPU      4.63s WALL (       1 calls)
     hinit0       :      1.49s CPU      1.66s WALL (       1 calls)

     Called by electrons:
     c_bands      :   1280.74s CPU   1306.06s WALL (     219 calls)
     sum_band     :    855.75s CPU   1009.66s WALL (     219 calls)
     v_of_rho     :    447.78s CPU    571.73s WALL (     230 calls)
     newd         :    542.96s CPU    713.10s WALL (     230 calls)
     PAW_pot      :     44.89s CPU     44.95s WALL (     251 calls)
     mix_rho      :     91.87s CPU     97.85s WALL (     219 calls)

     Called by c_bands:
     init_us_2    :     11.93s CPU     12.00s WALL (     482 calls)
     regterg      :   1258.88s CPU   1284.13s WALL (     219 calls)

     Called by *egterg:
     rdiaghg      :      0.73s CPU      0.90s WALL (     739 calls)
     h_psi        :    751.08s CPU    773.49s WALL (     772 calls)
     s_psi        :    105.79s CPU    106.14s WALL (     772 calls)
     g_psi        :      1.73s CPU      1.74s WALL (     552 calls)

     Called by h_psi:
     h_psi:calbec :    133.23s CPU    133.63s WALL (     772 calls)
     vloc_psi     :    509.26s CPU    530.84s WALL (     772 calls)
                                        0.00s GPU  (     772 calls)
     add_vuspsi   :    105.98s CPU    106.38s WALL (     772 calls)

     General routines
     calbec       :    271.24s CPU    271.91s WALL (    1386 calls)
     fft          :    591.32s CPU    686.39s WALL (    2958 calls)
     ffts         :     24.00s CPU     26.17s WALL (     449 calls)
     fftw         :    488.28s CPU    509.58s WALL (   18415 calls)
     interpolate  :     55.98s CPU     66.10s WALL (     230 calls)

     Parallel routines

     PWSCF        :      1h 8m CPU      1h18m WALL


   This run was terminated on:  17:46:49  19Jun2026            

=------------------------------------------------------------------------------=
   JOB DONE.
=------------------------------------------------------------------------------=
