
     Program PWSCF v.7.5 starts on  2Sep2026 at 22:22:30 

     This program is part of the open-source Quantum ESPRESSO suite
     for quantum simulation of materials; please cite
         "P. Giannozzi et al., J. Phys.:Condens. Matter 21 395502 (2009);
         "P. Giannozzi et al., J. Phys.:Condens. Matter 29 465901 (2017);
         "P. Giannozzi et al., J. Chem. Phys. 152 154105 (2020);
          URL http://www.quantum-espresso.org", 
     in publications or presentations arising from this work. More details at
     http://www.quantum-espresso.org/quote

     Parallel version (MPI), running on    24 processors

     MPI processes distributed on     1 nodes
     3597 MiB available memory on the printing compute node when the environment starts

     Reading input from pvdf_scf.in

     Current dimensions of program PWSCF are:
     Max number of different atomic species (ntypx) = 10
     Max number of k-points (npk) =  40000
     Max angular momentum in pseudopotentials (lmaxx) =  4

     gamma-point specific algorithms are used

     R & G space division:  proc/nbgrp/npool/nimage =      24
     Subspace diagonalization in iterative solution of the eigenvalue problem:
     a serial algorithm will be used


     Parallelization info
     --------------------
     sticks:   dense  smooth     PW     G-vecs:    dense   smooth      PW
     Min        2272    1136    283               399492   141216   17648
     Max        2275    1138    286               399502   141226   17660
     Sum       54553   27281   6817              9587919  3389267  423701

     Using Slab Decomposition



     bravais-lattice index     =            0
     lattice parameter (alat)  =      37.7945  a.u.
     unit-cell volume          =   53986.6760 (a.u.)^3
     number of atoms/cell      =           14
     number of atomic types    =            3
     number of electrons       =        50.00
     number of Kohn-Sham states=           30
     kinetic-energy cutoff     =      60.0000  Ry
     charge density cutoff     =     480.0000  Ry
     scf convergence threshold =      1.0E-08
     mixing beta               =       0.3000
     number of iterations used =            8  plain     mixing
     Exchange-correlation= PBE
                           (   1   4   3   4   0   0   0)

     celldm(1)=  37.794522  celldm(2)=   0.000000  celldm(3)=   0.000000
     celldm(4)=   0.000000  celldm(5)=   0.000000  celldm(6)=   0.000000

     crystal axes: (cart. coord. in units of alat)
               a(1) = (   1.000000   0.000000   0.000000 )  
               a(2) = (   0.000000   1.000000   0.000000 )  
               a(3) = (   0.000000   0.000000   1.000000 )  

     reciprocal axes: (cart. coord. in units 2 pi/alat)
               b(1) = (  1.000000  0.000000  0.000000 )  
               b(2) = (  0.000000  1.000000  0.000000 )  
               b(3) = (  0.000000  0.000000  1.000000 )  


     PseudoPot. # 1 for C  read from file:
     ./C.upf
     MD5 check sum: 34a24e64c0a39f27c6c36b90a16ac686
     Pseudo is Norm-conserving + core correction, Zval =  4.0
     Generated using ONCVPSP code by D. R. Hamann
     Using radial grid of 1248 points,  4 beta functions with: 
                l(1) =   0
                l(2) =   0
                l(3) =   1
                l(4) =   1

     PseudoPot. # 2 for H  read from file:
     ./H.upf
     MD5 check sum: e96aa7e3e4a958db16958554ea960e2a
     Pseudo is Norm-conserving, Zval =  1.0
     Generated using ONCVPSP code by D. R. Hamann
     Using radial grid of 1166 points,  3 beta functions with: 
                l(1) =   0
                l(2) =   0
                l(3) =   1

     PseudoPot. # 3 for F  read from file:
     ./F.upf
     MD5 check sum: e79d493a50113cefedcefee2f1adb6e7
     Pseudo is Norm-conserving + core correction, Zval =  7.0
     Generated using ONCVPSP code by D. R. Hamann
     Using radial grid of  832 points,  5 beta functions with: 
                l(1) =   0
                l(2) =   0
                l(3) =   1
                l(4) =   1
                l(5) =   2

     atomic species   valence    mass     pseudopotential
     C                 4.00    12.01100     C ( 1.00)
     H                 1.00     1.00800     H ( 1.00)
     F                 7.00    18.99800     F ( 1.00)

     No symmetry found



   Cartesian axes

     site n.     atom                  positions (alat units)
         1        C      tau(   1) = (  -0.4092990   0.2439688   0.0090072  )
         2        C      tau(   2) = (  -0.3413237   0.2535915  -0.0228638  )
         3        H      tau(   3) = (  -0.4478907   0.2536832  -0.0287056  )
         4        H      tau(   4) = (  -0.4146405   0.1925324   0.0272622  )
         5        H      tau(   5) = (  -0.4158773   0.2789244   0.0507557  )
         6        C      tau(   6) = (  -0.2824819   0.2421588   0.0247035  )
         7        F      tau(   7) = (  -0.3362440   0.2106024  -0.0773800  )
         8        H      tau(   8) = (  -0.2869111   0.1915227   0.0456684  )
         9        C      tau(   9) = (  -0.2117441   0.2490839  -0.0024451  )
        10        F      tau(  10) = (  -0.3381618   0.3181020  -0.0488971  )
        11        H      tau(  11) = (  -0.2874039   0.2774146   0.0666130  )
        12        F      tau(  12) = (  -0.2000844   0.3120281  -0.0283354  )
        13        F      tau(  13) = (  -0.1989146   0.2034554  -0.0526890  )
        14        H      tau(  14) = (  -0.1744476   0.2405557   0.0372708  )

     number of k points=     1  Marzari-Vanderbilt smearing, width (Ry)=  0.0200
                       cart. coord. in units 2pi/alat
        k(    1) = (   0.0000000   0.0000000   0.0000000), wk =   2.0000000

     Dense  grid:  4793960 G-vectors     FFT dimensions: ( 270, 270, 270)

     Smooth grid:  1694634 G-vectors     FFT dimensions: ( 192, 192, 192)

     Estimated max dynamical RAM per process >     193.76 MB

     Estimated total dynamical RAM >       4.54 GB

     Initial potential from superposition of free atoms

     starting charge      49.9997, renormalised to      50.0000

     negative rho (up, down):  3.186E-04 0.000E+00
     Starting wfcs are   38 randomized atomic wfcs

     total cpu time spent up to now is        5.4 secs

     Self-consistent Calculation

     iteration #  1     ecut=    60.00 Ry     beta= 0.30
     Davidson diagonalization with overlap
     ethr =  1.00E-02,  avg # of iterations =  3.0

     negative rho (up, down):  1.672E-04 0.000E+00

     total cpu time spent up to now is        8.0 secs

     total energy              =    -252.44844949 Ry
     estimated scf accuracy    <       1.17793336 Ry

     iteration #  2     ecut=    60.00 Ry     beta= 0.30
     Davidson diagonalization with overlap
     ethr =  2.36E-03,  avg # of iterations =  2.0

     negative rho (up, down):  4.265E-04 0.000E+00

     total cpu time spent up to now is       10.2 secs

     total energy              =    -252.41236348 Ry
     estimated scf accuracy    <       0.28279832 Ry

     iteration #  3     ecut=    60.00 Ry     beta= 0.30
     Davidson diagonalization with overlap
     ethr =  5.66E-04,  avg # of iterations = 10.0

     negative rho (up, down):  5.187E-04 0.000E+00

     total cpu time spent up to now is       12.9 secs

     total energy              =    -252.45273606 Ry
     estimated scf accuracy    <       0.04351840 Ry

     iteration #  4     ecut=    60.00 Ry     beta= 0.30
     Davidson diagonalization with overlap
     ethr =  8.70E-05,  avg # of iterations = 20.0

     negative rho (up, down):  7.359E-04 0.000E+00

     total cpu time spent up to now is       16.0 secs

     total energy              =    -252.45250352 Ry
     estimated scf accuracy    <       0.00815636 Ry

     iteration #  5     ecut=    60.00 Ry     beta= 0.30
     Davidson diagonalization with overlap
     ethr =  1.63E-05,  avg # of iterations =  6.0

     negative rho (up, down):  4.528E-04 0.000E+00

     total cpu time spent up to now is       18.7 secs

     total energy              =    -252.45320359 Ry
     estimated scf accuracy    <       0.00121657 Ry

     iteration #  6     ecut=    60.00 Ry     beta= 0.30
     Davidson diagonalization with overlap
     ethr =  2.43E-06,  avg # of iterations =  8.0

     negative rho (up, down):  3.473E-04 0.000E+00

     total cpu time spent up to now is       22.0 secs

     total energy              =    -252.45336399 Ry
     estimated scf accuracy    <       0.00011968 Ry

     iteration #  7     ecut=    60.00 Ry     beta= 0.30
     Davidson diagonalization with overlap
     ethr =  2.39E-07,  avg # of iterations =  3.0

     negative rho (up, down):  2.307E-04 0.000E+00

     total cpu time spent up to now is       24.6 secs

     total energy              =    -252.45337923 Ry
     estimated scf accuracy    <       0.00006091 Ry

     iteration #  8     ecut=    60.00 Ry     beta= 0.30
     Davidson diagonalization with overlap
     ethr =  1.22E-07,  avg # of iterations =  2.0

     negative rho (up, down):  1.530E-04 0.000E+00

     total cpu time spent up to now is       27.0 secs

     total energy              =    -252.45338986 Ry
     estimated scf accuracy    <       0.00000272 Ry

     iteration #  9     ecut=    60.00 Ry     beta= 0.30
     Davidson diagonalization with overlap
     ethr =  5.44E-09,  avg # of iterations =  5.0

     negative rho (up, down):  9.554E-05 0.000E+00

     total cpu time spent up to now is       29.8 secs

     total energy              =    -252.45339078 Ry
     estimated scf accuracy    <       0.00000145 Ry

     iteration # 10     ecut=    60.00 Ry     beta= 0.30
     Davidson diagonalization with overlap
     ethr =  2.91E-09,  avg # of iterations =  2.0

     negative rho (up, down):  5.672E-05 0.000E+00

     total cpu time spent up to now is       32.0 secs

     total energy              =    -252.45339064 Ry
     estimated scf accuracy    <       0.00000040 Ry

     iteration # 11     ecut=    60.00 Ry     beta= 0.30
     Davidson diagonalization with overlap
     ethr =  7.98E-10,  avg # of iterations =  3.0

     negative rho (up, down):  3.073E-05 0.000E+00

     total cpu time spent up to now is       34.6 secs

     total energy              =    -252.45339070 Ry
     estimated scf accuracy    <       0.00000013 Ry

     iteration # 12     ecut=    60.00 Ry     beta= 0.30
     Davidson diagonalization with overlap
     ethr =  2.64E-10,  avg # of iterations =  3.0

     total cpu time spent up to now is       36.9 secs

     End of self-consistent calculation

          k = 0.0000 0.0000 0.0000 (211851 PWs)   bands (ev):

   -31.2320 -31.0129 -29.7625 -29.5750 -20.4329 -18.8485 -16.6192 -15.3332
   -13.6647 -13.5986 -13.2111 -13.0613 -12.0934 -11.5800 -10.8804 -10.5231
   -10.1149  -9.6772  -9.6577  -9.4047  -9.2211  -9.1485  -8.9860  -8.5112
    -7.6190  -0.7814  -0.1945   0.0439   0.0947   0.2296

     the Fermi energy is    -6.2752 ev

!    total energy              =    -252.45339069 Ry
     estimated scf accuracy    <          8.6E-09 Ry
     smearing contrib. (-TS)   =       0.00000000 Ry
     internal energy E=F+TS    =    -252.45339069 Ry

     The total energy is F=E-TS. E is the sum of the following terms:
     one-electron contribution =   -1000.27141133 Ry
     hartree contribution      =     509.40892940 Ry
     xc contribution           =     -65.39029148 Ry
     ewald contribution        =     303.79938271 Ry

     convergence has been achieved in  12 iterations

     Writing all to output data dir ./tmp/pvdf_dimer.save/ :
     XML data file, charge density, pseudopotentials, collected wavefunctions

     init_run     :      4.80s CPU      5.33s WALL (       1 calls)
     electrons    :     31.23s CPU     32.01s WALL (       1 calls)

     Called by init_run:
     wfcinit      :      0.43s CPU      0.47s WALL (       1 calls)
     potinit      :      1.38s CPU      1.59s WALL (       1 calls)
     hinit0       :      0.66s CPU      0.72s WALL (       1 calls)

     Called by electrons:
     c_bands      :     17.36s CPU     15.83s WALL (      12 calls)
     sum_band     :      3.96s CPU      3.95s WALL (      12 calls)
     v_of_rho     :      7.34s CPU      9.20s WALL (      13 calls)
     mix_rho      :      1.84s CPU      1.96s WALL (      12 calls)

     Called by c_bands:
     init_us_2    :      0.38s CPU      0.36s WALL (      25 calls)
     regterg      :     16.88s CPU     15.36s WALL (      12 calls)

     Called by *egterg:
     rdiaghg      :      0.18s CPU      0.23s WALL (      79 calls)
     h_psi        :     13.77s CPU     13.07s WALL (      80 calls)
     g_psi        :      0.06s CPU      0.05s WALL (      67 calls)

     Called by h_psi:
     h_psi:calbec :      1.52s CPU      1.10s WALL (      80 calls)
     vloc_psi     :     11.40s CPU     11.47s WALL (      80 calls)
                                        0.00s GPU  (      80 calls)
     add_vuspsi   :      0.77s CPU      0.42s WALL (      80 calls)

     General routines
     calbec       :      1.52s CPU      1.10s WALL (      80 calls)
     fft          :      7.23s CPU      8.14s WALL (     128 calls)
     ffts         :      0.99s CPU      1.03s WALL (      25 calls)
     fftw         :      9.92s CPU     10.07s WALL (    1282 calls)
     interpolate  :      1.50s CPU      1.75s WALL (      13 calls)

     Parallel routines

     PWSCF        :     36.42s CPU     38.12s WALL


   This run was terminated on:  22:23: 8   2Sep2026            

=------------------------------------------------------------------------------=
   JOB DONE.
=------------------------------------------------------------------------------=
