14
XYZ file generated by Avogadro.
C      -8.1859802009      4.8793757279      0.1801437540
C      -6.8264741975      5.0718308141     -0.4572750498
H      -8.9578132798      5.0736630824     -0.5741128793
H      -8.2928104392      3.8506483352      0.5452431971
H      -8.3175453276      5.5784884886      1.0151140018
C      -5.6496387938      4.8431757974      0.4940707397
F      -6.7248792000      4.2120474444     -1.5476009831
H      -5.7382212875      3.8304546641      0.9133677374
C      -4.2348823647      4.9816771014     -0.0489012129
F      -6.7632352722      6.3620408961     -0.9779427554
H      -5.7480771508      5.5482912629      1.3322605770
F      -4.0016877428      6.2405622349     -0.5667081118
F      -3.9782922103      4.0691078193     -1.0537790419
H      -3.4889522068      4.8111144027      0.7454160466
