
     Program PWSCF v.7.4 starts on  2Sep2026 at 12:38:26 

     This program is part of the open-source Quantum ESPRESSO suite
     for quantum simulation of materials; please cite
         "P. Giannozzi et al., J. Phys.:Condens. Matter 21 395502 (2009);
         "P. Giannozzi et al., J. Phys.:Condens. Matter 29 465901 (2017);
         "P. Giannozzi et al., J. Chem. Phys. 152 154105 (2020);
          URL http://www.quantum-espresso.org", 
     in publications or presentations arising from this work. More details at
     http://www.quantum-espresso.org/quote

     Parallel version (MPI & OpenMP), running on      96 processor cores
     Number of MPI processes:                96
     Threads/MPI process:                     1

     MPI processes distributed on     2 nodes
     179227 MiB available memory on the printing compute node when the environment starts
 
     Reading input from Li_PVDF_scf.in

     Current dimensions of program PWSCF are:
     Max number of different atomic species (ntypx) = 10
     Max number of k-points (npk) =  40000
     Max angular momentum in pseudopotentials (lmaxx) =  4

     File /scratch/deepanthpcu/ml/tmp/Li_PVDF/Li_PVDF.update deleted, as requested

     File /scratch/deepanthpcu/ml/tmp/Li_PVDF/Li_PVDF.bfgs deleted, as requested
 
     R & G space division:  proc/nbgrp/npool/nimage =      96
     Subspace diagonalization in iterative solution of the eigenvalue problem:
     one sub-group per band group will be used
     scalapack distributed-memory algorithm (size of sub-group:  2*  2 procs)

 
     Parallelization info
     --------------------
     sticks:   dense  smooth     PW     G-vecs:    dense   smooth      PW
     Min         262     130     34                94192    33284    4445
     Max         263     131     36                94205    33313    4456
     Sum       25171   12547   3283              9042677  3196635  427113
 
     Using Slab Decomposition
 


     bravais-lattice index     =            0
     lattice parameter (alat)  =      27.5744  a.u.
     unit-cell volume          =   50920.4251 (a.u.)^3
     number of atoms/cell      =          122
     number of atomic types    =            4
     number of electrons       =       374.00
     number of Kohn-Sham states=          224
     kinetic-energy cutoff     =      60.0000  Ry
     charge density cutoff     =     480.0000  Ry
     scf convergence threshold =      1.0E-08
     mixing beta               =       0.3000
     number of iterations used =            8  plain     mixing
     Exchange-correlation= PBE
                           (   1   4   3   4   0   0   0)

     celldm(1)=  27.574443  celldm(2)=   0.000000  celldm(3)=   0.000000
     celldm(4)=   0.000000  celldm(5)=   0.000000  celldm(6)=   0.000000

     crystal axes: (cart. coord. in units of alat)
               a(1) = (   1.000000   0.000000   0.000000 )  
               a(2) = (   0.500000   0.866025   0.000000 )  
               a(3) = (   0.000000   0.000000   2.804409 )  

     reciprocal axes: (cart. coord. in units 2 pi/alat)
               b(1) = (  1.000000 -0.577351  0.000000 )  
               b(2) = (  0.000000  1.154701  0.000000 )  
               b(3) = (  0.000000  0.000000  0.356581 )  


     PseudoPot. # 1 for Li read from file:
     ./pseudo/Li.upf
     MD5 check sum: dbcf0ea72988e720c8c712b432d51b0d
     Pseudo is Norm-conserving, Zval =  3.0
     Generated using ONCVPSP code by D. R. Hamann
     Using radial grid of 1944 points,  4 beta functions with: 
                l(1) =   0
                l(2) =   0
                l(3) =   1
                l(4) =   1

     PseudoPot. # 2 for C  read from file:
     ./pseudo/C.upf
     MD5 check sum: 34a24e64c0a39f27c6c36b90a16ac686
     Pseudo is Norm-conserving + core correction, Zval =  4.0
     Generated using ONCVPSP code by D. R. Hamann
     Using radial grid of 1248 points,  4 beta functions with: 
                l(1) =   0
                l(2) =   0
                l(3) =   1
                l(4) =   1

     PseudoPot. # 3 for H  read from file:
     ./pseudo/H.upf
     MD5 check sum: e96aa7e3e4a958db16958554ea960e2a
     Pseudo is Norm-conserving, Zval =  1.0
     Generated using ONCVPSP code by D. R. Hamann
     Using radial grid of 1166 points,  3 beta functions with: 
                l(1) =   0
                l(2) =   0
                l(3) =   1

     PseudoPot. # 4 for F  read from file:
     ./pseudo/F.upf
     MD5 check sum: e79d493a50113cefedcefee2f1adb6e7
     Pseudo is Norm-conserving + core correction, Zval =  7.0
     Generated using ONCVPSP code by D. R. Hamann
     Using radial grid of  832 points,  5 beta functions with: 
                l(1) =   0
                l(2) =   0
                l(3) =   1
                l(4) =   1
                l(5) =   2

     atomic species   valence    mass     pseudopotential
     Li                3.00     6.94000     Li( 1.00)
     C                 4.00    12.01100     C ( 1.00)
     H                 1.00     1.00800     H ( 1.00)
     F                 7.00    18.99840     F ( 1.00)

     No symmetry found



   Cartesian axes

     site n.     atom                  positions (alat units)
         1        Li     tau(   1) = (   0.0002661   0.0010346   1.0263166  )
         2        Li     tau(   2) = (   0.1667404   0.0963124   1.1079207  )
         3        Li     tau(   3) = (   0.3334066   0.1926011   1.1548711  )
         4        Li     tau(   4) = (   0.5001259   0.2875722   1.2315838  )
         5        Li     tau(   5) = (   0.1664199   0.0960939   1.3028543  )
         6        Li     tau(   6) = (   0.3334798   0.1926004   1.3630857  )
         7        Li     tau(   7) = (   0.1677282   0.2889047   1.4399377  )
         8        Li     tau(   8) = (   0.1651483   0.0954223   1.5008183  )
         9        Li     tau(   9) = (   0.3325176   0.1923024   1.5716654  )
        10        Li     tau(  10) = (   0.4979789   0.2846154   1.6507475  )
        11        Li     tau(  11) = (   0.1635601   0.0968575   1.6948052  )
        12        Li     tau(  12) = (   0.3314081   0.1929321   1.7749438  )
        13        Li     tau(  13) = (   0.1655224   0.2881682   1.0259509  )
        14        Li     tau(  14) = (   0.3334231   0.3849992   1.1073791  )
        15        Li     tau(  15) = (   0.4999415   0.4810884   1.1617436  )
        16        Li     tau(  16) = (   0.6670388   0.5777622   1.2321430  )
        17        Li     tau(  17) = (   0.3350626   0.3854688   1.3030345  )
        18        Li     tau(  18) = (   0.4997849   0.4810420   1.3738007  )
        19        Li     tau(  19) = (   1.3324445   0.5780520   1.4436840  )
        20        Li     tau(  20) = (   0.3345510   0.3855169   1.5011295  )
        21        Li     tau(  21) = (   0.4978347   0.4785548   1.5891906  )
        22        Li     tau(  22) = (   0.6703181   0.5790807   1.6487276  )
        23        Li     tau(  23) = (   0.3312152   0.3844037   1.6944447  )
        24        Li     tau(  24) = (   0.4859983   0.4498035   1.8108982  )
        25        Li     tau(  25) = (   1.3320584   0.5783842   1.0287628  )
        26        Li     tau(  26) = (   0.4998000   0.6736505   1.1098340  )
        27        Li     tau(  27) = (   0.6668639   0.7696809   1.1563841  )
        28        Li     tau(  28) = (   0.3331567   0.0001959   1.2302088  )
        29        Li     tau(  29) = (   0.4997930   0.6724841   1.3076927  )
        30        Li     tau(  30) = (   0.6667788   0.7693120   1.3654395  )
        31        Li     tau(  31) = (   0.9993796  -0.0026284   1.4406875  )
        32        Li     tau(  32) = (   0.5001519   0.6703093   1.5113112  )
        33        Li     tau(  33) = (   0.6682582   0.7685125   1.5744277  )
        34        Li     tau(  34) = (   0.3319783   0.0013215   1.6475309  )
        35        Li     tau(  35) = (   0.4999023   0.6558594   1.7132560  )
        36        Li     tau(  36) = (   0.6691065   0.7718830   1.7765630  )
        37        Li     tau(  37) = (   0.3331169   0.0004068   1.0268303  )
        38        Li     tau(  38) = (   0.5001556   0.0958273   1.1086647  )
        39        Li     tau(  39) = (   0.6668022   0.1924722   1.1559743  )
        40        Li     tau(  40) = (   0.8328376   0.2890359   1.2303368  )
        41        Li     tau(  41) = (   0.5001539   0.0956367   1.3040550  )
        42        Li     tau(  42) = (   0.6664872   0.1922980   1.3645142  )
        43        Li     tau(  43) = (   0.5000372   0.2870900   1.4417588  )
        44        Li     tau(  44) = (   0.4994551   0.0948846   1.5026417  )
        45        Li     tau(  45) = (   0.6651777   0.1925494   1.5736274  )
        46        Li     tau(  46) = (   0.8278051   0.2914863   1.6496425  )
        47        Li     tau(  47) = (   0.4998009   0.0941006   1.6987918  )
        48        Li     tau(  48) = (   0.6673525   0.1917808   1.7764160  )
        49        Li     tau(  49) = (   0.4997074   0.2876441   1.0281412  )
        50        Li     tau(  50) = (   0.6665590   0.3847997   1.1083610  )
        51        Li     tau(  51) = (   0.8330779   0.4812233   1.1565196  )
        52        Li     tau(  52) = (   1.0002350   0.5772671   1.2300460  )
        53        Li     tau(  53) = (   0.6652257   0.3853907   1.3053363  )
        54        Li     tau(  54) = (   0.8325438   0.4810122   1.3654274  )
        55        Li     tau(  55) = (   0.6672426   0.5780069   1.4419841  )
        56        Li     tau(  56) = (   0.6642053   0.3863887   1.5060123  )
        57        Li     tau(  57) = (   0.8328659   0.4817453   1.5741559  )
        58        Li     tau(  58) = (   0.9999251   0.5754987   1.6470896  )
        59        Li     tau(  59) = (   0.6590301   0.3892478   1.7025066  )
        60        Li     tau(  60) = (   0.8341456   0.4815816   1.7769567  )
        61        Li     tau(  61) = (   0.6670205   0.5781409   1.0289134  )
        62        Li     tau(  62) = (   0.8341433   0.6737639   1.1083013  )
        63        Li     tau(  63) = (   1.0000200   0.7700776   1.1567683  )
        64        Li     tau(  64) = (   0.6670503   0.0001504   1.2306646  )
        65        Li     tau(  65) = (   0.8337181   0.6735423   1.3035635  )
        66        Li     tau(  66) = (   0.9997567   0.7697413   1.3651804  )
        67        Li     tau(  67) = (   0.3325901   0.0005196   1.4392094  )
        68        Li     tau(  68) = (   0.8353904   0.6742224   1.5017467  )
        69        Li     tau(  69) = (   1.0003455   0.7703365   1.5751827  )
        70        Li     tau(  70) = (   0.6682845   0.0011849   1.6481508  )
        71        Li     tau(  71) = (   0.8361694   0.6750694   1.6973222  )
        72        Li     tau(  72) = (   0.9994017   0.7702966   1.7789552  )
        73        Li     tau(  73) = (   0.6666453  -0.0008951   1.0272004  )
        74        Li     tau(  74) = (   0.8332305   0.0960775   1.1078709  )
        75        Li     tau(  75) = (   0.9999975   0.1925979   1.1559329  )
        76        Li     tau(  76) = (   1.1672803   0.2891402   1.2300022  )
        77        Li     tau(  77) = (   0.8337582   0.0961404   1.3030952  )
        78        Li     tau(  78) = (   0.9998687   0.1924364   1.3651879  )
        79        Li     tau(  79) = (   0.8312629   0.2886410   1.4406099  )
        80        Li     tau(  80) = (   0.8324821   0.0946585   1.5012605  )
        81        Li     tau(  81) = (   0.9978505   0.1900051   1.5754307  )
        82        Li     tau(  82) = (   0.1661596   0.2889840   1.6475932  )
        83        Li     tau(  83) = (   0.8363806   0.0974412   1.6953287  )
        84        Li     tau(  84) = (   1.0002570   0.1922800   1.7786527  )
        85        Li     tau(  85) = (   0.8349321   0.2882619   1.0266026  )
        86        Li     tau(  86) = (   1.0001281   0.3853185   1.1081987  )
        87        Li     tau(  87) = (   1.1670418   0.4810922   1.1551089  )
        88        Li     tau(  88) = (   1.3325527   0.5778867   1.2326296  )
        89        Li     tau(  89) = (   0.9998827   0.3852516   1.3032466  )
        90        Li     tau(  90) = (   1.1676300   0.4810613   1.3634669  )
        91        Li     tau(  91) = (   1.0002382   0.5760369   1.4388962  )
        92        Li     tau(  92) = (   0.9993571   0.3833657   1.5014803  )
        93        Li     tau(  93) = (   1.1663405   0.4811509   1.5721785  )
        94        Li     tau(  94) = (   1.3288643   0.5771675   1.6532160  )
        95        Li     tau(  95) = (   0.9983925   0.3822662   1.6959736  )
        96        Li     tau(  96) = (   1.1647487   0.4793035   1.7755518  )
        97        Li     tau(  97) = (   1.0009959   0.5772974   1.0267241  )
        98        Li     tau(  98) = (   1.1661922   0.6738116   1.1099113  )
        99        Li     tau(  99) = (   1.3333286   0.7698527   1.1565891  )
       100        Li     tau( 100) = (   1.0001381  -0.0006443   1.2301110  )
       101        Li     tau( 101) = (   1.1660832   0.6739166   1.3049335  )
       102        Li     tau( 102) = (   1.3327818   0.7693299   1.3655368  )
       103        Li     tau( 103) = (   0.6664456   0.0001551   1.4395785  )
       104        Li     tau( 104) = (   1.1648614   0.6741379   1.5031669  )
       105        Li     tau( 105) = (   1.3319508   0.7673313   1.5751774  )
       106        Li     tau( 106) = (   1.0000229  -0.0107866   1.6517941  )
       107        Li     tau( 107) = (   1.1637095   0.6747301   1.6992957  )
       108        Li     tau( 108) = (   1.3313356   0.7717186   1.7772302  )
       109        C      tau( 109) = (   0.3678730   0.4312469   2.0617082  )
       110        C      tau( 110) = (   0.4630845   0.4557990   2.0292465  )
       111        H      tau( 111) = (   0.3178779   0.4482097   2.0084248  )
       112        H      tau( 112) = (   0.3628575   0.3577359   2.0760132  )
       113        H      tau( 113) = (   0.3512780   0.4707310   2.1234900  )
       114        C      tau( 114) = (   0.5398705   0.4279699   2.0950448  )
       115        F      tau( 115) = (   0.4776719   0.4121342   1.9432749  )
       116        H      tau( 116) = (   0.5289429   0.3566379   2.1161830  )
       117        C      tau( 117) = (   0.6388385   0.4357085   2.0623209  )
       118        F      tau( 118) = (   0.4672880   0.5478185   2.0102447  )
       119        H      tau( 119) = (   0.5321599   0.4697961   2.1572356  )
       120        F      tau( 120) = (   0.6572207   0.5207556   2.0269676  )
       121        F      tau( 121) = (   0.6573750   0.3727262   1.9947243  )
       122        H      tau( 122) = (   0.6875567   0.4230341   2.1187700  )

     number of k points=    10  Marzari-Vanderbilt smearing, width (Ry)=  0.0200
                       cart. coord. in units 2pi/alat
        k(    1) = (   0.0000000   0.0000000   0.0000000), wk =   0.1250000
        k(    2) = (   0.0000000   0.2886753   0.0000000), wk =   0.2500000
        k(    3) = (   0.0000000  -0.5773505   0.0000000), wk =   0.1250000
        k(    4) = (   0.2500000  -0.7216882   0.0000000), wk =   0.2500000
        k(    5) = (  -0.2500000   0.1443376   0.0000000), wk =   0.2500000
        k(    6) = (   0.2500000   0.1443376   0.0000000), wk =   0.2500000
        k(    7) = (   0.5000000  -0.2886753   0.0000000), wk =   0.1250000
        k(    8) = (  -0.5000000  -0.2886753   0.0000000), wk =   0.1250000
        k(    9) = (  -0.2500000  -0.7216882   0.0000000), wk =   0.2500000
        k(   10) = (  -0.5000000  -0.5773505   0.0000000), wk =   0.2500000

     Dense  grid:  9042677 G-vectors     FFT dimensions: ( 200, 200, 540)

     Smooth grid:  3196635 G-vectors     FFT dimensions: ( 135, 135, 384)

     Estimated max dynamical RAM per process >     349.96 MB

     Estimated total dynamical RAM >      32.81 GB

     Initial potential from superposition of free atoms

     starting charge     373.5072, renormalised to     374.0000

     negative rho (up, down):  2.482E-04 0.000E+00
     Starting wfcs are  254 randomized atomic wfcs

     total cpu time spent up to now is       40.2 secs

     per-process dynamical memory:   117.1 Mb

     Self-consistent Calculation

     iteration #  1     ecut=    60.00 Ry     beta= 0.30
     Davidson diagonalization with overlap
     ethr =  1.00E-02,  avg # of iterations =  7.7

     negative rho (up, down):  6.481E-05 0.000E+00

     total cpu time spent up to now is      101.8 secs

     total energy              =   -1803.16355163 Ry
     estimated scf accuracy    <      13.47097050 Ry

     iteration #  2     ecut=    60.00 Ry     beta= 0.30
     Davidson diagonalization with overlap
     ethr =  3.60E-03,  avg # of iterations =  7.5

     negative rho (up, down):  9.005E-05 0.000E+00

     total cpu time spent up to now is      161.5 secs

     total energy              =   -1796.28867774 Ry
     estimated scf accuracy    <     185.21098062 Ry

     iteration #  3     ecut=    60.00 Ry     beta= 0.30
     Davidson diagonalization with overlap
     ethr =  3.60E-03,  avg # of iterations =  6.3

     negative rho (up, down):  1.983E-04 0.000E+00

     total cpu time spent up to now is      216.7 secs

     total energy              =   -1803.45174427 Ry
     estimated scf accuracy    <     189.60123532 Ry

     iteration #  4     ecut=    60.00 Ry     beta= 0.30
     Davidson diagonalization with overlap
     ethr =  3.60E-03,  avg # of iterations =  3.0

     negative rho (up, down):  7.839E-05 0.000E+00

     total cpu time spent up to now is      256.7 secs

     total energy              =   -1807.39791451 Ry
     estimated scf accuracy    <       3.07891295 Ry

     iteration #  5     ecut=    60.00 Ry     beta= 0.30
     Davidson diagonalization with overlap
     ethr =  8.23E-04,  avg # of iterations =  7.1

     negative rho (up, down):  5.165E-05 0.000E+00

     total cpu time spent up to now is      303.2 secs

     total energy              =   -1807.50824021 Ry
     estimated scf accuracy    <       0.38301075 Ry

     iteration #  6     ecut=    60.00 Ry     beta= 0.30
     Davidson diagonalization with overlap
     ethr =  1.02E-04,  avg # of iterations =  9.9

     negative rho (up, down):  4.309E-05 0.000E+00

     total cpu time spent up to now is      356.5 secs

     total energy              =   -1807.51469996 Ry
     estimated scf accuracy    <       0.48676819 Ry

     iteration #  7     ecut=    60.00 Ry     beta= 0.30
     Davidson diagonalization with overlap
     ethr =  1.02E-04,  avg # of iterations =  2.0

     negative rho (up, down):  2.627E-05 0.000E+00

     total cpu time spent up to now is      394.8 secs

     total energy              =   -1807.54098954 Ry
     estimated scf accuracy    <       0.07050739 Ry

     iteration #  8     ecut=    60.00 Ry     beta= 0.30
     Davidson diagonalization with overlap
     ethr =  1.89E-05,  avg # of iterations =  4.9

     negative rho (up, down):  7.786E-06 0.000E+00

     total cpu time spent up to now is      437.8 secs

     total energy              =   -1807.54388140 Ry
     estimated scf accuracy    <       0.05191918 Ry

     iteration #  9     ecut=    60.00 Ry     beta= 0.30
     Davidson diagonalization with overlap
     ethr =  1.39E-05,  avg # of iterations =  2.9

     total cpu time spent up to now is      476.2 secs

     total energy              =   -1807.54458187 Ry
     estimated scf accuracy    <       0.02233965 Ry

     iteration # 10     ecut=    60.00 Ry     beta= 0.30
     Davidson diagonalization with overlap
     c_bands:  2 eigenvalues not converged
     ethr =  5.97E-06,  avg # of iterations =  8.9

     negative rho (up, down):  4.032E-07 0.000E+00

     total cpu time spent up to now is      522.6 secs

     total energy              =   -1807.54603922 Ry
     estimated scf accuracy    <       0.01008754 Ry

     iteration # 11     ecut=    60.00 Ry     beta= 0.30
     Davidson diagonalization with overlap
     ethr =  2.70E-06,  avg # of iterations =  3.6

     total cpu time spent up to now is      561.6 secs

     total energy              =   -1807.54679754 Ry
     estimated scf accuracy    <       0.00148483 Ry

     iteration # 12     ecut=    60.00 Ry     beta= 0.30
     Davidson diagonalization with overlap
     ethr =  3.97E-07,  avg # of iterations =  5.2

     total cpu time spent up to now is      603.4 secs

     total energy              =   -1807.54691163 Ry
     estimated scf accuracy    <       0.00053357 Ry

     iteration # 13     ecut=    60.00 Ry     beta= 0.30
     Davidson diagonalization with overlap
     ethr =  1.43E-07,  avg # of iterations =  5.7

     total cpu time spent up to now is      646.7 secs

     total energy              =   -1807.54688964 Ry
     estimated scf accuracy    <       0.00285653 Ry

     iteration # 14     ecut=    60.00 Ry     beta= 0.30
     Davidson diagonalization with overlap
     c_bands:  1 eigenvalues not converged
     ethr =  1.43E-07,  avg # of iterations =  3.8

     total cpu time spent up to now is      685.2 secs

     total energy              =   -1807.54697687 Ry
     estimated scf accuracy    <       0.00041040 Ry

     iteration # 15     ecut=    60.00 Ry     beta= 0.30
     Davidson diagonalization with overlap
     ethr =  1.10E-07,  avg # of iterations =  1.1

     total cpu time spent up to now is      720.4 secs

     total energy              =   -1807.54698875 Ry
     estimated scf accuracy    <       0.00003256 Ry

     iteration # 16     ecut=    60.00 Ry     beta= 0.30
     Davidson diagonalization with overlap
     c_bands:  1 eigenvalues not converged
     ethr =  8.71E-09,  avg # of iterations =  6.4

     total cpu time spent up to now is      765.7 secs

     total energy              =   -1807.54699306 Ry
     estimated scf accuracy    <       0.00006334 Ry

     iteration # 17     ecut=    60.00 Ry     beta= 0.30
     Davidson diagonalization with overlap
     ethr =  8.71E-09,  avg # of iterations =  3.0

     total cpu time spent up to now is      805.9 secs

     total energy              =   -1807.54699816 Ry
     estimated scf accuracy    <       0.00002902 Ry

     iteration # 18     ecut=    60.00 Ry     beta= 0.30
     Davidson diagonalization with overlap
     ethr =  7.76E-09,  avg # of iterations =  2.0

     total cpu time spent up to now is      843.7 secs

     total energy              =   -1807.54700087 Ry
     estimated scf accuracy    <       0.00000359 Ry

     iteration # 19     ecut=    60.00 Ry     beta= 0.30
     Davidson diagonalization with overlap
     ethr =  9.60E-10,  avg # of iterations =  4.1

     total cpu time spent up to now is      885.5 secs

     total energy              =   -1807.54700170 Ry
     estimated scf accuracy    <       0.00000348 Ry

     iteration # 20     ecut=    60.00 Ry     beta= 0.30
     Davidson diagonalization with overlap
     ethr =  9.32E-10,  avg # of iterations =  2.3

     total cpu time spent up to now is      923.7 secs

     total energy              =   -1807.54700209 Ry
     estimated scf accuracy    <       0.00000063 Ry

     iteration # 21     ecut=    60.00 Ry     beta= 0.30
     Davidson diagonalization with overlap
     ethr =  1.69E-10,  avg # of iterations =  5.0

     total cpu time spent up to now is      968.2 secs

     total energy              =   -1807.54700217 Ry
     estimated scf accuracy    <       0.00000262 Ry

     iteration # 22     ecut=    60.00 Ry     beta= 0.30
     Davidson diagonalization with overlap
     ethr =  1.69E-10,  avg # of iterations =  3.1

     total cpu time spent up to now is     1008.6 secs

     total energy              =   -1807.54700237 Ry
     estimated scf accuracy    <       0.00000008 Ry

     iteration # 23     ecut=    60.00 Ry     beta= 0.30
     Davidson diagonalization with overlap
     ethr =  2.04E-11,  avg # of iterations =  4.5

     total cpu time spent up to now is     1052.3 secs

     total energy              =   -1807.54700239 Ry
     estimated scf accuracy    <       0.00000005 Ry

     iteration # 24     ecut=    60.00 Ry     beta= 0.30
     Davidson diagonalization with overlap
     ethr =  1.36E-11,  avg # of iterations =  3.1

     total cpu time spent up to now is     1092.6 secs

     total energy              =   -1807.54700239 Ry
     estimated scf accuracy    <       0.00000048 Ry

     iteration # 25     ecut=    60.00 Ry     beta= 0.30
     Davidson diagonalization with overlap
     ethr =  1.36E-11,  avg # of iterations =  3.1

     total cpu time spent up to now is     1132.0 secs

     total energy              =   -1807.54700241 Ry
     estimated scf accuracy    <       0.00000016 Ry

     iteration # 26     ecut=    60.00 Ry     beta= 0.30
     Davidson diagonalization with overlap
     ethr =  1.36E-11,  avg # of iterations =  2.0

     total cpu time spent up to now is     1170.1 secs

     total energy              =   -1807.54700242 Ry
     estimated scf accuracy    <       0.00000002 Ry

     iteration # 27     ecut=    60.00 Ry     beta= 0.30
     Davidson diagonalization with overlap
     ethr =  5.75E-12,  avg # of iterations =  2.0

     total cpu time spent up to now is     1207.4 secs

     End of self-consistent calculation

          k = 0.0000 0.0000 0.0000 (399281 PWs)   bands (ev):

   -49.1147 -48.9584 -48.9550 -48.9548 -48.9547 -48.9534 -48.9524 -48.9505
   -48.9497 -48.9489 -48.9488 -48.9469 -48.9459 -48.9317 -48.9237 -48.9209
   -48.8799 -48.8749 -48.3593 -48.2280 -48.1860 -48.1825 -48.1789 -48.1733
   -48.1706 -48.1697 -48.1690 -48.1638 -48.1630 -48.1618 -48.1588 -48.1571
   -48.1550 -48.1540 -48.1480 -48.1014 -47.9794 -47.9694 -47.9629 -47.9605
   -47.9459 -47.9393 -47.9370 -47.9369 -47.9349 -47.9343 -47.9316 -47.9291
   -47.9287 -47.9284 -47.9278 -47.9217 -47.9208 -47.9175 -47.9125 -47.9108
   -47.9076 -47.9064 -47.9055 -47.9045 -47.9011 -47.8997 -47.8996 -47.8992
   -47.8982 -47.8972 -47.8970 -47.8955 -47.8939 -47.8935 -47.8914 -47.8889
   -47.8884 -47.8882 -47.8875 -47.8852 -47.8848 -47.8831 -47.8829 -47.8821
   -47.8803 -47.8798 -47.8791 -47.8757 -47.8751 -47.8741 -47.8723 -47.8716
   -47.8711 -47.8679 -47.8080 -47.8075 -47.8038 -47.8026 -47.7951 -47.7927
   -47.7926 -47.7914 -47.7911 -47.7899 -47.7883 -47.7853 -47.7809 -47.7807
   -47.7805 -47.7785 -47.7782 -47.7772 -30.8917 -30.5793 -29.4061 -29.0981
   -19.8774 -18.2099 -15.9994 -14.9624 -13.3624 -13.0068 -12.6803 -12.4973
   -11.6187 -11.1199 -10.3042 -10.0005  -9.7014  -9.1178  -9.0314  -8.9448
    -8.8402  -8.7135  -8.4546  -8.0251  -7.0605  -4.7721  -4.3507  -4.0742
    -4.0727  -4.0713  -4.0685  -4.0641  -4.0598  -3.6536  -3.6508  -3.6488
    -3.6463  -3.6429  -3.6332  -3.6082  -2.9093  -2.9031  -2.9014  -2.8994
    -2.8966  -2.8841  -2.6893  -2.6880  -2.6849  -2.6816  -2.6786  -2.6772
    -2.6759  -2.2652  -2.2641  -2.2593  -2.2514  -2.2391  -2.2345  -1.9930
    -1.9861  -1.9840  -1.9832  -1.9801  -1.9785  -1.9440  -1.9363  -1.9349
    -1.9327  -1.9310  -1.9236  -1.7170  -1.5408  -1.5342  -1.5308  -1.5296
    -1.5246  -1.5213  -1.5144  -1.5091  -1.5072  -1.5012  -1.4489  -1.4423
    -1.1081  -1.1027  -1.0948  -1.0821  -1.0808  -1.0451  -0.7936  -0.7919
    -0.7889  -0.7819  -0.7701  -0.7598  -0.7046  -0.7005  -0.6991  -0.6958
    -0.6887  -0.6696  -0.6606  -0.6523  -0.6433  -0.6409  -0.6057  -0.3383
    -0.3035  -0.2003  -0.1965  -0.1931  -0.1872  -0.1757  -0.1538  -0.0296

          k = 0.0000 0.2887 0.0000 (399667 PWs)   bands (ev):

   -49.1148 -48.9585 -48.9550 -48.9549 -48.9548 -48.9535 -48.9525 -48.9506
   -48.9498 -48.9489 -48.9489 -48.9470 -48.9459 -48.9318 -48.9237 -48.9210
   -48.8800 -48.8750 -48.3594 -48.2280 -48.1860 -48.1826 -48.1790 -48.1734
   -48.1707 -48.1697 -48.1690 -48.1638 -48.1630 -48.1618 -48.1588 -48.1571
   -48.1551 -48.1540 -48.1481 -48.1015 -47.9795 -47.9694 -47.9630 -47.9606
   -47.9460 -47.9393 -47.9370 -47.9369 -47.9350 -47.9343 -47.9316 -47.9292
   -47.9287 -47.9284 -47.9279 -47.9218 -47.9209 -47.9175 -47.9125 -47.9109
   -47.9076 -47.9065 -47.9056 -47.9045 -47.9011 -47.8998 -47.8996 -47.8993
   -47.8982 -47.8973 -47.8971 -47.8956 -47.8939 -47.8936 -47.8915 -47.8889
   -47.8885 -47.8882 -47.8876 -47.8852 -47.8848 -47.8833 -47.8830 -47.8821
   -47.8803 -47.8800 -47.8792 -47.8757 -47.8752 -47.8741 -47.8725 -47.8717
   -47.8711 -47.8681 -47.8080 -47.8075 -47.8038 -47.8026 -47.7952 -47.7928
   -47.7926 -47.7914 -47.7911 -47.7899 -47.7884 -47.7854 -47.7810 -47.7808
   -47.7806 -47.7786 -47.7783 -47.7773 -30.8917 -30.5793 -29.4061 -29.0981
   -19.8774 -18.2099 -15.9994 -14.9625 -13.3625 -13.0070 -12.6804 -12.4974
   -11.6189 -11.1201 -10.3044 -10.0007  -9.7015  -9.1178  -9.0316  -8.9449
    -8.8404  -8.7137  -8.4549  -8.0253  -7.0607  -4.7282  -4.3767  -4.3067
    -4.2033  -4.1977  -3.9545  -3.8516  -3.8457  -3.7811  -3.7751  -3.6719
    -3.5641  -3.4291  -3.4227  -3.2501  -3.2085  -3.1550  -3.1478  -3.0337
    -3.0289  -2.7380  -2.7311  -2.6821  -2.6769  -2.6351  -2.6277  -2.6252
    -2.6149  -2.5083  -2.2737  -2.2691  -2.2670  -2.2259  -2.2247  -2.1802
    -2.1343  -2.1285  -2.0928  -2.0869  -1.9715  -1.9676  -1.8510  -1.8458
    -1.7306  -1.7246  -1.7046  -1.6940  -1.6713  -1.5970  -1.5809  -1.5794
    -1.4502  -1.4439  -1.4230  -1.3316  -1.2279  -1.1789  -1.1635  -1.1519
    -1.1506  -1.1382  -1.1338  -1.0647  -1.0546  -1.0179  -1.0073  -0.9137
    -0.9046  -0.8678  -0.8423  -0.8277  -0.8097  -0.8019  -0.7973  -0.7828
    -0.5896  -0.5809  -0.5708  -0.5336  -0.5190  -0.5142  -0.5052  -0.4054
    -0.3924  -0.3595  -0.3197  -0.3115  -0.1812  -0.1072  -0.0688  -0.0569

          k = 0.0000-0.5774 0.0000 (399688 PWs)   bands (ev):

   -49.1148 -48.9585 -48.9551 -48.9549 -48.9548 -48.9535 -48.9525 -48.9506
   -48.9498 -48.9490 -48.9489 -48.9470 -48.9460 -48.9318 -48.9237 -48.9210
   -48.8800 -48.8750 -48.3594 -48.2280 -48.1860 -48.1826 -48.1790 -48.1734
   -48.1707 -48.1697 -48.1691 -48.1638 -48.1630 -48.1618 -48.1588 -48.1572
   -48.1551 -48.1540 -48.1481 -48.1015 -47.9795 -47.9694 -47.9630 -47.9606
   -47.9460 -47.9393 -47.9370 -47.9370 -47.9350 -47.9343 -47.9317 -47.9292
   -47.9287 -47.9285 -47.9279 -47.9218 -47.9209 -47.9176 -47.9125 -47.9109
   -47.9076 -47.9066 -47.9056 -47.9045 -47.9011 -47.8997 -47.8996 -47.8993
   -47.8982 -47.8973 -47.8970 -47.8957 -47.8939 -47.8936 -47.8915 -47.8889
   -47.8885 -47.8882 -47.8875 -47.8852 -47.8848 -47.8833 -47.8830 -47.8820
   -47.8803 -47.8800 -47.8793 -47.8757 -47.8752 -47.8740 -47.8727 -47.8718
   -47.8709 -47.8682 -47.8080 -47.8075 -47.8038 -47.8026 -47.7952 -47.7927
   -47.7926 -47.7914 -47.7911 -47.7899 -47.7884 -47.7854 -47.7809 -47.7808
   -47.7806 -47.7786 -47.7783 -47.7773 -30.8917 -30.5793 -29.4061 -29.0981
   -19.8774 -18.2099 -15.9994 -14.9625 -13.3625 -13.0070 -12.6804 -12.4974
   -11.6189 -11.1201 -10.3044 -10.0007  -9.7016  -9.1179  -9.0316  -8.9449
    -8.8404  -8.7136  -8.4549  -8.0253  -7.0607  -4.5973  -4.5956  -4.2474
    -4.2421  -4.1757  -4.1735  -3.8252  -3.8193  -3.5456  -3.5451  -3.5404
    -3.5375  -3.4331  -3.4284  -3.1895  -3.1878  -3.1235  -3.1223  -3.1206
    -3.1112  -3.0777  -3.0730  -2.7672  -2.7617  -2.5025  -2.5008  -2.4956
    -2.4954  -2.4940  -2.4906  -2.3823  -2.3797  -2.3778  -2.3675  -2.1366
    -2.1314  -2.0626  -2.0595  -2.0577  -2.0553  -2.0264  -2.0042  -1.5721
    -1.5684  -1.5609  -1.5514  -1.5486  -1.5329  -1.4657  -1.4600  -1.4556
    -1.4506  -1.3039  -1.2980  -1.2957  -1.2906  -1.2175  -1.2145  -1.2048
    -1.1753  -1.1621  -1.1482  -1.1452  -1.1064  -1.1035  -1.0904  -1.0750
    -0.9754  -0.9249  -0.7489  -0.7309  -0.7122  -0.6968  -0.6909  -0.6803
    -0.6765  -0.6629  -0.4995  -0.4813  -0.4213  -0.4155  -0.4034  -0.3923
    -0.3789  -0.3757  -0.3588  -0.3526  -0.3360  -0.1796  -0.0511  -0.0456

          k = 0.2500-0.7217 0.0000 (399610 PWs)   bands (ev):

   -49.1148 -48.9584 -48.9550 -48.9549 -48.9548 -48.9535 -48.9525 -48.9506
   -48.9498 -48.9489 -48.9489 -48.9470 -48.9459 -48.9318 -48.9237 -48.9210
   -48.8800 -48.8750 -48.3594 -48.2280 -48.1860 -48.1826 -48.1790 -48.1734
   -48.1706 -48.1697 -48.1690 -48.1638 -48.1630 -48.1618 -48.1588 -48.1571
   -48.1551 -48.1540 -48.1481 -48.1015 -47.9795 -47.9694 -47.9630 -47.9606
   -47.9459 -47.9393 -47.9370 -47.9369 -47.9350 -47.9343 -47.9316 -47.9291
   -47.9287 -47.9284 -47.9278 -47.9218 -47.9208 -47.9175 -47.9125 -47.9109
   -47.9076 -47.9065 -47.9056 -47.9045 -47.9011 -47.8997 -47.8996 -47.8993
   -47.8982 -47.8973 -47.8970 -47.8956 -47.8939 -47.8936 -47.8915 -47.8889
   -47.8885 -47.8882 -47.8875 -47.8852 -47.8848 -47.8833 -47.8829 -47.8820
   -47.8803 -47.8800 -47.8792 -47.8757 -47.8752 -47.8741 -47.8726 -47.8717
   -47.8711 -47.8682 -47.8080 -47.8075 -47.8038 -47.8026 -47.7952 -47.7927
   -47.7926 -47.7914 -47.7911 -47.7899 -47.7884 -47.7854 -47.7809 -47.7808
   -47.7806 -47.7785 -47.7783 -47.7773 -30.8917 -30.5793 -29.4061 -29.0981
   -19.8774 -18.2099 -15.9994 -14.9625 -13.3625 -13.0069 -12.6804 -12.4974
   -11.6189 -11.1200 -10.3044 -10.0007  -9.7015  -9.1178  -9.0316  -8.9450
    -8.8403  -8.7136  -8.4548  -8.0253  -7.0610  -4.6404  -4.4671  -4.4620
    -4.2187  -4.0448  -4.0402  -3.9381  -3.9360  -3.5867  -3.5163  -3.5124
    -3.4753  -3.4120  -3.4055  -3.2989  -3.2957  -3.1634  -3.0627  -3.0615
    -2.9942  -2.9887  -2.8765  -2.8736  -2.7680  -2.7652  -2.6424  -2.6313
    -2.5424  -2.4700  -2.4659  -2.4173  -2.3605  -2.3583  -2.2238  -2.2209
    -2.0473  -2.0455  -1.9052  -1.8722  -1.8688  -1.8663  -1.8130  -1.8107
    -1.7235  -1.7196  -1.6165  -1.6105  -1.6076  -1.5844  -1.4579  -1.4353
    -1.4337  -1.4195  -1.4006  -1.3944  -1.3901  -1.3071  -1.3031  -1.1506
    -1.1239  -1.1201  -1.0697  -0.9733  -0.9698  -0.9553  -0.9400  -0.8840
    -0.8631  -0.8501  -0.8435  -0.8374  -0.8311  -0.8228  -0.6767  -0.6716
    -0.6358  -0.6292  -0.5904  -0.5041  -0.4868  -0.4741  -0.4198  -0.4122
    -0.3960  -0.3665  -0.3532  -0.2416  -0.2366  -0.2053  -0.1874  -0.0550

          k =-0.2500 0.1443 0.0000 (399667 PWs)   bands (ev):

   -49.1148 -48.9585 -48.9551 -48.9549 -48.9548 -48.9535 -48.9525 -48.9506
   -48.9498 -48.9489 -48.9489 -48.9470 -48.9459 -48.9318 -48.9237 -48.9210
   -48.8800 -48.8750 -48.3594 -48.2280 -48.1860 -48.1826 -48.1790 -48.1734
   -48.1707 -48.1697 -48.1690 -48.1638 -48.1630 -48.1618 -48.1588 -48.1571
   -48.1551 -48.1540 -48.1481 -48.1015 -47.9795 -47.9694 -47.9630 -47.9606
   -47.9460 -47.9393 -47.9370 -47.9369 -47.9350 -47.9343 -47.9316 -47.9292
   -47.9287 -47.9284 -47.9279 -47.9218 -47.9209 -47.9175 -47.9125 -47.9109
   -47.9076 -47.9065 -47.9056 -47.9045 -47.9011 -47.8998 -47.8997 -47.8993
   -47.8982 -47.8973 -47.8971 -47.8956 -47.8939 -47.8936 -47.8914 -47.8889
   -47.8885 -47.8882 -47.8876 -47.8853 -47.8848 -47.8832 -47.8829 -47.8822
   -47.8803 -47.8799 -47.8792 -47.8757 -47.8752 -47.8741 -47.8725 -47.8717
   -47.8711 -47.8681 -47.8080 -47.8075 -47.8038 -47.8026 -47.7952 -47.7927
   -47.7927 -47.7914 -47.7911 -47.7899 -47.7884 -47.7854 -47.7810 -47.7808
   -47.7806 -47.7786 -47.7783 -47.7773 -30.8917 -30.5793 -29.4061 -29.0981
   -19.8774 -18.2099 -15.9994 -14.9625 -13.3625 -13.0069 -12.6804 -12.4974
   -11.6189 -11.1201 -10.3044 -10.0007  -9.7015  -9.1178  -9.0316  -8.9451
    -8.8405  -8.7136  -8.4549  -8.0254  -7.0609  -4.7282  -4.3766  -4.3067
    -4.2025  -4.1986  -3.9545  -3.8507  -3.8465  -3.7812  -3.7749  -3.6719
    -3.5642  -3.4292  -3.4226  -3.2498  -3.2089  -3.1539  -3.1490  -3.0359
    -3.0265  -2.7379  -2.7308  -2.6845  -2.6749  -2.6341  -2.6281  -2.6259
    -2.6150  -2.5082  -2.2732  -2.2697  -2.2676  -2.2270  -2.2229  -2.1805
    -2.1330  -2.1292  -2.0954  -2.0840  -1.9744  -1.9647  -1.8491  -1.8471
    -1.7335  -1.7233  -1.7032  -1.6957  -1.6710  -1.5954  -1.5805  -1.5801
    -1.4504  -1.4438  -1.4248  -1.3321  -1.2274  -1.1774  -1.1655  -1.1550
    -1.1482  -1.1388  -1.1330  -1.0635  -1.0526  -1.0159  -1.0088  -0.9183
    -0.9027  -0.8677  -0.8402  -0.8253  -0.8082  -0.8038  -0.7963  -0.7868
    -0.5914  -0.5785  -0.5707  -0.5322  -0.5232  -0.5137  -0.5035  -0.4045
    -0.3966  -0.3576  -0.3194  -0.3110  -0.1845  -0.1100  -0.0638  -0.0578

          k = 0.2500 0.1443 0.0000 (399667 PWs)   bands (ev):

   -49.1148 -48.9585 -48.9551 -48.9549 -48.9548 -48.9535 -48.9525 -48.9506
   -48.9498 -48.9489 -48.9489 -48.9470 -48.9459 -48.9318 -48.9237 -48.9210
   -48.8800 -48.8750 -48.3594 -48.2280 -48.1860 -48.1826 -48.1790 -48.1734
   -48.1707 -48.1697 -48.1690 -48.1638 -48.1630 -48.1618 -48.1588 -48.1571
   -48.1551 -48.1540 -48.1481 -48.1015 -47.9795 -47.9694 -47.9630 -47.9606
   -47.9460 -47.9393 -47.9370 -47.9369 -47.9350 -47.9343 -47.9316 -47.9292
   -47.9287 -47.9284 -47.9279 -47.9218 -47.9209 -47.9175 -47.9125 -47.9109
   -47.9076 -47.9065 -47.9056 -47.9045 -47.9011 -47.8998 -47.8997 -47.8992
   -47.8982 -47.8973 -47.8971 -47.8956 -47.8939 -47.8937 -47.8915 -47.8890
   -47.8885 -47.8882 -47.8875 -47.8853 -47.8848 -47.8833 -47.8829 -47.8822
   -47.8803 -47.8799 -47.8792 -47.8758 -47.8752 -47.8741 -47.8724 -47.8717
   -47.8712 -47.8681 -47.8080 -47.8075 -47.8038 -47.8026 -47.7952 -47.7927
   -47.7926 -47.7914 -47.7912 -47.7899 -47.7884 -47.7854 -47.7809 -47.7808
   -47.7806 -47.7786 -47.7783 -47.7773 -30.8917 -30.5793 -29.4061 -29.0981
   -19.8774 -18.2099 -15.9994 -14.9625 -13.3625 -13.0069 -12.6804 -12.4974
   -11.6190 -11.1200 -10.3044 -10.0007  -9.7015  -9.1178  -9.0316  -8.9451
    -8.8404  -8.7137  -8.4549  -8.0253  -7.0610  -4.7282  -4.3766  -4.3067
    -4.2014  -4.1999  -3.9543  -3.8494  -3.8478  -3.7799  -3.7766  -3.6719
    -3.5642  -3.4276  -3.4241  -3.2498  -3.2085  -3.1524  -3.1504  -3.0338
    -3.0293  -2.7364  -2.7324  -2.6818  -2.6771  -2.6339  -2.6279  -2.6268
    -2.6152  -2.5073  -2.2715  -2.2697  -2.2686  -2.2272  -2.2236  -2.1807
    -2.1321  -2.1301  -2.0946  -2.0863  -1.9715  -1.9660  -1.8496  -1.8459
    -1.7326  -1.7242  -1.7019  -1.6987  -1.6722  -1.5917  -1.5812  -1.5796
    -1.4509  -1.4456  -1.4238  -1.3292  -1.2265  -1.1773  -1.1685  -1.1572
    -1.1511  -1.1394  -1.1326  -1.0630  -1.0521  -1.0141  -1.0118  -0.9154
    -0.9047  -0.8680  -0.8306  -0.8286  -0.8082  -0.8017  -0.7949  -0.7908
    -0.5908  -0.5787  -0.5712  -0.5298  -0.5253  -0.5144  -0.5073  -0.4041
    -0.3941  -0.3591  -0.3163  -0.3119  -0.1991  -0.0873  -0.0655  -0.0585

          k = 0.5000-0.2887 0.0000 (399688 PWs)   bands (ev):

   -49.1148 -48.9585 -48.9551 -48.9549 -48.9548 -48.9535 -48.9525 -48.9506
   -48.9498 -48.9490 -48.9489 -48.9470 -48.9460 -48.9318 -48.9237 -48.9210
   -48.8800 -48.8750 -48.3594 -48.2280 -48.1860 -48.1826 -48.1790 -48.1734
   -48.1707 -48.1697 -48.1691 -48.1638 -48.1630 -48.1618 -48.1588 -48.1572
   -48.1551 -48.1540 -48.1481 -48.1015 -47.9795 -47.9694 -47.9630 -47.9606
   -47.9460 -47.9393 -47.9370 -47.9370 -47.9350 -47.9343 -47.9317 -47.9292
   -47.9287 -47.9285 -47.9279 -47.9218 -47.9209 -47.9176 -47.9125 -47.9109
   -47.9077 -47.9066 -47.9056 -47.9046 -47.9011 -47.8997 -47.8996 -47.8993
   -47.8982 -47.8973 -47.8971 -47.8957 -47.8938 -47.8937 -47.8914 -47.8889
   -47.8885 -47.8882 -47.8876 -47.8853 -47.8848 -47.8832 -47.8829 -47.8822
   -47.8803 -47.8800 -47.8792 -47.8756 -47.8752 -47.8741 -47.8726 -47.8718
   -47.8710 -47.8682 -47.8080 -47.8075 -47.8038 -47.8026 -47.7952 -47.7927
   -47.7927 -47.7914 -47.7912 -47.7899 -47.7884 -47.7854 -47.7810 -47.7808
   -47.7806 -47.7786 -47.7783 -47.7773 -30.8917 -30.5793 -29.4061 -29.0981
   -19.8774 -18.2099 -15.9994 -14.9625 -13.3625 -13.0070 -12.6804 -12.4974
   -11.6189 -11.1200 -10.3044 -10.0007  -9.7015  -9.1178  -9.0317  -8.9451
    -8.8404  -8.7136  -8.4549  -8.0255  -7.0610  -4.5990  -4.5940  -4.2467
    -4.2428  -4.1769  -4.1723  -3.8254  -3.8191  -3.5458  -3.5429  -3.5413
    -3.5385  -3.4323  -3.4293  -3.1893  -3.1882  -3.1255  -3.1207  -3.1191
    -3.1130  -3.0795  -3.0704  -2.7687  -2.7602  -2.5026  -2.5012  -2.4977
    -2.4955  -2.4920  -2.4897  -2.3829  -2.3800  -2.3758  -2.3693  -2.1391
    -2.1282  -2.0628  -2.0617  -2.0583  -2.0527  -2.0274  -2.0014  -1.5708
    -1.5679  -1.5593  -1.5539  -1.5506  -1.5317  -1.4694  -1.4614  -1.4537
    -1.4531  -1.3014  -1.2975  -1.2936  -1.2910  -1.2177  -1.2144  -1.2024
    -1.1754  -1.1622  -1.1507  -1.1448  -1.1047  -1.0972  -1.0919  -1.0813
    -0.9791  -0.9240  -0.7531  -0.7328  -0.7096  -0.7002  -0.6830  -0.6810
    -0.6773  -0.6580  -0.5015  -0.4845  -0.4168  -0.4126  -0.4067  -0.3906
    -0.3771  -0.3762  -0.3682  -0.3517  -0.3260  -0.1870  -0.0493  -0.0245

          k =-0.5000-0.2887 0.0000 (399688 PWs)   bands (ev):

   -49.1148 -48.9585 -48.9551 -48.9549 -48.9548 -48.9535 -48.9525 -48.9506
   -48.9498 -48.9490 -48.9489 -48.9470 -48.9460 -48.9318 -48.9237 -48.9210
   -48.8800 -48.8750 -48.3594 -48.2280 -48.1860 -48.1826 -48.1790 -48.1734
   -48.1707 -48.1697 -48.1691 -48.1638 -48.1630 -48.1618 -48.1588 -48.1572
   -48.1551 -48.1540 -48.1481 -48.1015 -47.9795 -47.9694 -47.9630 -47.9606
   -47.9460 -47.9393 -47.9370 -47.9370 -47.9350 -47.9343 -47.9317 -47.9292
   -47.9287 -47.9285 -47.9279 -47.9218 -47.9209 -47.9176 -47.9125 -47.9109
   -47.9077 -47.9065 -47.9056 -47.9045 -47.9011 -47.8998 -47.8997 -47.8992
   -47.8982 -47.8974 -47.8970 -47.8956 -47.8938 -47.8937 -47.8915 -47.8890
   -47.8885 -47.8881 -47.8875 -47.8853 -47.8848 -47.8833 -47.8829 -47.8821
   -47.8803 -47.8799 -47.8792 -47.8758 -47.8752 -47.8741 -47.8725 -47.8716
   -47.8712 -47.8682 -47.8080 -47.8075 -47.8038 -47.8026 -47.7952 -47.7927
   -47.7926 -47.7914 -47.7912 -47.7899 -47.7884 -47.7854 -47.7809 -47.7808
   -47.7806 -47.7786 -47.7783 -47.7773 -30.8917 -30.5793 -29.4061 -29.0981
   -19.8774 -18.2099 -15.9994 -14.9625 -13.3625 -13.0070 -12.6804 -12.4974
   -11.6190 -11.1200 -10.3045 -10.0007  -9.7015  -9.1178  -9.0316  -8.9451
    -8.8404  -8.7136  -8.4549  -8.0254  -7.0610  -4.5998  -4.5930  -4.2455
    -4.2440  -4.1790  -4.1701  -3.8240  -3.8208  -3.5451  -3.5432  -3.5410
    -3.5389  -3.4360  -3.4253  -3.1894  -3.1878  -3.1256  -3.1214  -3.1185
    -3.1131  -3.0773  -3.0728  -2.7697  -2.7586  -2.5062  -2.5019  -2.5014
    -2.4921  -2.4904  -2.4858  -2.3840  -2.3793  -2.3763  -2.3693  -2.1389
    -2.1299  -2.0656  -2.0646  -2.0551  -2.0493  -2.0303  -1.9974  -1.5665
    -1.5640  -1.5613  -1.5588  -1.5571  -1.5229  -1.4689  -1.4661  -1.4581
    -1.4520  -1.3028  -1.2972  -1.2949  -1.2889  -1.2178  -1.2172  -1.1969
    -1.1761  -1.1659  -1.1458  -1.1444  -1.0980  -1.0954  -1.0916  -1.0896
    -0.9813  -0.9236  -0.7543  -0.7364  -0.7049  -0.7002  -0.6927  -0.6787
    -0.6682  -0.6591  -0.5046  -0.4794  -0.4190  -0.4115  -0.4051  -0.3798
    -0.3764  -0.3749  -0.3699  -0.3546  -0.3336  -0.1983  -0.0430  -0.0331

          k =-0.2500-0.7217 0.0000 (399610 PWs)   bands (ev):

   -49.1148 -48.9584 -48.9550 -48.9549 -48.9548 -48.9535 -48.9525 -48.9506
   -48.9498 -48.9489 -48.9489 -48.9470 -48.9459 -48.9318 -48.9237 -48.9210
   -48.8800 -48.8750 -48.3594 -48.2280 -48.1860 -48.1826 -48.1790 -48.1734
   -48.1706 -48.1697 -48.1690 -48.1638 -48.1630 -48.1618 -48.1588 -48.1571
   -48.1551 -48.1540 -48.1481 -48.1015 -47.9795 -47.9694 -47.9630 -47.9606
   -47.9460 -47.9393 -47.9370 -47.9369 -47.9350 -47.9343 -47.9316 -47.9291
   -47.9287 -47.9284 -47.9278 -47.9218 -47.9208 -47.9175 -47.9125 -47.9109
   -47.9076 -47.9065 -47.9055 -47.9045 -47.9011 -47.8997 -47.8996 -47.8993
   -47.8982 -47.8973 -47.8970 -47.8956 -47.8939 -47.8936 -47.8915 -47.8889
   -47.8885 -47.8882 -47.8875 -47.8852 -47.8848 -47.8832 -47.8829 -47.8821
   -47.8803 -47.8800 -47.8792 -47.8757 -47.8752 -47.8740 -47.8726 -47.8718
   -47.8710 -47.8682 -47.8080 -47.8075 -47.8038 -47.8026 -47.7952 -47.7927
   -47.7926 -47.7914 -47.7911 -47.7899 -47.7884 -47.7854 -47.7809 -47.7808
   -47.7806 -47.7785 -47.7783 -47.7773 -30.8917 -30.5793 -29.4061 -29.0981
   -19.8774 -18.2099 -15.9994 -14.9625 -13.3625 -13.0070 -12.6804 -12.4974
   -11.6189 -11.1200 -10.3044 -10.0007  -9.7015  -9.1178  -9.0316  -8.9450
    -8.8403  -8.7136  -8.4548  -8.0253  -7.0609  -4.6404  -4.4680  -4.4610
    -4.2187  -4.0470  -4.0379  -3.9387  -3.9353  -3.5868  -3.5178  -3.5108
    -3.4750  -3.4134  -3.4043  -3.3027  -3.2920  -3.1638  -3.0629  -3.0612
    -2.9967  -2.9867  -2.8769  -2.8730  -2.7708  -2.7620  -2.6434  -2.6298
    -2.5419  -2.4724  -2.4644  -2.4175  -2.3677  -2.3513  -2.2281  -2.2175
    -2.0470  -2.0457  -1.9068  -1.8703  -1.8678  -1.8642  -1.8180  -1.8065
    -1.7268  -1.7181  -1.6150  -1.6118  -1.6074  -1.5834  -1.4585  -1.4377
    -1.4306  -1.4260  -1.3981  -1.3934  -1.3873  -1.3117  -1.3032  -1.1513
    -1.1229  -1.1214  -1.0629  -0.9751  -0.9692  -0.9534  -0.9380  -0.8860
    -0.8674  -0.8472  -0.8457  -0.8374  -0.8332  -0.8184  -0.6781  -0.6695
    -0.6339  -0.6304  -0.5917  -0.5011  -0.4834  -0.4808  -0.4274  -0.4114
    -0.3975  -0.3731  -0.3437  -0.2461  -0.2360  -0.2032  -0.1791  -0.0555

          k =-0.5000-0.5774 0.0000 (399610 PWs)   bands (ev):

   -49.1148 -48.9584 -48.9550 -48.9549 -48.9548 -48.9535 -48.9525 -48.9506
   -48.9498 -48.9489 -48.9489 -48.9470 -48.9459 -48.9318 -48.9237 -48.9210
   -48.8800 -48.8750 -48.3594 -48.2280 -48.1860 -48.1826 -48.1790 -48.1734
   -48.1706 -48.1697 -48.1690 -48.1638 -48.1630 -48.1618 -48.1588 -48.1571
   -48.1551 -48.1540 -48.1481 -48.1015 -47.9795 -47.9694 -47.9630 -47.9606
   -47.9460 -47.9393 -47.9370 -47.9369 -47.9350 -47.9343 -47.9316 -47.9291
   -47.9287 -47.9284 -47.9278 -47.9218 -47.9209 -47.9175 -47.9125 -47.9109
   -47.9076 -47.9065 -47.9056 -47.9045 -47.9011 -47.8997 -47.8996 -47.8993
   -47.8982 -47.8973 -47.8970 -47.8956 -47.8938 -47.8937 -47.8914 -47.8890
   -47.8885 -47.8882 -47.8875 -47.8853 -47.8848 -47.8832 -47.8829 -47.8822
   -47.8803 -47.8799 -47.8792 -47.8757 -47.8752 -47.8741 -47.8725 -47.8717
   -47.8711 -47.8682 -47.8080 -47.8075 -47.8038 -47.8026 -47.7952 -47.7927
   -47.7926 -47.7914 -47.7911 -47.7899 -47.7884 -47.7854 -47.7809 -47.7808
   -47.7806 -47.7785 -47.7783 -47.7773 -30.8917 -30.5793 -29.4061 -29.0981
   -19.8774 -18.2099 -15.9994 -14.9625 -13.3625 -13.0069 -12.6804 -12.4973
   -11.6189 -11.1200 -10.3044 -10.0007  -9.7015  -9.1178  -9.0316  -8.9450
    -8.8404  -8.7136  -8.4548  -8.0253  -7.0609  -4.6404  -4.4653  -4.4638
    -4.2187  -4.0436  -4.0413  -3.9378  -3.9363  -3.5866  -3.5171  -3.5115
    -3.4753  -3.4097  -3.4078  -3.2997  -3.2950  -3.1634  -3.0629  -3.0613
    -2.9926  -2.9906  -2.8755  -2.8744  -2.7710  -2.7620  -2.6409  -2.6328
    -2.5424  -2.4703  -2.4656  -2.4177  -2.3624  -2.3560  -2.2256  -2.2197
    -2.0475  -2.0449  -1.9028  -1.8764  -1.8681  -1.8663  -1.8157  -1.8066
    -1.7252  -1.7168  -1.6175  -1.6096  -1.6074  -1.5852  -1.4576  -1.4390
    -1.4316  -1.4178  -1.4012  -1.3953  -1.3902  -1.3112  -1.3003  -1.1508
    -1.1250  -1.1184  -1.0691  -0.9725  -0.9665  -0.9572  -0.9411  -0.8835
    -0.8617  -0.8483  -0.8425  -0.8399  -0.8304  -0.8279  -0.6763  -0.6701
    -0.6371  -0.6280  -0.5902  -0.5073  -0.4906  -0.4674  -0.4180  -0.4120
    -0.3955  -0.3660  -0.3531  -0.2406  -0.2346  -0.2100  -0.1918  -0.0547

     the Fermi energy is    -1.3585 ev

!    total energy              =   -1807.54700242 Ry
     estimated scf accuracy    <          3.5E-09 Ry
     smearing contrib. (-TS)   =      -0.01191140 Ry
     internal energy E=F+TS    =   -1807.53509102 Ry

     The total energy is F=E-TS. E is the sum of the following terms:
     one-electron contribution =  -15304.00963176 Ry
     hartree contribution      =    7500.51694952 Ry
     xc contribution           =    -424.46723620 Ry
     ewald contribution        =    6420.42482742 Ry

     convergence has been achieved in  27 iterations

     Forces acting on atoms (cartesian axes, Ry/au):

     atom    1 type  1   force =    -0.00003346   -0.00048182    0.00044067
     atom    2 type  1   force =    -0.00004172    0.00001108    0.00019996
     atom    3 type  1   force =     0.00001225   -0.00009394   -0.00026682
     atom    4 type  1   force =     0.00000760   -0.00008643   -0.00014448
     atom    5 type  1   force =    -0.00006614    0.00008187    0.00002890
     atom    6 type  1   force =    -0.00008219    0.00001385   -0.00000154
     atom    7 type  1   force =    -0.00028468   -0.00016275   -0.00014064
     atom    8 type  1   force =    -0.00002309    0.00004971    0.00006082
     atom    9 type  1   force =    -0.00026369    0.00008705    0.00007977
     atom   10 type  1   force =     0.00003648   -0.00005349    0.00006989
     atom   11 type  1   force =     0.00004280   -0.00013323   -0.00004717
     atom   12 type  1   force =    -0.00021213   -0.00003902   -0.00019642
     atom   13 type  1   force =     0.00020741    0.00015796    0.00033201
     atom   14 type  1   force =    -0.00009399   -0.00000817    0.00027204
     atom   15 type  1   force =    -0.00009215   -0.00006452   -0.00025255
     atom   16 type  1   force =    -0.00005589    0.00000528   -0.00018834
     atom   17 type  1   force =    -0.00014643   -0.00008363   -0.00028503
     atom   18 type  1   force =    -0.00007084   -0.00006806    0.00011009
     atom   19 type  1   force =    -0.00011941    0.00010858   -0.00015752
     atom   20 type  1   force =    -0.00006010   -0.00003121   -0.00048187
     atom   21 type  1   force =    -0.00003373   -0.00012896    0.00030590
     atom   22 type  1   force =     0.00006477    0.00000405    0.00001040
     atom   23 type  1   force =    -0.00043078   -0.00022549   -0.00064976
     atom   24 type  1   force =     0.00007606    0.00083281   -0.00019107
     atom   25 type  1   force =     0.00021304    0.00010873    0.00024362
     atom   26 type  1   force =     0.00001522    0.00006698    0.00081294
     atom   27 type  1   force =     0.00015647    0.00008767   -0.00019035
     atom   28 type  1   force =     0.00001548    0.00002489   -0.00008012
     atom   29 type  1   force =    -0.00001464    0.00011488    0.00015811
     atom   30 type  1   force =    -0.00000392    0.00016041    0.00001142
     atom   31 type  1   force =    -0.00002340    0.00017173    0.00009978
     atom   32 type  1   force =     0.00007426    0.00000965    0.00016892
     atom   33 type  1   force =    -0.00016018    0.00021311    0.00002753
     atom   34 type  1   force =     0.00025332   -0.00005323    0.00057768
     atom   35 type  1   force =     0.00007651    0.00038616   -0.00023688
     atom   36 type  1   force =     0.00024304    0.00009479   -0.00014616
     atom   37 type  1   force =     0.00016546    0.00000183    0.00013421
     atom   38 type  1   force =    -0.00000152   -0.00003263    0.00028072
     atom   39 type  1   force =     0.00001147   -0.00019383   -0.00028132
     atom   40 type  1   force =     0.00001401   -0.00001912    0.00003397
     atom   41 type  1   force =    -0.00008281   -0.00011284   -0.00002487
     atom   42 type  1   force =     0.00001442   -0.00006018    0.00005051
     atom   43 type  1   force =    -0.00004580   -0.00013072   -0.00016237
     atom   44 type  1   force =     0.00000691    0.00008726    0.00008053
     atom   45 type  1   force =     0.00021439    0.00015476    0.00020391
     atom   46 type  1   force =     0.00037642   -0.00019951    0.00023543
     atom   47 type  1   force =    -0.00004906    0.00021735   -0.00026012
     atom   48 type  1   force =     0.00004591   -0.00010021   -0.00007267
     atom   49 type  1   force =     0.00015571    0.00005527    0.00023612
     atom   50 type  1   force =     0.00006928    0.00000247    0.00057427
     atom   51 type  1   force =     0.00016584    0.00010614   -0.00025109
     atom   52 type  1   force =     0.00000558   -0.00003056   -0.00010273
     atom   53 type  1   force =     0.00010326   -0.00006960   -0.00015199
     atom   54 type  1   force =     0.00011809   -0.00008748   -0.00000679
     atom   55 type  1   force =     0.00010137    0.00010936   -0.00035757
     atom   56 type  1   force =     0.00014996    0.00000983   -0.00037041
     atom   57 type  1   force =     0.00003763   -0.00014699    0.00011225
     atom   58 type  1   force =     0.00005316    0.00015718    0.00064395
     atom   59 type  1   force =     0.00070275   -0.00033602   -0.00077643
     atom   60 type  1   force =     0.00031347    0.00016769   -0.00005922
     atom   61 type  1   force =    -0.00022851   -0.00006737    0.00021429
     atom   62 type  1   force =     0.00001094    0.00002960    0.00015499
     atom   63 type  1   force =     0.00001951   -0.00003504   -0.00019944
     atom   64 type  1   force =    -0.00008465   -0.00002731   -0.00008362
     atom   65 type  1   force =    -0.00003023    0.00000080   -0.00014329
     atom   66 type  1   force =    -0.00010525   -0.00011577    0.00021047
     atom   67 type  1   force =     0.00005676    0.00000499    0.00007320
     atom   68 type  1   force =    -0.00016694   -0.00006947   -0.00008234
     atom   69 type  1   force =    -0.00013971   -0.00008515    0.00042465
     atom   70 type  1   force =    -0.00031542   -0.00015888    0.00068587
     atom   71 type  1   force =    -0.00010674   -0.00010261   -0.00041504
     atom   72 type  1   force =    -0.00001247   -0.00000478    0.00005472
     atom   73 type  1   force =    -0.00006437    0.00001194    0.00009856
     atom   74 type  1   force =     0.00007214    0.00001161    0.00017957
     atom   75 type  1   force =    -0.00001343   -0.00000197   -0.00008694
     atom   76 type  1   force =    -0.00002102   -0.00003848    0.00001511
     atom   77 type  1   force =    -0.00000939    0.00000915   -0.00004651
     atom   78 type  1   force =    -0.00004783   -0.00011972    0.00020359
     atom   79 type  1   force =     0.00026540   -0.00018201   -0.00007700
     atom   80 type  1   force =    -0.00009108   -0.00002642    0.00000014
     atom   81 type  1   force =    -0.00006553   -0.00035607    0.00026427
     atom   82 type  1   force =    -0.00047996   -0.00020443    0.00014578
     atom   83 type  1   force =    -0.00013292   -0.00005400   -0.00015425
     atom   84 type  1   force =     0.00003529   -0.00002728    0.00010168
     atom   85 type  1   force =    -0.00035679    0.00017431    0.00034734
     atom   86 type  1   force =     0.00001554   -0.00003127    0.00022116
     atom   87 type  1   force =    -0.00008256    0.00008572   -0.00019827
     atom   88 type  1   force =     0.00000944    0.00005219   -0.00008726
     atom   89 type  1   force =     0.00005164   -0.00019650    0.00000097
     atom   90 type  1   force =    -0.00002354   -0.00011016   -0.00001320
     atom   91 type  1   force =     0.00006225   -0.00003958    0.00010526
     atom   92 type  1   force =     0.00000964   -0.00019695    0.00009551
     atom   93 type  1   force =    -0.00002749   -0.00023146    0.00001647
     atom   94 type  1   force =    -0.00005247    0.00000309    0.00016529
     atom   95 type  1   force =    -0.00007796    0.00010877   -0.00009811
     atom   96 type  1   force =    -0.00029395   -0.00009496   -0.00028870
     atom   97 type  1   force =     0.00004918    0.00012106    0.00011252
     atom   98 type  1   force =     0.00001651    0.00001128    0.00023835
     atom   99 type  1   force =    -0.00017735    0.00009194   -0.00015456
     atom  100 type  1   force =    -0.00002152   -0.00000404    0.00016323
     atom  101 type  1   force =    -0.00008299   -0.00003807   -0.00005375
     atom  102 type  1   force =    -0.00005502    0.00009717    0.00008877
     atom  103 type  1   force =    -0.00017081   -0.00015199    0.00013829
     atom  104 type  1   force =     0.00007754   -0.00006487    0.00004886
     atom  105 type  1   force =     0.00020494    0.00014010    0.00008242
     atom  106 type  1   force =    -0.00007888   -0.00003088    0.00052009
     atom  107 type  1   force =     0.00012480   -0.00020577   -0.00030250
     atom  108 type  1   force =    -0.00015214    0.00012779   -0.00015085
     atom  109 type  2   force =    -0.00145381    0.00024493   -0.00131889
     atom  110 type  2   force =    -0.00059995   -0.00068251    0.00030251
     atom  111 type  3   force =     0.00010718    0.00274187   -0.00310166
     atom  112 type  3   force =     0.00112939    0.00017137    0.00196459
     atom  113 type  3   force =     0.00133404   -0.00252898    0.00079859
     atom  114 type  2   force =    -0.00089750    0.00035238    0.00029672
     atom  115 type  4   force =     0.00094059   -0.00056865    0.00042926
     atom  116 type  3   force =    -0.00054064   -0.00178891   -0.00211408
     atom  117 type  2   force =    -0.00086003    0.00070319   -0.00080493
     atom  118 type  4   force =     0.00122696   -0.00037636    0.00169417
     atom  119 type  3   force =     0.00062676    0.00212382   -0.00190220
     atom  120 type  4   force =     0.00080987    0.00125134    0.00114411
     atom  121 type  4   force =    -0.00013320   -0.00084777    0.00107349
     atom  122 type  3   force =    -0.00083028    0.00056933   -0.00105948

     Total force =     0.009006     Total SCF correction =     0.000083


     Computing stress (Cartesian axis) and pressure

          total   stress  (Ry/bohr**3)                   (kbar)     P=       -6.38
  -0.00004674   0.00000044  -0.00000002           -6.88        0.07       -0.00
   0.00000044  -0.00004605   0.00000064            0.07       -6.77        0.09
  -0.00000002   0.00000064  -0.00003738           -0.00        0.09       -5.50


     Writing all to output data dir /scratch/deepanthpcu/ml/tmp/Li_PVDF/Li_PVDF.save/ :
     XML data file, charge density, pseudopotentials, collected wavefunctions
 
     init_run     :     24.79s CPU     35.15s WALL (       1 calls)
     electrons    :   1149.05s CPU   1169.21s WALL (       1 calls)
     forces       :      9.67s CPU      9.81s WALL (       1 calls)
     stress       :     32.08s CPU     32.50s WALL (       1 calls)

     Called by init_run:
     wfcinit      :     18.29s CPU     27.43s WALL (       1 calls)
     potinit      :      0.26s CPU      0.95s WALL (       1 calls)
     hinit0       :      0.35s CPU      0.79s WALL (       1 calls)

     Called by electrons:
     c_bands      :   1033.67s CPU   1050.03s WALL (      27 calls)
     sum_band     :    106.18s CPU    107.71s WALL (      27 calls)
     v_of_rho     :      6.27s CPU      6.98s WALL (      28 calls)
     mix_rho      :      1.47s CPU      1.75s WALL (      27 calls)

     Called by c_bands:
     init_us_2    :     38.13s CPU     38.61s WALL (     570 calls)
     cegterg      :    999.30s CPU   1013.20s WALL (     270 calls)

     Called by *egterg:
     cdiaghg      :     49.19s CPU     58.92s WALL (    1472 calls)
     h_psi        :    771.85s CPU    780.53s WALL (    1482 calls)
     g_psi        :      2.35s CPU      2.37s WALL (    1202 calls)

     Called by h_psi:
     h_psi:calbec :    120.67s CPU    121.83s WALL (    1482 calls)
     vloc_psi     :    529.21s CPU    535.27s WALL (    1482 calls)
     add_vuspsi   :    116.16s CPU    117.06s WALL (    1482 calls)

     General routines
     calbec       :    150.29s CPU    151.69s WALL (    1652 calls)
     fft          :      5.67s CPU      6.49s WALL (     358 calls)
     ffts         :      0.28s CPU      0.69s WALL (      55 calls)
     fftw         :    381.40s CPU    385.36s WALL (  343248 calls)
     interpolate  :      0.62s CPU      1.00s WALL (      28 calls)
 
     Parallel routines
 
     PWSCF        :  20m52.44s CPU  22m 9.84s WALL

 
   This run was terminated on:  13: 0:35   2Sep2026            

=------------------------------------------------------------------------------=
   JOB DONE.
=------------------------------------------------------------------------------=
