
     Program PWSCF v.7.5 starts on 23Jun2026 at 12:45:39 

     This program is part of the open-source Quantum ESPRESSO suite
     for quantum simulation of materials; please cite
         "P. Giannozzi et al., J. Phys.:Condens. Matter 21 395502 (2009);
         "P. Giannozzi et al., J. Phys.:Condens. Matter 29 465901 (2017);
         "P. Giannozzi et al., J. Chem. Phys. 152 154105 (2020);
          URL http://www.quantum-espresso.org", 
     in publications or presentations arising from this work. More details at
     http://www.quantum-espresso.org/quote

     Parallel version (MPI), running on    12 processors

     MPI processes distributed on     1 nodes
     131339 MiB available memory on the printing compute node when the environment starts

     Reading input from pvdf_scf.in

     Current dimensions of program PWSCF are:
     Max number of different atomic species (ntypx) = 10
     Max number of k-points (npk) =  40000
     Max angular momentum in pseudopotentials (lmaxx) =  4
     file C.pbe-n-kjpaw_psl.1.0.0.UPF: wavefunction(s)  2S 2P renormalized

     gamma-point specific algorithms are used

     R & G space division:  proc/nbgrp/npool/nimage =      12
     Subspace diagonalization in iterative solution of the eigenvalue problem:
     a serial algorithm will be used


     Parallelization info
     --------------------
     sticks:   dense  smooth     PW     G-vecs:    dense   smooth      PW
     Min        4546    2271    567               798989   282433   35304
     Max        4547    2274    570               798994   282442   35312
     Sum       54553   27281   6817              9587919  3389267  423701

     Using Slab Decomposition



     bravais-lattice index     =            0
     lattice parameter (alat)  =      37.7945  a.u.
     unit-cell volume          =   53986.6760 (a.u.)^3
     number of atoms/cell      =           14
     number of atomic types    =            3
     number of electrons       =        50.00
     number of Kohn-Sham states=           25
     kinetic-energy cutoff     =      60.0000  Ry
     charge density cutoff     =     480.0000  Ry
     scf convergence threshold =      1.0E-08
     mixing beta               =       0.3000
     number of iterations used =            8  plain     mixing
     Exchange-correlation=  SLA  PW   PBX  PBC
                           (   1   4   3   4   0   0   0)

     celldm(1)=  37.794522  celldm(2)=   0.000000  celldm(3)=   0.000000
     celldm(4)=   0.000000  celldm(5)=   0.000000  celldm(6)=   0.000000

     crystal axes: (cart. coord. in units of alat)
               a(1) = (   1.000000   0.000000   0.000000 )  
               a(2) = (   0.000000   1.000000   0.000000 )  
               a(3) = (   0.000000   0.000000   1.000000 )  

     reciprocal axes: (cart. coord. in units 2 pi/alat)
               b(1) = (  1.000000  0.000000  0.000000 )  
               b(2) = (  0.000000  1.000000  0.000000 )  
               b(3) = (  0.000000  0.000000  1.000000 )  


     PseudoPot. # 1 for C  read from file:
     ./C.pbe-n-kjpaw_psl.1.0.0.UPF
     MD5 check sum: 5d2aebdfa2cae82b50a7e79e9516da0f
     Pseudo is Projector augmented-wave + core cor, Zval =  4.0
     Generated using "atomic" code by A. Dal Corso  v.5.1
     Shape of augmentation charge: PSQ
     Using radial grid of 1073 points,  4 beta functions with: 
                l(1) =   0
                l(2) =   0
                l(3) =   1
                l(4) =   1
     Q(r) pseudized with 0 coefficients 


     PseudoPot. # 2 for H  read from file:
     ./H.pbe-rrkjus_psl.1.0.0.UPF
     MD5 check sum: f52b6d4d1c606e5624b1dc7b2218f220
     Pseudo is Ultrasoft, Zval =  1.0
     Generated using "atomic" code by A. Dal Corso  v.5.1
     Using radial grid of  929 points,  2 beta functions with: 
                l(1) =   0
                l(2) =   0
     Q(r) pseudized with 0 coefficients 


     PseudoPot. # 3 for F  read from file:
     ./f_pbe_v1.4.uspp.F.UPF
     MD5 check sum: 4c38b6a325caf53ec0e86aed9459de46
     Pseudo is Ultrasoft, Zval =  7.0
     Generated by new atomic code, or converted to UPF format
     Using radial grid of  799 points,  4 beta functions with: 
                l(1) =   0
                l(2) =   0
                l(3) =   1
                l(4) =   1
     Q(r) pseudized with  8 coefficients,  rinner =    0.950   0.950   0.950


     atomic species   valence    mass     pseudopotential
     C                 4.00    12.01100     C ( 1.00)
     H                 1.00     1.00800     H ( 1.00)
     F                 7.00    18.99800     F ( 1.00)

     No symmetry found



   Cartesian axes

     site n.     atom                  positions (alat units)
         1        C      tau(   1) = (  -0.4092990   0.2439688   0.0090072  )
         2        C      tau(   2) = (  -0.3413237   0.2535915  -0.0228638  )
         3        H      tau(   3) = (  -0.4478907   0.2536832  -0.0287056  )
         4        H      tau(   4) = (  -0.4146405   0.1925324   0.0272622  )
         5        H      tau(   5) = (  -0.4158773   0.2789244   0.0507557  )
         6        C      tau(   6) = (  -0.2824819   0.2421588   0.0247035  )
         7        F      tau(   7) = (  -0.3362440   0.2106024  -0.0773800  )
         8        H      tau(   8) = (  -0.2869111   0.1915227   0.0456684  )
         9        C      tau(   9) = (  -0.2117441   0.2490839  -0.0024451  )
        10        F      tau(  10) = (  -0.3381618   0.3181020  -0.0488971  )
        11        H      tau(  11) = (  -0.2874039   0.2774146   0.0666130  )
        12        F      tau(  12) = (  -0.2000844   0.3120281  -0.0283354  )
        13        F      tau(  13) = (  -0.1989146   0.2034554  -0.0526890  )
        14        H      tau(  14) = (  -0.1744476   0.2405557   0.0372708  )

     number of k points=     1
                       cart. coord. in units 2pi/alat
        k(    1) = (   0.0000000   0.0000000   0.0000000), wk =   2.0000000

     Dense  grid:  4793960 G-vectors     FFT dimensions: ( 270, 270, 270)

     Smooth grid:  1694634 G-vectors     FFT dimensions: ( 192, 192, 192)

     Estimated max dynamical RAM per process >     631.06 MB

     Estimated total dynamical RAM >       7.40 GB

     The initial density is read from file :
     ./tmp/pvdf_dimer.save/charge-density


     negative rho (up, down):  5.125E-03 0.000E+00
     Starting wfcs are   38 randomized atomic wfcs
     Checking if some PAW data can be deallocated... 

     total cpu time spent up to now is       15.1 secs

     Self-consistent Calculation

     iteration #  1     ecut=    60.00 Ry     beta= 0.30
     Davidson diagonalization with overlap
     ethr =  1.00E-05,  avg # of iterations =  8.0

     Threshold (ethr) on eigenvalues was too large:
     Diagonalizing with lowered threshold

     Davidson diagonalization with overlap
     ethr =  5.50E-08,  avg # of iterations =  6.0

     negative rho (up, down):  5.125E-03 0.000E+00

     total cpu time spent up to now is       38.2 secs

     total energy              =    -275.38045954 Ry
     estimated scf accuracy    <       0.00000014 Ry

     iteration #  2     ecut=    60.00 Ry     beta= 0.30
     Davidson diagonalization with overlap
     ethr =  2.74E-10,  avg # of iterations =  6.0

     negative rho (up, down):  5.125E-03 0.000E+00

     total cpu time spent up to now is       52.1 secs

     total energy              =    -275.38045992 Ry
     estimated scf accuracy    <       0.00000008 Ry

     iteration #  3     ecut=    60.00 Ry     beta= 0.30
     Davidson diagonalization with overlap
     ethr =  1.58E-10,  avg # of iterations =  1.0

     negative rho (up, down):  5.125E-03 0.000E+00

     total cpu time spent up to now is       62.4 secs

     total energy              =    -275.38045991 Ry
     estimated scf accuracy    <       0.00000003 Ry

     iteration #  4     ecut=    60.00 Ry     beta= 0.30
     Davidson diagonalization with overlap
     ethr =  6.22E-11,  avg # of iterations =  2.0

     negative rho (up, down):  5.126E-03 0.000E+00

     total cpu time spent up to now is       72.9 secs

     End of self-consistent calculation

          k = 0.0000 0.0000 0.0000 (211851 PWs)   bands (ev):

   -31.2586 -31.0387 -29.7819 -29.5935 -20.4248 -18.8397 -16.5849 -15.2628
   -13.5915 -13.5747 -13.1177 -13.0570 -12.1001 -11.5850 -10.8719 -10.5185
   -10.1215  -9.6795  -9.6518  -9.3922  -9.2206  -9.1465  -8.9827  -8.5199
    -7.6286

     highest occupied level (ev):    -7.6286

!    total energy              =    -275.38045991 Ry
     estimated scf accuracy    <          7.7E-09 Ry

     The total energy is the sum of the following terms:
     one-electron contribution =   -1007.22100573 Ry
     hartree contribution      =     512.69599015 Ry
     xc contribution           =     -60.00277192 Ry
     ewald contribution        =     303.79938271 Ry
     one-center paw contrib.   =     -24.65205511 Ry

     convergence has been achieved in   4 iterations

     Writing all to output data dir ./tmp/pvdf_dimer.save/ :
     XML data file, charge density, pseudopotentials, collected wavefunctions

     init_run     :     12.26s CPU     14.60s WALL (       1 calls)
     electrons    :     49.72s CPU     58.74s WALL (       1 calls)

     Called by init_run:
     wfcinit      :      1.53s CPU      1.65s WALL (       1 calls)
     potinit      :      3.32s CPU      4.50s WALL (       1 calls)
     hinit0       :      1.50s CPU      1.69s WALL (       1 calls)

     Called by electrons:
     c_bands      :     18.05s CPU     18.91s WALL (       5 calls)
     sum_band     :     13.72s CPU     17.17s WALL (       5 calls)
     v_of_rho     :      8.68s CPU     10.58s WALL (       5 calls)
     newd         :      8.47s CPU     11.64s WALL (       5 calls)
     PAW_pot      :      1.35s CPU      1.36s WALL (       5 calls)
     mix_rho      :      1.20s CPU      1.28s WALL (       5 calls)

     Called by c_bands:
     init_us_2    :      0.35s CPU      0.38s WALL (      11 calls)
     regterg      :     17.51s CPU     18.35s WALL (       5 calls)

     Called by *egterg:
     rdiaghg      :      0.05s CPU      0.07s WALL (      27 calls)
     h_psi        :     16.80s CPU     17.58s WALL (      29 calls)
     s_psi        :      0.33s CPU      0.33s WALL (      29 calls)
     g_psi        :      0.08s CPU      0.09s WALL (      23 calls)

     Called by h_psi:
     h_psi:calbec :      0.48s CPU      0.51s WALL (      29 calls)
     vloc_psi     :     15.93s CPU     16.67s WALL (      29 calls)
                                        0.00s GPU  (      29 calls)
     add_vuspsi   :      0.32s CPU      0.33s WALL (      29 calls)

     General routines
     calbec       :      0.58s CPU      0.61s WALL (      34 calls)
     fft          :      9.05s CPU     10.18s WALL (      54 calls)
     ffts         :      1.31s CPU      1.36s WALL (      10 calls)
     fftw         :     15.18s CPU     15.89s WALL (     613 calls)
     interpolate  :      2.01s CPU      2.20s WALL (       5 calls)

     Parallel routines

     PWSCF        :   1m 2.95s CPU   1m15.09s WALL


   This run was terminated on:  12:46:54  23Jun2026            

=------------------------------------------------------------------------------=
   JOB DONE.
=------------------------------------------------------------------------------=
