96
Lattice="9.738479844985285 0.0 0.0 0.0 13.90945643 0.0 0.0 0.0 34.21688547" Properties=species:S:1:pos:R:3:spacegroup_kinds:I:1:tags:I:1 pbc="T T F"
Li       0.00000000       0.00000000      15.00000000        0        4
Li       3.24615996       9.27297100      15.00000000        1        4
Li       1.62307996       4.63648543      15.00000000        2        4
Co       1.62307996      11.59121365      15.00000000        3        4
Co       0.00000000       6.95472821      15.00000000        4        4
Co       3.24615996       2.31824278      15.00000000        5        4
O        0.00000000      10.57109230      15.00000000        6        4
O        3.24615996      12.61133513      15.00000000        7        4
O        3.24615996       5.93460687      15.00000000        8        4
O        1.62307996       7.97484956      15.00000000        9        4
O        1.62307996       1.29812130      15.00000000       10        4
O        0.00000000       3.33836413      15.00000000       11        4
Li       2.43461996       0.00000000      16.40562849        0        3
Li       0.81154000       9.27297100      16.40562849        1        3
Li       4.05769992       4.63648543      16.40562849        2        3
Co       4.05769992      11.59121365      16.40562849        3        3
Co       2.43461996       6.95472821      16.40562849        4        3
Co       0.81154000       2.31824278      16.40562849        5        3
O        2.43461996      10.57109230      16.40562849        6        3
O        0.81154000      12.61133513      16.40562849        7        3
O        0.81154000       5.93460687      16.40562849        8        3
O        4.05769992       7.97484956      16.40562849        9        3
O        4.05769992       1.29812130      16.40562849       10        3
O        2.43461996       3.33836413      16.40562849       11        3
Li       0.00000000       0.00000000      17.81125698        0        2
Li       3.24615996       9.27297100      17.81125698        1        2
Li       1.62307996       4.63648543      17.81125698        2        2
Co       1.62307996      11.59121365      17.81125698        3        2
Co       0.00000000       6.95472821      17.81125698        4        2
Co       3.24615996       2.31824278      17.81125698        5        2
O        0.00000000      10.57109230      17.81125698        6        2
O        3.24615996      12.61133513      17.81125698        7        2
O        3.24615996       5.93460687      17.81125698        8        2
O        1.62307996       7.97484956      17.81125698        9        2
O        1.62307996       1.29812130      17.81125698       10        2
O        0.00000000       3.33836413      17.81125698       11        2
Li       2.43461996       0.00000000      19.21688547        0        1
Li       0.81154000       9.27297100      19.21688547        1        1
Li       4.05769992       4.63648543      19.21688547        2        1
Co       4.05769992      11.59121365      19.21688547        3        1
Co       2.43461996       6.95472821      19.21688547        4        1
Co       0.81154000       2.31824278      19.21688547        5        1
O        2.43461996      10.57109230      19.21688547        6        1
O        0.81154000      12.61133513      19.21688547        7        1
O        0.81154000       5.93460687      19.21688547        8        1
O        4.05769992       7.97484956      19.21688547        9        1
O        4.05769992       1.29812130      19.21688547       10        1
O        2.43461996       3.33836413      19.21688547       11        1
Li       4.86923992       0.00000000      15.00000000        0        4
Li       8.11539989       9.27297100      15.00000000        1        4
Li       6.49231988       4.63648543      15.00000000        2        4
Co       6.49231988      11.59121365      15.00000000        3        4
Co       4.86923992       6.95472821      15.00000000        4        4
Co       8.11539989       2.31824278      15.00000000        5        4
O        4.86923992      10.57109230      15.00000000        6        4
O        8.11539989      12.61133513      15.00000000        7        4
O        8.11539989       5.93460687      15.00000000        8        4
O        6.49231988       7.97484956      15.00000000        9        4
O        6.49231988       1.29812130      15.00000000       10        4
O        4.86923992       3.33836413      15.00000000       11        4
Li       7.30385988       0.00000000      16.40562849        0        3
Li       5.68077993       9.27297100      16.40562849        1        3
Li       8.92693984       4.63648543      16.40562849        2        3
Co       8.92693984      11.59121365      16.40562849        3        3
Co       7.30385988       6.95472821      16.40562849        4        3
Co       5.68077993       2.31824278      16.40562849        5        3
O        7.30385988      10.57109230      16.40562849        6        3
O        5.68077993      12.61133513      16.40562849        7        3
O        5.68077993       5.93460687      16.40562849        8        3
O        8.92693984       7.97484956      16.40562849        9        3
O        8.92693984       1.29812130      16.40562849       10        3
O        7.30385988       3.33836413      16.40562849       11        3
Li       4.86923992       0.00000000      17.81125698        0        2
Li       8.11539989       9.27297100      17.81125698        1        2
Li       6.49231988       4.63648543      17.81125698        2        2
Co       6.49231988      11.59121365      17.81125698        3        2
Co       4.86923992       6.95472821      17.81125698        4        2
Co       8.11539989       2.31824278      17.81125698        5        2
O        4.86923992      10.57109230      17.81125698        6        2
O        8.11539989      12.61133513      17.81125698        7        2
O        8.11539989       5.93460687      17.81125698        8        2
O        6.49231988       7.97484956      17.81125698        9        2
O        6.49231988       1.29812130      17.81125698       10        2
O        4.86923992       3.33836413      17.81125698       11        2
Li       7.30385988       0.00000000      19.21688547        0        1
Li       5.68077993       9.27297100      19.21688547        1        1
Li       8.92693984       4.63648543      19.21688547        2        1
Co       8.92693984      11.59121365      19.21688547        3        1
Co       7.30385988       6.95472821      19.21688547        4        1
Co       5.68077993       2.31824278      19.21688547        5        1
O        7.30385988      10.57109230      19.21688547        6        1
O        5.68077993      12.61133513      19.21688547        7        1
O        5.68077993       5.93460687      19.21688547        8        1
O        8.92693984       7.97484956      19.21688547        9        1
O        8.92693984       1.29812130      19.21688547       10        1
O        7.30385988       3.33836413      19.21688547       11        1
