
     Program PWSCF v.7.5 starts on 17Jul2026 at  8:35:53 

     This program is part of the open-source Quantum ESPRESSO suite
     for quantum simulation of materials; please cite
         "P. Giannozzi et al., J. Phys.:Condens. Matter 21 395502 (2009);
         "P. Giannozzi et al., J. Phys.:Condens. Matter 29 465901 (2017);
         "P. Giannozzi et al., J. Chem. Phys. 152 154105 (2020);
          URL http://www.quantum-espresso.org", 
     in publications or presentations arising from this work. More details at
     http://www.quantum-espresso.org/quote

     Parallel version (MPI), running on    24 processors

     MPI processes distributed on     1 nodes
     207157 MiB available memory on the printing compute node when the environment starts

     Reading input from li_bulk_relax.in

     Current dimensions of program PWSCF are:
     Max number of different atomic species (ntypx) = 10
     Max number of k-points (npk) =  40000
     Max angular momentum in pseudopotentials (lmaxx) =  4
     Found identity + ( -0.5000 -0.5000 -0.5000) symmetry
     This is a supercell, fractional translations are disabled
     Message from routine setup:
     using ibrav=0 with symmetry is DISCOURAGED, use correct ibrav instead

     K-points division:     npool     =       2
     R & G space division:  proc/nbgrp/npool/nimage =      12
     Subspace diagonalization in iterative solution of the eigenvalue problem:
     a serial algorithm will be used


     Parallelization info
     --------------------
     sticks:   dense  smooth     PW     G-vecs:    dense   smooth      PW
     Min         134      66     20                 4056     1422     244
     Max         135      67     21                 4059     1427     249
     Sum        1609     797    241                48693    17077    2945

     Using Slab Decomposition



     bravais-lattice index     =            0
     lattice parameter (alat)  =       6.4994  a.u.
     unit-cell volume          =     274.5437 (a.u.)^3
     number of atoms/cell      =            2
     number of atomic types    =            1
     number of electrons       =         6.00
     number of Kohn-Sham states=            7
     kinetic-energy cutoff     =      60.0000  Ry
     charge density cutoff     =     480.0000  Ry
     scf convergence threshold =      1.0E-08
     mixing beta               =       0.3000
     number of iterations used =            8  plain     mixing
     energy convergence thresh.=      1.0E-04
     force convergence thresh. =      1.0E-03
     Exchange-correlation=  SLA  PW   PBX  PBC
                           (   1   4   3   4   0   0   0)
     nstep                     =           50


     celldm(1)=   6.499359  celldm(2)=   0.000000  celldm(3)=   0.000000
     celldm(4)=   0.000000  celldm(5)=   0.000000  celldm(6)=   0.000000

     crystal axes: (cart. coord. in units of alat)
               a(1) = (   1.000000   0.000000   0.000000 )  
               a(2) = (   0.000000   1.000000   0.000000 )  
               a(3) = (   0.000000   0.000000   1.000000 )  

     reciprocal axes: (cart. coord. in units 2 pi/alat)
               b(1) = (  1.000000  0.000000  0.000000 )  
               b(2) = (  0.000000  1.000000  0.000000 )  
               b(3) = (  0.000000  0.000000  1.000000 )  


     PseudoPot. # 1 for Li read from file:
     ./pseudo/li_pbe_v1.4.uspp.F.UPF
     MD5 check sum: e912e257baa3777c20ea3d68f190483c
     Pseudo is Ultrasoft, Zval =  3.0
     Generated by new atomic code, or converted to UPF format
     Using radial grid of  751 points,  5 beta functions with: 
                l(1) =   0
                l(2) =   0
                l(3) =   0
                l(4) =   1
                l(5) =   1
     Q(r) pseudized with 10 coefficients,  rinner =    1.150   1.150   1.150


     atomic species   valence    mass     pseudopotential
     Li                3.00     6.94000     Li( 1.00)

     48 Sym. Ops., with inversion, found



   Cartesian axes

     site n.     atom                  positions (alat units)
         1        Li     tau(   1) = (   0.0000000   0.0000000   0.0000000  )
         2        Li     tau(   2) = (   0.5000000   0.5000000   0.5000000  )

     number of k points=   286  Marzari-Vanderbilt smearing, width (Ry)=  0.0200

     Number of k-points >= 100: set verbosity='high' to print them.

     Dense  grid:    48693 G-vectors     FFT dimensions: (  45,  45,  45)

     Smooth grid:    17077 G-vectors     FFT dimensions: (  36,  36,  36)

     Estimated max dynamical RAM per process >       7.62 MB

     Estimated total dynamical RAM >     171.02 MB

     Initial potential from superposition of free atoms

     starting charge       5.0985, renormalised to       6.0000
     Starting wfcs are   10 randomized atomic wfcs

     total cpu time spent up to now is        0.8 secs

     Self-consistent Calculation

     iteration #  1     ecut=    60.00 Ry     beta= 0.30
     Davidson diagonalization with overlap
     ethr =  1.00E-02,  avg # of iterations =  3.5

     total cpu time spent up to now is        1.9 secs

     total energy              =     -29.03324146 Ry
     estimated scf accuracy    <       0.32390257 Ry

     iteration #  2     ecut=    60.00 Ry     beta= 0.30
     Davidson diagonalization with overlap
     ethr =  5.40E-03,  avg # of iterations =  1.0

     total cpu time spent up to now is        2.5 secs

     total energy              =     -28.92999186 Ry
     estimated scf accuracy    <       0.14235905 Ry

     iteration #  3     ecut=    60.00 Ry     beta= 0.30
     Davidson diagonalization with overlap
     ethr =  2.37E-03,  avg # of iterations =  1.1

     total cpu time spent up to now is        3.2 secs

     total energy              =     -28.94026116 Ry
     estimated scf accuracy    <       0.00042270 Ry

     iteration #  4     ecut=    60.00 Ry     beta= 0.30
     Davidson diagonalization with overlap
     ethr =  7.04E-06,  avg # of iterations =  6.8

     total cpu time spent up to now is        5.0 secs

     total energy              =     -28.94435171 Ry
     estimated scf accuracy    <       0.00022027 Ry

     iteration #  5     ecut=    60.00 Ry     beta= 0.30
     Davidson diagonalization with overlap
     ethr =  3.67E-06,  avg # of iterations =  1.3

     total cpu time spent up to now is        5.7 secs

     total energy              =     -28.94417996 Ry
     estimated scf accuracy    <       0.00043687 Ry

     iteration #  6     ecut=    60.00 Ry     beta= 0.30
     Davidson diagonalization with overlap
     ethr =  3.67E-06,  avg # of iterations =  1.0

     total cpu time spent up to now is        6.4 secs

     total energy              =     -28.94414365 Ry
     estimated scf accuracy    <       0.00008117 Ry

     iteration #  7     ecut=    60.00 Ry     beta= 0.30
     Davidson diagonalization with overlap
     ethr =  1.35E-06,  avg # of iterations =  1.2

     total cpu time spent up to now is        7.1 secs

     total energy              =     -28.94414807 Ry
     estimated scf accuracy    <       0.00000707 Ry

     iteration #  8     ecut=    60.00 Ry     beta= 0.30
     Davidson diagonalization with overlap
     ethr =  1.18E-07,  avg # of iterations =  2.0

     total cpu time spent up to now is        7.9 secs

     total energy              =     -28.94414511 Ry
     estimated scf accuracy    <       0.00000984 Ry

     iteration #  9     ecut=    60.00 Ry     beta= 0.30
     Davidson diagonalization with overlap
     ethr =  1.18E-07,  avg # of iterations =  1.9

     total cpu time spent up to now is        8.7 secs

     total energy              =     -28.94414612 Ry
     estimated scf accuracy    <       0.00000003 Ry

     iteration # 10     ecut=    60.00 Ry     beta= 0.30
     Davidson diagonalization with overlap
     ethr =  4.90E-10,  avg # of iterations =  4.6

     total cpu time spent up to now is       10.1 secs

     total energy              =     -28.94414631 Ry
     estimated scf accuracy    <       0.00000027 Ry

     iteration # 11     ecut=    60.00 Ry     beta= 0.30
     Davidson diagonalization with overlap
     ethr =  4.90E-10,  avg # of iterations =  1.0

     total cpu time spent up to now is       10.8 secs

     total energy              =     -28.94414627 Ry
     estimated scf accuracy    <       0.00000014 Ry

     iteration # 12     ecut=    60.00 Ry     beta= 0.30
     Davidson diagonalization with overlap
     ethr =  4.90E-10,  avg # of iterations =  1.0

     total cpu time spent up to now is       11.5 secs

     total energy              =     -28.94414624 Ry
     estimated scf accuracy    <       0.00000007 Ry

     iteration # 13     ecut=    60.00 Ry     beta= 0.30
     Davidson diagonalization with overlap
     ethr =  4.90E-10,  avg # of iterations =  2.0

     total cpu time spent up to now is       12.4 secs

     End of self-consistent calculation

     Number of k-points >= 100: set verbosity='high' to print the bands.

     the Fermi energy is     0.9434 ev

!    total energy              =     -28.94414624 Ry
     estimated scf accuracy    <          2.4E-09 Ry
     smearing contrib. (-TS)   =      -0.00020517 Ry
     internal energy E=F+TS    =     -28.94394107 Ry

     The total energy is F=E-TS. E is the sum of the following terms:
     one-electron contribution =     -19.43968068 Ry
     hartree contribution      =       7.32785313 Ry
     xc contribution           =      -6.75324171 Ry
     ewald contribution        =     -10.07887182 Ry

     convergence has been achieved in  13 iterations

     Forces acting on atoms (cartesian axes, Ry/au):

     atom    1 type  1   force =     0.00000000    0.00000000    0.00000000
     atom    2 type  1   force =     0.00000000    0.00000000    0.00000000

     Total force =     0.000000     Total SCF correction =     0.000000


     Computing stress (Cartesian axis) and pressure

          total   stress  (Ry/bohr**3)                   (kbar)     P=       -0.67
  -0.00000453   0.00000000   0.00000000           -0.67        0.00        0.00
   0.00000000  -0.00000453   0.00000000            0.00       -0.67        0.00
   0.00000000   0.00000000  -0.00000453            0.00        0.00       -0.67


     BFGS Geometry Optimization
     Energy error            =      0.0E+00 Ry
     Gradient error          =      0.0E+00 Ry/Bohr

     bfgs converged in   1 scf cycles and   0 bfgs steps
     (criteria: energy <  1.0E-04 Ry, force <  1.0E-03 Ry/Bohr)

     End of BFGS Geometry Optimization

     Final energy             =     -28.9441462429 Ry
Begin final coordinates

ATOMIC_POSITIONS (angstrom)
Li               0.0000000000        0.0000000000        0.0000000000
Li               1.7196562250        1.7196562250        1.7196562250
End final coordinates



     Writing all to output data dir ./tmp/li_bulk.save/ :
     XML data file, charge density, pseudopotentials, collected wavefunctions

     init_run     :      0.63s CPU      0.67s WALL (       1 calls)
     electrons    :     11.08s CPU     11.58s WALL (       1 calls)
     forces       :      0.05s CPU      0.05s WALL (       1 calls)
     stress       :      0.26s CPU      0.27s WALL (       1 calls)

     Called by init_run:
     wfcinit      :      0.30s CPU      0.33s WALL (       1 calls)
     potinit      :      0.20s CPU      0.20s WALL (       1 calls)
     hinit0       :      0.10s CPU      0.10s WALL (       1 calls)

     Called by electrons:
     c_bands      :      9.21s CPU      9.62s WALL (      13 calls)
     sum_band     :      1.75s CPU      1.82s WALL (      13 calls)
     v_of_rho     :      0.07s CPU      0.08s WALL (      14 calls)
     newd         :      0.03s CPU      0.04s WALL (      14 calls)
     mix_rho      :      0.01s CPU      0.01s WALL (      13 calls)

     Called by c_bands:
     init_us_2    :      0.24s CPU      0.25s WALL (    4147 calls)
     cegterg      :      8.20s CPU      8.58s WALL (    1859 calls)

     Called by *egterg:
     cdiaghg      :      0.72s CPU      0.78s WALL (    6069 calls)
     h_psi        :      6.73s CPU      6.99s WALL (    6212 calls)
     s_psi        :      0.11s CPU      0.12s WALL (    6212 calls)
     g_psi        :      0.03s CPU      0.03s WALL (    4210 calls)

     Called by h_psi:
     h_psi:calbec :      0.41s CPU      0.43s WALL (    6212 calls)
     vloc_psi     :      6.17s CPU      6.41s WALL (    6212 calls)
                                        0.00s GPU  (    6212 calls)
     add_vuspsi   :      0.10s CPU      0.10s WALL (    6212 calls)

     General routines
     calbec       :      0.70s CPU      0.72s WALL (   10502 calls)
     fft          :      0.13s CPU      0.14s WALL (     188 calls)
     ffts         :      0.18s CPU      0.18s WALL (      27 calls)
     fftw         :      6.90s CPU      7.17s WALL (   81721 calls)
     interpolate  :      0.18s CPU      0.19s WALL (      14 calls)

     Parallel routines

     PWSCF        :     12.25s CPU     12.83s WALL


   This run was terminated on:   8:36: 6  17Jul2026            

=------------------------------------------------------------------------------=
   JOB DONE.
=------------------------------------------------------------------------------=
