
     Program PWSCF v.7.4 starts on  8Sep2026 at 21:30:57 

     This program is part of the open-source Quantum ESPRESSO suite
     for quantum simulation of materials; please cite
         "P. Giannozzi et al., J. Phys.:Condens. Matter 21 395502 (2009);
         "P. Giannozzi et al., J. Phys.:Condens. Matter 29 465901 (2017);
         "P. Giannozzi et al., J. Chem. Phys. 152 154105 (2020);
          URL http://www.quantum-espresso.org", 
     in publications or presentations arising from this work. More details at
     http://www.quantum-espresso.org/quote

     Parallel version (MPI & OpenMP), running on     192 processor cores
     Number of MPI processes:               192
     Threads/MPI process:                     1

     MPI processes distributed on     4 nodes
     178956 MiB available memory on the printing compute node when the environment starts
 
     Reading input from CuO_pvdf_scf.in

     Current dimensions of program PWSCF are:
     Max number of different atomic species (ntypx) = 10
     Max number of k-points (npk) =  40000
     Max angular momentum in pseudopotentials (lmaxx) =  4
     file Cu.paw.z_11.ld1.psl.v1.0.0-low.upf: wavefunction(s)  4S 3D renormalized
     file O.pbe-n-kjpaw_psl.0.1.UPF: wavefunction(s)  2P renormalized
     file C.pbe-n-kjpaw_psl.1.0.0.UPF: wavefunction(s)  2S 2P renormalized
 
     R & G space division:  proc/nbgrp/npool/nimage =     192
     Subspace diagonalization in iterative solution of the eigenvalue problem:
     one sub-group per band group will be used
     scalapack distributed-memory algorithm (size of sub-group:  7*  7 procs)

 
     Parallelization info
     --------------------
     sticks:   dense  smooth     PW     G-vecs:    dense   smooth      PW
     Min          86      43     11                35044    12371    1667
     Max          87      44     12                35062    12407    1698
     Sum       16549    8267   2181              6730611  2379325  322357
 
     Using Slab Decomposition
 


     bravais-lattice index     =            0
     lattice parameter (alat)  =      22.2149  a.u.
     unit-cell volume          =   37901.4236 (a.u.)^3
     number of atoms/cell      =          142
     number of atomic types    =            5
     number of electrons       =      1138.00
     number of Kohn-Sham states=          683
     kinetic-energy cutoff     =      60.0000  Ry
     charge density cutoff     =     480.0000  Ry
     scf convergence threshold =      1.0E-08
     mixing beta               =       0.2000
     number of iterations used =            8  local-TF  mixing
     Exchange-correlation=  SLA  PW   PBX  PBC
                           (   1   4   3   4   0   0   0)

     celldm(1)=  22.214885  celldm(2)=   0.000000  celldm(3)=   0.000000
     celldm(4)=   0.000000  celldm(5)=   0.000000  celldm(6)=   0.000000

     crystal axes: (cart. coord. in units of alat)
               a(1) = (   1.000000   0.000000   0.000000 )  
               a(2) = (   0.027717   0.877564   0.000000 )  
               a(3) = (   0.000000   0.000000   3.939531 )  

     reciprocal axes: (cart. coord. in units 2 pi/alat)
               b(1) = (  1.000000 -0.031584  0.000000 )  
               b(2) = (  0.000000  1.139518  0.000000 )  
               b(3) = (  0.000000  0.000000  0.253837 )  


     PseudoPot. # 1 for Cu read from file:
     ./pseudo/Cu.paw.z_11.ld1.psl.v1.0.0-low.upf
     MD5 check sum: 619f40885d92a09a85a8b37550532d0c
     Pseudo is Projector augmented-wave + core cor, Zval = 11.0
     Generated using &quot;atomic&quot; code by A. Dal Corso  v.6.3MaX
     Shape of augmentation charge: PSQ
     Using radial grid of 1199 points,  6 beta functions with: 
                l(1) =   0
                l(2) =   0
                l(3) =   1
                l(4) =   1
                l(5) =   2
                l(6) =   2
     Q(r) pseudized with 0 coefficients 


     PseudoPot. # 2 for O  read from file:
     ./pseudo/O.pbe-n-kjpaw_psl.0.1.UPF
     MD5 check sum: 0234752ac141de4415c5fc33072bef88
     Pseudo is Projector augmented-wave + core cor, Zval =  6.0
     Generated using "atomic" code by A. Dal Corso  v.5.0.99 svn rev. 10869
     Shape of augmentation charge: BESSEL
     Using radial grid of 1095 points,  4 beta functions with: 
                l(1) =   0
                l(2) =   0
                l(3) =   1
                l(4) =   1
     Q(r) pseudized with 0 coefficients 


     PseudoPot. # 3 for C  read from file:
     ./pseudo/C.pbe-n-kjpaw_psl.1.0.0.UPF
     MD5 check sum: 5d2aebdfa2cae82b50a7e79e9516da0f
     Pseudo is Projector augmented-wave + core cor, Zval =  4.0
     Generated using "atomic" code by A. Dal Corso  v.5.1
     Shape of augmentation charge: PSQ
     Using radial grid of 1073 points,  4 beta functions with: 
                l(1) =   0
                l(2) =   0
                l(3) =   1
                l(4) =   1
     Q(r) pseudized with 0 coefficients 


     PseudoPot. # 4 for H  read from file:
     ./pseudo/H.pbe-rrkjus_psl.1.0.0.UPF
     MD5 check sum: f52b6d4d1c606e5624b1dc7b2218f220
     Pseudo is Ultrasoft, Zval =  1.0
     Generated using "atomic" code by A. Dal Corso  v.5.1
     Using radial grid of  929 points,  2 beta functions with: 
                l(1) =   0
                l(2) =   0
     Q(r) pseudized with 0 coefficients 


     PseudoPot. # 5 for F  read from file:
     ./pseudo/f_pbe_v1.4.uspp.F.UPF
     MD5 check sum: 4c38b6a325caf53ec0e86aed9459de46
     Pseudo is Ultrasoft, Zval =  7.0
     Generated by new atomic code, or converted to UPF format
     Using radial grid of  799 points,  4 beta functions with: 
                l(1) =   0
                l(2) =   0
                l(3) =   1
                l(4) =   1
     Q(r) pseudized with  8 coefficients,  rinner =    0.950   0.950   0.950


     atomic species   valence    mass     pseudopotential
     Cu               11.00    63.54600     Cu( 1.00)
     O                 6.00    15.99900     O ( 1.00)
     C                 4.00    12.01100     C ( 1.00)
     H                 1.00     1.00800     H ( 1.00)
     F                 7.00    18.99840     F ( 1.00)

     Starting magnetic structure 
     atomic species   magnetization
     Cu              0.500
     O               0.000
     C               0.000
     H               0.000
     F               0.000

     No symmetry found



   Cartesian axes

     site n.     atom                  positions (alat units)
         1        Cu     tau(   1) = (   0.1432724   0.2224537   1.5369872  )
         2        Cu     tau(   2) = (   0.2643810   0.0078676   1.6508352  )
         3        Cu     tau(   3) = (   0.3954520   0.2226436   1.5332423  )
         4        Cu     tau(   4) = (   0.0143702   0.0078487   1.6542424  )
         5        O      tau(   5) = (   0.3893954   0.1119899   1.6513538  )
         6        O      tau(   6) = (   0.4029866   0.3426865   1.6415369  )
         7        O      tau(   7) = (   0.1395288   0.1119701   1.6560741  )
         8        O      tau(   8) = (   0.1528315   0.3426233   1.6457654  )
         9        Cu     tau(   9) = (   0.3983128   0.2324615   1.7709744  )
        10        Cu     tau(  10) = (   0.0188311   0.0158425   1.9081746  )
        11        Cu     tau(  11) = (   0.1485189   0.2325292   1.7749556  )
        12        Cu     tau(  12) = (   0.2688396   0.0158590   1.9056554  )
        13        O      tau(  13) = (   0.1446301   0.1259923   1.9054364  )
        14        O      tau(  14) = (   0.1569240   0.3447890   1.9023325  )
        15        O      tau(  15) = (   0.3944599   0.1258449   1.9015227  )
        16        O      tau(  16) = (   0.4068550   0.3446599   1.8987673  )
        17        Cu     tau(  17) = (   0.1535420   0.2365958   2.0280902  )
        18        Cu     tau(  18) = (   0.2740004   0.0165626   2.1524762  )
        19        Cu     tau(  19) = (   0.4033581   0.2362103   2.0243854  )
        20        Cu     tau(  20) = (   0.0240769   0.0167529   2.1544541  )
        21        O      tau(  21) = (   0.3997777   0.1276798   2.1494017  )
        22        O      tau(  22) = (   0.4119973   0.3437389   2.1499700  )
        23        O      tau(  23) = (   0.1498729   0.1282015   2.1528877  )
        24        O      tau(  24) = (   0.1620851   0.3442284   2.1536668  )
        25        Cu     tau(  25) = (   0.4069544   0.2341549   2.2784275  )
        26        Cu     tau(  26) = (   0.0261500   0.0136243   2.3907423  )
        27        Cu     tau(  27) = (   0.1570764   0.2346488   2.2824334  )
        28        Cu     tau(  28) = (   0.2761974   0.0135509   2.3890741  )
        29        O      tau(  29) = (   0.1516167   0.1162480   2.3917938  )
        30        O      tau(  30) = (   0.1642599   0.3496068   2.3946175  )
        31        O      tau(  31) = (   0.4014654   0.1164042   2.3888645  )
        32        O      tau(  32) = (   0.4139644   0.3493793   2.3894076  )
        33        Cu     tau(  33) = (   0.1589438   0.6609699   1.5391359  )
        34        Cu     tau(  34) = (   0.2780394   0.4465127   1.6508246  )
        35        Cu     tau(  35) = (   0.4096587   0.6610598   1.5361242  )
        36        Cu     tau(  36) = (   0.0280622   0.4467775   1.6542091  )
        37        O      tau(  37) = (   0.4031518   0.5504814   1.6545154  )
        38        O      tau(  38) = (   0.4170620   0.7814170   1.6443574  )
        39        O      tau(  39) = (   0.1532788   0.5506230   1.6583782  )
        40        O      tau(  40) = (   0.1670347   0.7813250   1.6479522  )
        41        Cu     tau(  41) = (   0.4121548   0.6711435   1.7733250  )
        42        Cu     tau(  42) = (   0.0325414   0.4545021   1.9082870  )
        43        Cu     tau(  43) = (   0.1624457   0.6712336   1.7767173  )
        44        Cu     tau(  44) = (   0.2826495   0.4544195   1.9057556  )
        45        O      tau(  45) = (   0.1584017   0.5645489   1.9068917  )
        46        O      tau(  46) = (   0.1709734   0.7836265   1.9037698  )
        47        O      tau(  47) = (   0.4082753   0.5645343   1.9037340  )
        48        O      tau(  48) = (   0.4208060   0.7836274   1.9006064  )
        49        Cu     tau(  49) = (   0.1674730   0.6752685   2.0292583  )
        50        Cu     tau(  50) = (   0.2879128   0.4553811   2.1522627  )
        51        Cu     tau(  51) = (   0.4173222   0.6753108   2.0262157  )
        52        Cu     tau(  52) = (   0.0377978   0.4555163   2.1546249  )
        53        O      tau(  53) = (   0.4135312   0.5669612   2.1509740  )
        54        O      tau(  54) = (   0.4261124   0.7828986   2.1519455  )
        55        O      tau(  55) = (   0.1636531   0.5668981   2.1538884  )
        56        O      tau(  56) = (   0.1760685   0.7829749   2.1546129  )
        57        Cu     tau(  57) = (   0.4209909   0.6734743   2.2804123  )
        58        Cu     tau(  58) = (   0.0396172   0.4523692   2.3909260  )
        59        Cu     tau(  59) = (   0.1709751   0.6734172   2.2833900  )
        60        Cu     tau(  60) = (   0.2897010   0.4522535   2.3881185  )
        61        O      tau(  61) = (   0.1650917   0.5550178   2.3927493  )
        62        O      tau(  62) = (   0.1784850   0.7884508   2.3954006  )
        63        O      tau(  63) = (   0.4149417   0.5548634   2.3890574  )
        64        O      tau(  64) = (   0.4284494   0.7883236   2.3928963  )
        65        Cu     tau(  65) = (   0.6514185   0.2223140   1.5355950  )
        66        Cu     tau(  66) = (   0.7643350   0.0078844   1.6531860  )
        67        Cu     tau(  67) = (   0.8989478   0.2222598   1.5385584  )
        68        Cu     tau(  68) = (   0.5143372   0.0079175   1.6497561  )
        69        O      tau(  69) = (   0.8893856   0.1120056   1.6577985  )
        70        O      tau(  70) = (   0.9030689   0.3427176   1.6475682  )
        71        O      tau(  71) = (   0.6392929   0.1120135   1.6539478  )
        72        O      tau(  72) = (   0.6532573   0.3426804   1.6440281  )
        73        Cu     tau(  73) = (   0.8981101   0.2325559   1.7764956  )
        74        Cu     tau(  74) = (   0.5186548   0.0158576   1.9048625  )
        75        Cu     tau(  75) = (   0.6478768   0.2325010   1.7732935  )
        76        Cu     tau(  76) = (   0.7685854   0.0158490   1.9074085  )
        77        O      tau(  77) = (   0.6442476   0.1259448   1.9037932  )
        78        O      tau(  78) = (   0.6567032   0.3447515   1.9008330  )
        79        O      tau(  79) = (   0.8944125   0.1258786   1.9067476  )
        80        O      tau(  80) = (   0.9067624   0.3447707   1.9038088  )
        81        Cu     tau(  81) = (   0.6531242   0.2365614   2.0265774  )
        82        Cu     tau(  82) = (   0.7740430   0.0167172   2.1538330  )
        83        Cu     tau(  83) = (   0.9032749   0.2365174   2.0293322  )
        84        Cu     tau(  84) = (   0.5241537   0.0165399   2.1518501  )
        85        O      tau(  85) = (   0.8998103   0.1281927   2.1539904  )
        86        O      tau(  86) = (   0.9120178   0.3442491   2.1548139  )
        87        O      tau(  87) = (   0.6497574   0.1281423   2.1514470  )
        88        O      tau(  88) = (   0.6619845   0.3441254   2.1523306  )
        89        Cu     tau(  89) = (   0.9071133   0.2347600   2.2834727  )
        90        Cu     tau(  90) = (   0.5260891   0.0136497   2.3884975  )
        91        Cu     tau(  91) = (   0.6571478   0.2346625   2.2808236  )
        92        Cu     tau(  92) = (   0.7760831   0.0137024   2.3901584  )
        93        O      tau(  93) = (   0.6514461   0.1163530   2.3903012  )
        94        O      tau(  94) = (   0.6643292   0.3494361   2.3927828  )
        95        O      tau(  95) = (   0.9015604   0.1163122   2.3926388  )
        96        O      tau(  96) = (   0.9143493   0.3496176   2.3957120  )
        97        Cu     tau(  97) = (   0.6642690   0.6608167   1.5382375  )
        98        Cu     tau(  98) = (   0.7781285   0.4467434   1.6531780  )
        99        Cu     tau(  99) = (   0.9120022   0.6609599   1.5398943  )
       100        Cu     tau( 100) = (   0.5280876   0.4464559   1.6497816  )
       101        O      tau( 101) = (   0.9031033   0.5508675   1.6594769  )
       102        O      tau( 102) = (   0.9170271   0.7813208   1.6491249  )
       103        O      tau( 103) = (   0.6529097   0.5505415   1.6568502  )
       104        O      tau( 104) = (   0.6670070   0.7813969   1.6466492  )
       105        Cu     tau( 105) = (   0.9119534   0.6713181   1.7778352  )
       106        Cu     tau( 106) = (   0.5323954   0.4543828   1.9050621  )
       107        Cu     tau( 107) = (   0.6615972   0.6711925   1.7754385  )
       108        Cu     tau( 108) = (   0.7823779   0.4544732   1.9075700  )
       109        O      tau( 109) = (   0.6580029   0.5644969   1.9056747  )
       110        O      tau( 110) = (   0.6705581   0.7836232   1.9025539  )
       111        O      tau( 111) = (   0.9081359   0.5645874   1.9079450  )
       112        O      tau( 112) = (   0.9207142   0.7836167   1.9048183  )
       113        Cu     tau( 113) = (   0.6668889   0.6752290   2.0280937  )
       114        Cu     tau( 114) = (   0.7876398   0.4554796   2.1541732  )
       115        Cu     tau( 115) = (   0.9170867   0.6752764   2.0302976  )
       116        Cu     tau( 116) = (   0.5375940   0.4553195   2.1519829  )
       117        O      tau( 117) = (   0.9134425   0.5668837   2.1549322  )
       118        O      tau( 118) = (   0.9260733   0.7829795   2.1555219  )
       119        O      tau( 119) = (   0.6633243   0.5668750   2.1528744  )
       120        O      tau( 120) = (   0.6761136   0.7828815   2.1535265  )
       121        Cu     tau( 121) = (   0.9208892   0.6733656   2.2843190  )
       122        Cu     tau( 122) = (   0.5396837   0.4521381   2.3885743  )
       123        Cu     tau( 123) = (   0.6709342   0.6732910   2.2822346  )
       124        Cu     tau( 124) = (   0.7895904   0.4522835   2.3909155  )
       125        O      tau( 125) = (   0.6651007   0.5549490   2.3914519  )
       126        O      tau( 126) = (   0.6783671   0.7885166   2.3940979  )
       127        O      tau( 127) = (   0.9150978   0.5550450   2.3937585  )
       128        O      tau( 128) = (   0.9283995   0.7885638   2.3960889  )
       129        C      tau( 129) = (   0.3339579   0.4341802   2.7900249  )
       130        C      tau( 130) = (   0.4500216   0.4569833   2.7390499  )
       131        H      tau( 131) = (   0.2688302   0.4521301   2.7257367  )
       132        H      tau( 132) = (   0.3271229   0.3448154   2.8159617  )
       133        H      tau( 133) = (   0.3196698   0.4891543   2.8640398  )
       134        C      tau( 134) = (   0.5494537   0.4314383   2.8190094  )
       135        F      tau( 135) = (   0.4608560   0.3921208   2.6405604  )
       136        H      tau( 136) = (   0.5407627   0.3431000   2.8484405  )
       137        C      tau( 137) = (   0.6702007   0.4449590   2.7742290  )
       138        F      tau( 138) = (   0.4546912   0.5699769   2.7044903  )
       139        H      tau( 139) = (   0.5410428   0.4868541   2.8938907  )
       140        F      tau( 140) = (   0.6911406   0.5542811   2.7368120  )
       141        F      tau( 141) = (   0.6918986   0.3722778   2.6846351  )
       142        H      tau( 142) = (   0.7333244   0.4259394   2.8409934  )

     number of k points=    10  Marzari-Vanderbilt smearing, width (Ry)=  0.0200
                       cart. coord. in units 2pi/alat
        k(    1) = (   0.0000000   0.0000000   0.0000000), wk =   0.0625000
        k(    2) = (   0.0000000   0.2848795   0.0000000), wk =   0.1250000
        k(    3) = (   0.0000000  -0.5697590   0.0000000), wk =   0.0625000
        k(    4) = (   0.2500000  -0.0078960   0.0000000), wk =   0.1250000
        k(    5) = (   0.2500000   0.2769835   0.0000000), wk =   0.1250000
        k(    6) = (   0.2500000  -0.5776550   0.0000000), wk =   0.1250000
        k(    7) = (   0.2500000  -0.2927755   0.0000000), wk =   0.1250000
        k(    8) = (  -0.5000000   0.0157920   0.0000000), wk =   0.0625000
        k(    9) = (  -0.5000000   0.3006715   0.0000000), wk =   0.1250000
        k(   10) = (  -0.5000000  -0.5539670   0.0000000), wk =   0.0625000

     Dense  grid:  6730611 G-vectors     FFT dimensions: ( 160, 144, 625)

     Smooth grid:  2379325 G-vectors     FFT dimensions: ( 120, 100, 432)

     Estimated max dynamical RAM per process >     630.34 MB

     Estimated total dynamical RAM >     118.19 GB
     Generating pointlists ...
     new r_m :   0.0661 (alat units)  1.4674 (a.u.) for type    1
     new r_m :   0.0661 (alat units)  1.4674 (a.u.) for type    2
     new r_m :   0.0385 (alat units)  0.8546 (a.u.) for type    3
     new r_m :   0.0385 (alat units)  0.8546 (a.u.) for type    4
     new r_m :   0.0484 (alat units)  1.0757 (a.u.) for type    5

     Initial potential from superposition of free atoms

     starting charge    1137.9851, renormalised to    1138.0000

     negative rho (up, down):  2.783E-03 1.798E-03
     Starting wfcs are  870 randomized atomic wfcs
     Checking if some PAW data can be deallocated... 

     total cpu time spent up to now is      108.8 secs

     per-process dynamical memory:   123.7 Mb

     Self-consistent Calculation

     iteration #  1     ecut=    60.00 Ry     beta= 0.20
     Davidson diagonalization with overlap
     ethr =  1.00E-02,  avg # of iterations =  3.0

     negative rho (up, down):  2.061E-03 1.564E-03

     total cpu time spent up to now is      318.6 secs

     total energy              =  -16563.14053228 Ry
     estimated scf accuracy    <      96.77245960 Ry

     total magnetization       =    78.76 Bohr mag/cell
     absolute magnetization    =    84.31 Bohr mag/cell

     iteration #  2     ecut=    60.00 Ry     beta= 0.20
     Davidson diagonalization with overlap
     ethr =  8.50E-03,  avg # of iterations =  1.0

     negative rho (up, down):  1.286E-03 1.094E-03

     total cpu time spent up to now is      486.4 secs

     total energy              =  -16565.42962095 Ry
     estimated scf accuracy    <      55.41929807 Ry

     total magnetization       =    69.04 Bohr mag/cell
     absolute magnetization    =    74.67 Bohr mag/cell

     iteration #  3     ecut=    60.00 Ry     beta= 0.20
     Davidson diagonalization with overlap
     ethr =  4.87E-03,  avg # of iterations =  1.7

     negative rho (up, down):  8.190E-04 6.931E-04

     total cpu time spent up to now is      667.4 secs

     total energy              =  -16570.77651459 Ry
     estimated scf accuracy    <      18.15954125 Ry

     total magnetization       =    43.95 Bohr mag/cell
     absolute magnetization    =    47.78 Bohr mag/cell

     iteration #  4     ecut=    60.00 Ry     beta= 0.20
     Davidson diagonalization with overlap
     ethr =  1.60E-03,  avg # of iterations =  1.7

     negative rho (up, down):  7.007E-05 1.804E-04

     total cpu time spent up to now is      847.8 secs

     total energy              =  -16573.90494380 Ry
     estimated scf accuracy    <      12.40465738 Ry

     total magnetization       =    49.50 Bohr mag/cell
     absolute magnetization    =    53.18 Bohr mag/cell

     iteration #  5     ecut=    60.00 Ry     beta= 0.20
     Davidson diagonalization with overlap
     ethr =  1.09E-03,  avg # of iterations =  2.3

     negative rho (up, down):  2.799E-05 1.218E-04

     total cpu time spent up to now is     1039.6 secs

     total energy              =  -16574.55908991 Ry
     estimated scf accuracy    <      11.42936800 Ry

     total magnetization       =    45.49 Bohr mag/cell
     absolute magnetization    =    48.39 Bohr mag/cell

     iteration #  6     ecut=    60.00 Ry     beta= 0.20
     Davidson diagonalization with overlap
     ethr =  1.00E-03,  avg # of iterations =  2.4

     negative rho (up, down):  1.921E-05 7.668E-05

     total cpu time spent up to now is     1225.3 secs

     total energy              =  -16574.97999762 Ry
     estimated scf accuracy    <       1.69862340 Ry

     total magnetization       =    29.83 Bohr mag/cell
     absolute magnetization    =    32.54 Bohr mag/cell

     iteration #  7     ecut=    60.00 Ry     beta= 0.20
     Davidson diagonalization with overlap
     c_bands:  1 eigenvalues not converged
     c_bands:  3 eigenvalues not converged
     c_bands:  3 eigenvalues not converged
     ethr =  1.49E-04,  avg # of iterations = 17.6

     negative rho (up, down):  6.015E-06 2.625E-05

     total cpu time spent up to now is     1489.4 secs

     total energy              =  -16574.98332811 Ry
     estimated scf accuracy    <       0.97023916 Ry

     total magnetization       =    27.42 Bohr mag/cell
     absolute magnetization    =    30.15 Bohr mag/cell

     iteration #  8     ecut=    60.00 Ry     beta= 0.20
     Davidson diagonalization with overlap
     ethr =  8.53E-05,  avg # of iterations =  1.6

     negative rho (up, down):  2.680E-06 9.751E-06

     total cpu time spent up to now is     1669.6 secs

     total energy              =  -16575.05077014 Ry
     estimated scf accuracy    <       0.30473387 Ry

     total magnetization       =    21.95 Bohr mag/cell
     absolute magnetization    =    24.53 Bohr mag/cell

     iteration #  9     ecut=    60.00 Ry     beta= 0.20
     Davidson diagonalization with overlap
     ethr =  2.68E-05,  avg # of iterations =  3.0

     negative rho (up, down):  2.111E-06 5.941E-06

     total cpu time spent up to now is     1859.9 secs

     total energy              =  -16575.08098285 Ry
     estimated scf accuracy    <       0.17255140 Ry

     total magnetization       =    19.14 Bohr mag/cell
     absolute magnetization    =    21.40 Bohr mag/cell

     iteration # 10     ecut=    60.00 Ry     beta= 0.20
     Davidson diagonalization with overlap
     c_bands:  4 eigenvalues not converged
     c_bands:  1 eigenvalues not converged
     c_bands:  1 eigenvalues not converged
     c_bands:  2 eigenvalues not converged
     c_bands:  1 eigenvalues not converged
     c_bands:  4 eigenvalues not converged
     c_bands:  1 eigenvalues not converged
     c_bands:  1 eigenvalues not converged
     c_bands:  1 eigenvalues not converged
     c_bands:  4 eigenvalues not converged
     ethr =  1.52E-05,  avg # of iterations = 16.6

     negative rho (up, down):  4.661E-06 7.781E-06

     total cpu time spent up to now is     2113.7 secs

     total energy              =  -16575.10178198 Ry
     estimated scf accuracy    <       0.12030588 Ry

     total magnetization       =    15.09 Bohr mag/cell
     absolute magnetization    =    16.85 Bohr mag/cell

     iteration # 11     ecut=    60.00 Ry     beta= 0.20
     Davidson diagonalization with overlap
     c_bands:  3 eigenvalues not converged
     c_bands:  2 eigenvalues not converged
     c_bands:  2 eigenvalues not converged
     c_bands:  1 eigenvalues not converged
     ethr =  1.06E-05,  avg # of iterations = 12.0

     negative rho (up, down):  1.134E-03 1.155E-03

     total cpu time spent up to now is     2335.5 secs

     total energy              =  -16575.11391163 Ry
     estimated scf accuracy    <       0.08883069 Ry

     total magnetization       =    10.82 Bohr mag/cell
     absolute magnetization    =    12.29 Bohr mag/cell

     iteration # 12     ecut=    60.00 Ry     beta= 0.20
     Davidson diagonalization with overlap
     c_bands:  1 eigenvalues not converged
     c_bands:  2 eigenvalues not converged
     c_bands:  2 eigenvalues not converged
     c_bands:  2 eigenvalues not converged
     c_bands:  4 eigenvalues not converged
     c_bands:  4 eigenvalues not converged
     c_bands:  5 eigenvalues not converged
     c_bands:  1 eigenvalues not converged
     c_bands:  1 eigenvalues not converged
     c_bands:  3 eigenvalues not converged
     ethr =  7.81E-06,  avg # of iterations = 16.7

     negative rho (up, down):  2.280E-03 2.301E-03

     total cpu time spent up to now is     2578.8 secs

     total energy              =  -16575.12701164 Ry
     estimated scf accuracy    <       0.06192688 Ry

     total magnetization       =     6.59 Bohr mag/cell
     absolute magnetization    =     7.80 Bohr mag/cell

     iteration # 13     ecut=    60.00 Ry     beta= 0.20
     Davidson diagonalization with overlap
     c_bands:  3 eigenvalues not converged
     c_bands:  1 eigenvalues not converged
     c_bands:  1 eigenvalues not converged
     c_bands:  2 eigenvalues not converged
     c_bands:  1 eigenvalues not converged
     c_bands:  1 eigenvalues not converged
     c_bands:  1 eigenvalues not converged
     ethr =  5.44E-06,  avg # of iterations = 12.8

     negative rho (up, down):  3.248E-03 3.256E-03

     total cpu time spent up to now is     2801.8 secs

     total energy              =  -16575.13206155 Ry
     estimated scf accuracy    <       0.03053612 Ry

     total magnetization       =     4.57 Bohr mag/cell
     absolute magnetization    =     5.64 Bohr mag/cell

     iteration # 14     ecut=    60.00 Ry     beta= 0.20
     Davidson diagonalization with overlap
     c_bands:  1 eigenvalues not converged
     c_bands:  2 eigenvalues not converged
     c_bands:  1 eigenvalues not converged
     c_bands:  1 eigenvalues not converged
     ethr =  2.68E-06,  avg # of iterations = 18.2

     negative rho (up, down):  8.099E-03 8.115E-03

     total cpu time spent up to now is     3063.4 secs

     total energy              =  -16575.13022797 Ry
     estimated scf accuracy    <       0.02022955 Ry

     total magnetization       =     3.07 Bohr mag/cell
     absolute magnetization    =     3.84 Bohr mag/cell

     iteration # 15     ecut=    60.00 Ry     beta= 0.20
     Davidson diagonalization with overlap
     c_bands:  1 eigenvalues not converged
     c_bands:  1 eigenvalues not converged
     c_bands:  1 eigenvalues not converged
     c_bands:  1 eigenvalues not converged
     c_bands:  2 eigenvalues not converged
     ethr =  1.78E-06,  avg # of iterations = 14.2

     negative rho (up, down):  1.295E-02 1.305E-02

     total cpu time spent up to now is     3305.6 secs

     total energy              =  -16575.13065040 Ry
     estimated scf accuracy    <       0.01757390 Ry

     total magnetization       =     0.87 Bohr mag/cell
     absolute magnetization    =     2.79 Bohr mag/cell

     iteration # 16     ecut=    60.00 Ry     beta= 0.20
     Davidson diagonalization with overlap
     c_bands:  1 eigenvalues not converged
     c_bands:  1 eigenvalues not converged
     c_bands:  2 eigenvalues not converged
     c_bands:  1 eigenvalues not converged
     ethr =  1.54E-06,  avg # of iterations = 15.3

     negative rho (up, down):  1.854E-02 1.871E-02

     total cpu time spent up to now is     3552.3 secs

     total energy              =  -16575.13078072 Ry
     estimated scf accuracy    <       0.01479247 Ry

     total magnetization       =    -0.98 Bohr mag/cell
     absolute magnetization    =     3.26 Bohr mag/cell

     iteration # 17     ecut=    60.00 Ry     beta= 0.20
     Davidson diagonalization with overlap
     c_bands:  2 eigenvalues not converged
     ethr =  1.30E-06,  avg # of iterations =  4.2

     negative rho (up, down):  1.802E-02 1.813E-02

     total cpu time spent up to now is     3748.5 secs

     total energy              =  -16575.13013499 Ry
     estimated scf accuracy    <       0.01261791 Ry

     total magnetization       =    -2.11 Bohr mag/cell
     absolute magnetization    =     4.03 Bohr mag/cell

     iteration # 18     ecut=    60.00 Ry     beta= 0.20
     Davidson diagonalization with overlap
     c_bands:  1 eigenvalues not converged
     c_bands:  2 eigenvalues not converged
     ethr =  1.11E-06,  avg # of iterations = 14.9

     negative rho (up, down):  1.895E-02 1.901E-02

     total cpu time spent up to now is     3991.9 secs

     total energy              =  -16575.12921850 Ry
     estimated scf accuracy    <       0.01084782 Ry

     total magnetization       =    -2.67 Bohr mag/cell
     absolute magnetization    =     4.43 Bohr mag/cell

     iteration # 19     ecut=    60.00 Ry     beta= 0.20
     Davidson diagonalization with overlap
     ethr =  9.53E-07,  avg # of iterations =  6.1

     negative rho (up, down):  1.624E-02 1.624E-02

     total cpu time spent up to now is     4193.8 secs

     total energy              =  -16575.12778541 Ry
     estimated scf accuracy    <       0.00999681 Ry

     total magnetization       =    -3.12 Bohr mag/cell
     absolute magnetization    =     4.76 Bohr mag/cell

     iteration # 20     ecut=    60.00 Ry     beta= 0.20
     Davidson diagonalization with overlap
     c_bands:  1 eigenvalues not converged
     c_bands:  1 eigenvalues not converged
     c_bands:  1 eigenvalues not converged
     c_bands:  2 eigenvalues not converged
     c_bands:  2 eigenvalues not converged
     c_bands:  1 eigenvalues not converged
     ethr =  8.78E-07,  avg # of iterations = 17.7

     negative rho (up, down):  1.588E-02 1.589E-02

     total cpu time spent up to now is     4456.3 secs

     total energy              =  -16575.12781108 Ry
     estimated scf accuracy    <       0.00779659 Ry

     total magnetization       =    -3.23 Bohr mag/cell
     absolute magnetization    =     4.72 Bohr mag/cell

     iteration # 21     ecut=    60.00 Ry     beta= 0.20
     Davidson diagonalization with overlap
     c_bands:  2 eigenvalues not converged
     c_bands:  1 eigenvalues not converged
     c_bands:  1 eigenvalues not converged
     c_bands:  1 eigenvalues not converged
     c_bands:  1 eigenvalues not converged
     c_bands:  1 eigenvalues not converged
     c_bands:  2 eigenvalues not converged
     c_bands:  1 eigenvalues not converged
     ethr =  6.85E-07,  avg # of iterations = 18.1

     negative rho (up, down):  1.868E-02 1.868E-02

     total cpu time spent up to now is     4713.0 secs

     total energy              =  -16575.12856219 Ry
     estimated scf accuracy    <       0.00605837 Ry

     total magnetization       =    -2.42 Bohr mag/cell
     absolute magnetization    =     3.84 Bohr mag/cell

     iteration # 22     ecut=    60.00 Ry     beta= 0.20
     Davidson diagonalization with overlap
     c_bands:  1 eigenvalues not converged
     c_bands:  1 eigenvalues not converged
     ethr =  5.32E-07,  avg # of iterations =  8.6

     negative rho (up, down):  2.023E-02 2.023E-02

     total cpu time spent up to now is     4923.7 secs

     total energy              =  -16575.12838827 Ry
     estimated scf accuracy    <       0.00421256 Ry

     total magnetization       =    -1.99 Bohr mag/cell
     absolute magnetization    =     3.43 Bohr mag/cell

     iteration # 23     ecut=    60.00 Ry     beta= 0.20
     Davidson diagonalization with overlap
     c_bands:  1 eigenvalues not converged
     c_bands:  1 eigenvalues not converged
     c_bands:  1 eigenvalues not converged
     c_bands:  1 eigenvalues not converged
     c_bands:  1 eigenvalues not converged
     ethr =  3.70E-07,  avg # of iterations = 17.1

     negative rho (up, down):  1.887E-02 1.887E-02

     total cpu time spent up to now is     5182.7 secs

     total energy              =  -16575.12892457 Ry
     estimated scf accuracy    <       0.00278911 Ry

     total magnetization       =    -0.97 Bohr mag/cell
     absolute magnetization    =     2.57 Bohr mag/cell

     iteration # 24     ecut=    60.00 Ry     beta= 0.20
     Davidson diagonalization with overlap
     c_bands:  1 eigenvalues not converged
     ethr =  2.45E-07,  avg # of iterations =  5.3

     negative rho (up, down):  1.671E-02 1.671E-02

     total cpu time spent up to now is     5382.2 secs

     total energy              =  -16575.12955101 Ry
     estimated scf accuracy    <       0.00241901 Ry

     total magnetization       =    -0.10 Bohr mag/cell
     absolute magnetization    =     2.15 Bohr mag/cell

     iteration # 25     ecut=    60.00 Ry     beta= 0.20
     Davidson diagonalization with overlap
     ethr =  2.13E-07,  avg # of iterations =  2.3

     negative rho (up, down):  1.341E-02 1.341E-02

     total cpu time spent up to now is     5570.2 secs

     total energy              =  -16575.12940153 Ry
     estimated scf accuracy    <       0.00214058 Ry

     total magnetization       =     0.09 Bohr mag/cell
     absolute magnetization    =     2.06 Bohr mag/cell

     iteration # 26     ecut=    60.00 Ry     beta= 0.20
     Davidson diagonalization with overlap
     c_bands:  1 eigenvalues not converged
     c_bands:  3 eigenvalues not converged
     c_bands:  1 eigenvalues not converged
     ethr =  1.88E-07,  avg # of iterations =  9.8

     negative rho (up, down):  8.342E-03 8.341E-03

     total cpu time spent up to now is     5814.5 secs

     total energy              =  -16575.12943506 Ry
     estimated scf accuracy    <       0.00192931 Ry

     total magnetization       =     0.56 Bohr mag/cell
     absolute magnetization    =     1.87 Bohr mag/cell

     iteration # 27     ecut=    60.00 Ry     beta= 0.20
     Davidson diagonalization with overlap
     c_bands:  1 eigenvalues not converged
     c_bands:  1 eigenvalues not converged
     c_bands:  3 eigenvalues not converged
     c_bands:  1 eigenvalues not converged
     c_bands:  2 eigenvalues not converged
     ethr =  1.70E-07,  avg # of iterations = 14.8

     negative rho (up, down):  3.251E-03 3.245E-03

     total cpu time spent up to now is     6060.1 secs

     total energy              =  -16575.12934498 Ry
     estimated scf accuracy    <       0.00152922 Ry

     total magnetization       =     0.82 Bohr mag/cell
     absolute magnetization    =     1.70 Bohr mag/cell

     iteration # 28     ecut=    60.00 Ry     beta= 0.20
     Davidson diagonalization with overlap
     c_bands:  2 eigenvalues not converged
     c_bands:  1 eigenvalues not converged
     c_bands:  3 eigenvalues not converged
     c_bands:  1 eigenvalues not converged
     c_bands:  1 eigenvalues not converged
     c_bands:  2 eigenvalues not converged
     c_bands:  1 eigenvalues not converged
     ethr =  1.34E-07,  avg # of iterations = 14.6

     negative rho (up, down):  4.975E-03 5.008E-03

     total cpu time spent up to now is     6301.0 secs

     total energy              =  -16575.12902537 Ry
     estimated scf accuracy    <       0.00131217 Ry

     total magnetization       =     1.04 Bohr mag/cell
     absolute magnetization    =     1.57 Bohr mag/cell

     iteration # 29     ecut=    60.00 Ry     beta= 0.20
     Davidson diagonalization with overlap
     c_bands:  2 eigenvalues not converged
     c_bands:  1 eigenvalues not converged
     c_bands:  2 eigenvalues not converged
     c_bands:  2 eigenvalues not converged
     ethr =  1.15E-07,  avg # of iterations = 15.7

     negative rho (up, down):  6.708E-03 6.740E-03

     total cpu time spent up to now is     6552.2 secs

     total energy              =  -16575.12910778 Ry
     estimated scf accuracy    <       0.00099198 Ry

     total magnetization       =     1.06 Bohr mag/cell
     absolute magnetization    =     1.38 Bohr mag/cell

     iteration # 30     ecut=    60.00 Ry     beta= 0.20
     Davidson diagonalization with overlap
     ethr =  8.72E-08,  avg # of iterations =  3.8

     negative rho (up, down):  8.418E-03 8.448E-03

     total cpu time spent up to now is     6746.7 secs

     total energy              =  -16575.12914084 Ry
     estimated scf accuracy    <       0.00074563 Ry

     total magnetization       =     0.92 Bohr mag/cell
     absolute magnetization    =     1.31 Bohr mag/cell

     iteration # 31     ecut=    60.00 Ry     beta= 0.20
     Davidson diagonalization with overlap
     c_bands:  3 eigenvalues not converged
     c_bands:  2 eigenvalues not converged
     c_bands:  1 eigenvalues not converged
     c_bands:  3 eigenvalues not converged
     c_bands:  2 eigenvalues not converged
     c_bands:  2 eigenvalues not converged
     ethr =  6.55E-08,  avg # of iterations = 15.1

     negative rho (up, down):  1.002E-02 1.003E-02

     total cpu time spent up to now is     6984.6 secs

     total energy              =  -16575.12927466 Ry
     estimated scf accuracy    <       0.00050484 Ry

     total magnetization       =     0.71 Bohr mag/cell
     absolute magnetization    =     1.26 Bohr mag/cell

     iteration # 32     ecut=    60.00 Ry     beta= 0.20
     Davidson diagonalization with overlap
     c_bands:  2 eigenvalues not converged
     c_bands:  1 eigenvalues not converged
     c_bands:  1 eigenvalues not converged
     c_bands:  1 eigenvalues not converged
     c_bands:  2 eigenvalues not converged
     c_bands:  1 eigenvalues not converged
     c_bands:  1 eigenvalues not converged
     c_bands:  2 eigenvalues not converged
     c_bands:  1 eigenvalues not converged
     ethr =  4.44E-08,  avg # of iterations = 14.8

     negative rho (up, down):  9.845E-03 9.850E-03

     total cpu time spent up to now is     7222.1 secs

     total energy              =  -16575.12936674 Ry
     estimated scf accuracy    <       0.00037499 Ry

     total magnetization       =     0.48 Bohr mag/cell
     absolute magnetization    =     1.29 Bohr mag/cell

     iteration # 33     ecut=    60.00 Ry     beta= 0.20
     Davidson diagonalization with overlap
     c_bands:  1 eigenvalues not converged
     ethr =  3.30E-08,  avg # of iterations =  5.0

     negative rho (up, down):  7.537E-03 7.532E-03

     total cpu time spent up to now is     7417.4 secs

     total energy              =  -16575.12919358 Ry
     estimated scf accuracy    <       0.00033214 Ry

     total magnetization       =     0.39 Bohr mag/cell
     absolute magnetization    =     1.31 Bohr mag/cell

     iteration # 34     ecut=    60.00 Ry     beta= 0.20
     Davidson diagonalization with overlap
     c_bands:  1 eigenvalues not converged
     ethr =  2.92E-08,  avg # of iterations =  3.2

     negative rho (up, down):  6.289E-03 6.283E-03

     total cpu time spent up to now is     7609.4 secs

     total energy              =  -16575.12917322 Ry
     estimated scf accuracy    <       0.00027081 Ry

     total magnetization       =     0.05 Bohr mag/cell
     absolute magnetization    =     1.48 Bohr mag/cell

     iteration # 35     ecut=    60.00 Ry     beta= 0.20
     Davidson diagonalization with overlap
     ethr =  2.38E-08,  avg # of iterations =  1.9

     negative rho (up, down):  4.620E-03 4.613E-03

     total cpu time spent up to now is     7795.4 secs

     total energy              =  -16575.12916746 Ry
     estimated scf accuracy    <       0.00021823 Ry

     total magnetization       =    -0.13 Bohr mag/cell
     absolute magnetization    =     1.61 Bohr mag/cell

     iteration # 36     ecut=    60.00 Ry     beta= 0.20
     Davidson diagonalization with overlap
     ethr =  1.92E-08,  avg # of iterations =  2.7

     negative rho (up, down):  4.580E-03 4.573E-03

     total cpu time spent up to now is     7984.3 secs

     total energy              =  -16575.12914857 Ry
     estimated scf accuracy    <       0.00016133 Ry

     total magnetization       =    -0.18 Bohr mag/cell
     absolute magnetization    =     1.66 Bohr mag/cell

     iteration # 37     ecut=    60.00 Ry     beta= 0.20
     Davidson diagonalization with overlap
     c_bands:  1 eigenvalues not converged
     ethr =  1.42E-08,  avg # of iterations =  3.9

     negative rho (up, down):  4.860E-03 4.855E-03

     total cpu time spent up to now is     8179.5 secs

     total energy              =  -16575.12922179 Ry
     estimated scf accuracy    <       0.00009252 Ry

     total magnetization       =    -0.10 Bohr mag/cell
     absolute magnetization    =     1.63 Bohr mag/cell

     iteration # 38     ecut=    60.00 Ry     beta= 0.20
     Davidson diagonalization with overlap
     ethr =  8.13E-09,  avg # of iterations =  2.0

     negative rho (up, down):  4.658E-03 4.656E-03

     total cpu time spent up to now is     8365.8 secs

     total energy              =  -16575.12923437 Ry
     estimated scf accuracy    <       0.00006741 Ry

     total magnetization       =    -0.03 Bohr mag/cell
     absolute magnetization    =     1.58 Bohr mag/cell

     iteration # 39     ecut=    60.00 Ry     beta= 0.20
     Davidson diagonalization with overlap
     ethr =  5.92E-09,  avg # of iterations =  2.7

     negative rho (up, down):  3.712E-03 3.712E-03

     total cpu time spent up to now is     8556.7 secs

     total energy              =  -16575.12926133 Ry
     estimated scf accuracy    <       0.00003819 Ry

     total magnetization       =     0.11 Bohr mag/cell
     absolute magnetization    =     1.52 Bohr mag/cell

     iteration # 40     ecut=    60.00 Ry     beta= 0.20
     Davidson diagonalization with overlap
     ethr =  3.36E-09,  avg # of iterations =  2.0

     negative rho (up, down):  3.733E-03 3.732E-03

     total cpu time spent up to now is     8748.6 secs

     total energy              =  -16575.12927757 Ry
     estimated scf accuracy    <       0.00001778 Ry

     total magnetization       =     0.22 Bohr mag/cell
     absolute magnetization    =     1.47 Bohr mag/cell

     iteration # 41     ecut=    60.00 Ry     beta= 0.20
     Davidson diagonalization with overlap
     ethr =  1.56E-09,  avg # of iterations =  2.1

     negative rho (up, down):  3.623E-03 3.621E-03

     total cpu time spent up to now is     8951.3 secs

     total energy              =  -16575.12929242 Ry
     estimated scf accuracy    <       0.00000812 Ry

     total magnetization       =     0.32 Bohr mag/cell
     absolute magnetization    =     1.41 Bohr mag/cell

     iteration # 42     ecut=    60.00 Ry     beta= 0.20
     Davidson diagonalization with overlap
     c_bands:  1 eigenvalues not converged
     ethr =  7.13E-10,  avg # of iterations =  7.0

     negative rho (up, down):  3.384E-03 3.380E-03

     total cpu time spent up to now is     9166.6 secs

     total energy              =  -16575.12930189 Ry
     estimated scf accuracy    <       0.00000553 Ry

     total magnetization       =     0.38 Bohr mag/cell
     absolute magnetization    =     1.38 Bohr mag/cell

     iteration # 43     ecut=    60.00 Ry     beta= 0.20
     Davidson diagonalization with overlap
     ethr =  4.86E-10,  avg # of iterations =  4.0

     negative rho (up, down):  3.252E-03 3.248E-03

     total cpu time spent up to now is     9361.5 secs

     total energy              =  -16575.12930690 Ry
     estimated scf accuracy    <       0.00000459 Ry

     total magnetization       =     0.39 Bohr mag/cell
     absolute magnetization    =     1.37 Bohr mag/cell

     iteration # 44     ecut=    60.00 Ry     beta= 0.20
     Davidson diagonalization with overlap
     ethr =  4.03E-10,  avg # of iterations =  2.0

     negative rho (up, down):  3.201E-03 3.196E-03

     total cpu time spent up to now is     9550.5 secs

     total energy              =  -16575.12931080 Ry
     estimated scf accuracy    <       0.00000413 Ry

     total magnetization       =     0.40 Bohr mag/cell
     absolute magnetization    =     1.37 Bohr mag/cell

     iteration # 45     ecut=    60.00 Ry     beta= 0.20
     Davidson diagonalization with overlap
     ethr =  3.63E-10,  avg # of iterations =  2.0

     negative rho (up, down):  3.179E-03 3.174E-03

     total cpu time spent up to now is     9746.3 secs

     total energy              =  -16575.12931427 Ry
     estimated scf accuracy    <       0.00000390 Ry

     total magnetization       =     0.42 Bohr mag/cell
     absolute magnetization    =     1.36 Bohr mag/cell

     iteration # 46     ecut=    60.00 Ry     beta= 0.20
     Davidson diagonalization with overlap
     ethr =  3.42E-10,  avg # of iterations =  1.0

     negative rho (up, down):  3.188E-03 3.182E-03

     total cpu time spent up to now is     9913.3 secs

     total energy              =  -16575.12931352 Ry
     estimated scf accuracy    <       0.00000392 Ry

     total magnetization       =     0.43 Bohr mag/cell
     absolute magnetization    =     1.35 Bohr mag/cell

     iteration # 47     ecut=    60.00 Ry     beta= 0.20
     Davidson diagonalization with overlap
     ethr =  3.42E-10,  avg # of iterations =  1.0

     negative rho (up, down):  3.182E-03 3.176E-03

     total cpu time spent up to now is    10080.5 secs

     total energy              =  -16575.12931417 Ry
     estimated scf accuracy    <       0.00000391 Ry

     total magnetization       =     0.43 Bohr mag/cell
     absolute magnetization    =     1.35 Bohr mag/cell

     iteration # 48     ecut=    60.00 Ry     beta= 0.20
     Davidson diagonalization with overlap
     ethr =  3.42E-10,  avg # of iterations =  1.0

     negative rho (up, down):  3.181E-03 3.175E-03

     total cpu time spent up to now is    10248.2 secs

     total energy              =  -16575.12931422 Ry
     estimated scf accuracy    <       0.00000393 Ry

     total magnetization       =     0.43 Bohr mag/cell
     absolute magnetization    =     1.35 Bohr mag/cell

     iteration # 49     ecut=    60.00 Ry     beta= 0.20
     Davidson diagonalization with overlap
     ethr =  3.42E-10,  avg # of iterations =  1.5

     negative rho (up, down):  3.200E-03 3.194E-03

     total cpu time spent up to now is    10425.0 secs

     total energy              =  -16575.12931393 Ry
     estimated scf accuracy    <       0.00000393 Ry

     total magnetization       =     0.43 Bohr mag/cell
     absolute magnetization    =     1.35 Bohr mag/cell

     iteration # 50     ecut=    60.00 Ry     beta= 0.20
     Davidson diagonalization with overlap
     ethr =  3.42E-10,  avg # of iterations =  1.1

     negative rho (up, down):  3.184E-03 3.178E-03

     total cpu time spent up to now is    10593.6 secs

     total energy              =  -16575.12931376 Ry
     estimated scf accuracy    <       0.00000392 Ry

     total magnetization       =     0.43 Bohr mag/cell
     absolute magnetization    =     1.35 Bohr mag/cell

     iteration # 51     ecut=    60.00 Ry     beta= 0.20
     Davidson diagonalization with overlap
     ethr =  3.42E-10,  avg # of iterations =  1.2

     negative rho (up, down):  3.204E-03 3.197E-03

     total cpu time spent up to now is    10765.0 secs

     total energy              =  -16575.12931351 Ry
     estimated scf accuracy    <       0.00000393 Ry

     total magnetization       =     0.43 Bohr mag/cell
     absolute magnetization    =     1.35 Bohr mag/cell

     iteration # 52     ecut=    60.00 Ry     beta= 0.20
     Davidson diagonalization with overlap
     ethr =  3.42E-10,  avg # of iterations =  1.1

     negative rho (up, down):  3.209E-03 3.202E-03

     total cpu time spent up to now is    10934.0 secs

     total energy              =  -16575.12931207 Ry
     estimated scf accuracy    <       0.00000389 Ry

     total magnetization       =     0.43 Bohr mag/cell
     absolute magnetization    =     1.35 Bohr mag/cell

     iteration # 53     ecut=    60.00 Ry     beta= 0.20
     Davidson diagonalization with overlap
     ethr =  3.42E-10,  avg # of iterations =  1.1

     negative rho (up, down):  3.206E-03 3.200E-03

     total cpu time spent up to now is    11102.4 secs

     total energy              =  -16575.12930666 Ry
     estimated scf accuracy    <       0.00000382 Ry

     total magnetization       =     0.43 Bohr mag/cell
     absolute magnetization    =     1.34 Bohr mag/cell

     iteration # 54     ecut=    60.00 Ry     beta= 0.20
     Davidson diagonalization with overlap
     ethr =  3.35E-10,  avg # of iterations =  2.0

     negative rho (up, down):  3.223E-03 3.217E-03

     total cpu time spent up to now is    11289.1 secs

     total energy              =  -16575.12930185 Ry
     estimated scf accuracy    <       0.00000364 Ry

     total magnetization       =     0.44 Bohr mag/cell
     absolute magnetization    =     1.34 Bohr mag/cell

     iteration # 55     ecut=    60.00 Ry     beta= 0.20
     Davidson diagonalization with overlap
     ethr =  3.20E-10,  avg # of iterations =  2.0

     negative rho (up, down):  3.234E-03 3.228E-03

     total cpu time spent up to now is    11476.4 secs

     total energy              =  -16575.12930018 Ry
     estimated scf accuracy    <       0.00000349 Ry

     total magnetization       =     0.44 Bohr mag/cell
     absolute magnetization    =     1.34 Bohr mag/cell

     iteration # 56     ecut=    60.00 Ry     beta= 0.20
     Davidson diagonalization with overlap
     ethr =  3.07E-10,  avg # of iterations =  2.0

     negative rho (up, down):  3.240E-03 3.233E-03

     total cpu time spent up to now is    11663.9 secs

     total energy              =  -16575.12929642 Ry
     estimated scf accuracy    <       0.00000336 Ry

     total magnetization       =     0.46 Bohr mag/cell
     absolute magnetization    =     1.33 Bohr mag/cell

     iteration # 57     ecut=    60.00 Ry     beta= 0.20
     Davidson diagonalization with overlap
     ethr =  2.95E-10,  avg # of iterations =  2.0

     negative rho (up, down):  3.298E-03 3.292E-03

     total cpu time spent up to now is    11851.1 secs

     total energy              =  -16575.12928357 Ry
     estimated scf accuracy    <       0.00000318 Ry

     total magnetization       =     0.47 Bohr mag/cell
     absolute magnetization    =     1.32 Bohr mag/cell

     iteration # 58     ecut=    60.00 Ry     beta= 0.20
     Davidson diagonalization with overlap
     ethr =  2.79E-10,  avg # of iterations =  2.5

     negative rho (up, down):  3.319E-03 3.312E-03

     total cpu time spent up to now is    12064.2 secs

     total energy              =  -16575.12928840 Ry
     estimated scf accuracy    <       0.00000283 Ry

     total magnetization       =     0.47 Bohr mag/cell
     absolute magnetization    =     1.32 Bohr mag/cell

     iteration # 59     ecut=    60.00 Ry     beta= 0.20
     Davidson diagonalization with overlap
     ethr =  2.49E-10,  avg # of iterations =  2.0

     negative rho (up, down):  3.376E-03 3.368E-03

     total cpu time spent up to now is    12253.9 secs

     total energy              =  -16575.12928588 Ry
     estimated scf accuracy    <       0.00000261 Ry

     total magnetization       =     0.48 Bohr mag/cell
     absolute magnetization    =     1.32 Bohr mag/cell

     iteration # 60     ecut=    60.00 Ry     beta= 0.20
     Davidson diagonalization with overlap
     ethr =  2.29E-10,  avg # of iterations =  2.0

     negative rho (up, down):  3.422E-03 3.415E-03

     total cpu time spent up to now is    12445.5 secs

     total energy              =  -16575.12928148 Ry
     estimated scf accuracy    <       0.00000225 Ry

     total magnetization       =     0.49 Bohr mag/cell
     absolute magnetization    =     1.32 Bohr mag/cell

     iteration # 61     ecut=    60.00 Ry     beta= 0.20
     Davidson diagonalization with overlap
     ethr =  1.98E-10,  avg # of iterations =  3.5

     negative rho (up, down):  3.503E-03 3.495E-03

     total cpu time spent up to now is    12653.2 secs

     total energy              =  -16575.12924239 Ry
     estimated scf accuracy    <       0.00000200 Ry

     total magnetization       =     0.49 Bohr mag/cell
     absolute magnetization    =     1.33 Bohr mag/cell

     iteration # 62     ecut=    60.00 Ry     beta= 0.20
     Davidson diagonalization with overlap
     ethr =  1.76E-10,  avg # of iterations =  4.0

     negative rho (up, down):  3.513E-03 3.505E-03

     total cpu time spent up to now is    12921.2 secs

     total energy              =  -16575.12927807 Ry
     estimated scf accuracy    <       0.00000134 Ry

     total magnetization       =     0.49 Bohr mag/cell
     absolute magnetization    =     1.36 Bohr mag/cell

     iteration # 63     ecut=    60.00 Ry     beta= 0.20
     Davidson diagonalization with overlap
     ethr =  1.17E-10,  avg # of iterations =  2.0

     negative rho (up, down):  3.474E-03 3.466E-03

     total cpu time spent up to now is    13115.8 secs

     total energy              =  -16575.12927826 Ry
     estimated scf accuracy    <       0.00000124 Ry

     total magnetization       =     0.49 Bohr mag/cell
     absolute magnetization    =     1.37 Bohr mag/cell

     iteration # 64     ecut=    60.00 Ry     beta= 0.20
     Davidson diagonalization with overlap
     ethr =  1.09E-10,  avg # of iterations =  1.6

     negative rho (up, down):  3.461E-03 3.453E-03

     total cpu time spent up to now is    13297.4 secs

     total energy              =  -16575.12927831 Ry
     estimated scf accuracy    <       0.00000126 Ry

     total magnetization       =     0.49 Bohr mag/cell
     absolute magnetization    =     1.38 Bohr mag/cell

     iteration # 65     ecut=    60.00 Ry     beta= 0.20
     Davidson diagonalization with overlap
     ethr =  1.09E-10,  avg # of iterations =  1.2

     negative rho (up, down):  3.393E-03 3.385E-03

     total cpu time spent up to now is    13467.9 secs

     total energy              =  -16575.12927188 Ry
     estimated scf accuracy    <       0.00000114 Ry

     total magnetization       =     0.49 Bohr mag/cell
     absolute magnetization    =     1.38 Bohr mag/cell

     iteration # 66     ecut=    60.00 Ry     beta= 0.20
     Davidson diagonalization with overlap
     ethr =  9.98E-11,  avg # of iterations =  3.2

     negative rho (up, down):  3.368E-03 3.360E-03

     total cpu time spent up to now is    13706.5 secs

     total energy              =  -16575.12926996 Ry
     estimated scf accuracy    <       0.00000075 Ry

     total magnetization       =     0.52 Bohr mag/cell
     absolute magnetization    =     1.38 Bohr mag/cell

     iteration # 67     ecut=    60.00 Ry     beta= 0.20
     Davidson diagonalization with overlap
     ethr =  6.55E-11,  avg # of iterations =  4.0

     negative rho (up, down):  3.329E-03 3.320E-03

     total cpu time spent up to now is    13958.4 secs

     total energy              =  -16575.12927031 Ry
     estimated scf accuracy    <       0.00000048 Ry

     total magnetization       =     0.54 Bohr mag/cell
     absolute magnetization    =     1.39 Bohr mag/cell

     iteration # 68     ecut=    60.00 Ry     beta= 0.20
     Davidson diagonalization with overlap
     ethr =  4.24E-11,  avg # of iterations =  4.0

     negative rho (up, down):  3.262E-03 3.254E-03

     total cpu time spent up to now is    14212.0 secs

     total energy              =  -16575.12927295 Ry
     estimated scf accuracy    <       0.00000033 Ry

     total magnetization       =     0.55 Bohr mag/cell
     absolute magnetization    =     1.40 Bohr mag/cell

     iteration # 69     ecut=    60.00 Ry     beta= 0.20
     Davidson diagonalization with overlap
     ethr =  2.90E-11,  avg # of iterations =  3.0

     negative rho (up, down):  3.250E-03 3.241E-03

     total cpu time spent up to now is    14450.6 secs

     total energy              =  -16575.12927461 Ry
     estimated scf accuracy    <       0.00000027 Ry

     total magnetization       =     0.55 Bohr mag/cell
     absolute magnetization    =     1.42 Bohr mag/cell

     iteration # 70     ecut=    60.00 Ry     beta= 0.20
     Davidson diagonalization with overlap
     ethr =  2.36E-11,  avg # of iterations =  2.0

     negative rho (up, down):  3.221E-03 3.212E-03

     total cpu time spent up to now is    14648.6 secs

     total energy              =  -16575.12927454 Ry
     estimated scf accuracy    <       0.00000020 Ry

     total magnetization       =     0.55 Bohr mag/cell
     absolute magnetization    =     1.42 Bohr mag/cell

     iteration # 71     ecut=    60.00 Ry     beta= 0.20
     Davidson diagonalization with overlap
     ethr =  1.79E-11,  avg # of iterations =  2.6

     negative rho (up, down):  3.209E-03 3.200E-03

     total cpu time spent up to now is    14860.0 secs

     total energy              =  -16575.12927485 Ry
     estimated scf accuracy    <       0.00000017 Ry

     total magnetization       =     0.54 Bohr mag/cell
     absolute magnetization    =     1.43 Bohr mag/cell

     iteration # 72     ecut=    60.00 Ry     beta= 0.20
     Davidson diagonalization with overlap
     ethr =  1.51E-11,  avg # of iterations =  2.0

     negative rho (up, down):  3.200E-03 3.191E-03

     total cpu time spent up to now is    15046.0 secs

     total energy              =  -16575.12927481 Ry
     estimated scf accuracy    <       0.00000016 Ry

     total magnetization       =     0.54 Bohr mag/cell
     absolute magnetization    =     1.44 Bohr mag/cell

     iteration # 73     ecut=    60.00 Ry     beta= 0.20
     Davidson diagonalization with overlap
     ethr =  1.42E-11,  avg # of iterations =  2.0

     negative rho (up, down):  3.196E-03 3.187E-03

     total cpu time spent up to now is    15234.1 secs

     total energy              =  -16575.12927490 Ry
     estimated scf accuracy    <       0.00000016 Ry

     total magnetization       =     0.54 Bohr mag/cell
     absolute magnetization    =     1.44 Bohr mag/cell

     iteration # 74     ecut=    60.00 Ry     beta= 0.20
     Davidson diagonalization with overlap
     ethr =  1.38E-11,  avg # of iterations =  2.0

     negative rho (up, down):  3.188E-03 3.179E-03

     total cpu time spent up to now is    15420.8 secs

     total energy              =  -16575.12927495 Ry
     estimated scf accuracy    <       0.00000015 Ry

     total magnetization       =     0.54 Bohr mag/cell
     absolute magnetization    =     1.44 Bohr mag/cell

     iteration # 75     ecut=    60.00 Ry     beta= 0.20
     Davidson diagonalization with overlap
     ethr =  1.33E-11,  avg # of iterations =  1.1

     negative rho (up, down):  3.186E-03 3.177E-03

     total cpu time spent up to now is    15590.3 secs

     total energy              =  -16575.12927503 Ry
     estimated scf accuracy    <       0.00000015 Ry

     total magnetization       =     0.54 Bohr mag/cell
     absolute magnetization    =     1.44 Bohr mag/cell

     iteration # 76     ecut=    60.00 Ry     beta= 0.20
     Davidson diagonalization with overlap
     ethr =  1.31E-11,  avg # of iterations =  1.0

     negative rho (up, down):  3.189E-03 3.180E-03

     total cpu time spent up to now is    15757.4 secs

     total energy              =  -16575.12927512 Ry
     estimated scf accuracy    <       0.00000015 Ry

     total magnetization       =     0.54 Bohr mag/cell
     absolute magnetization    =     1.44 Bohr mag/cell

     iteration # 77     ecut=    60.00 Ry     beta= 0.20
     Davidson diagonalization with overlap
     ethr =  1.30E-11,  avg # of iterations =  1.0

     negative rho (up, down):  3.183E-03 3.174E-03

     total cpu time spent up to now is    15926.3 secs

     total energy              =  -16575.12927491 Ry
     estimated scf accuracy    <       0.00000015 Ry

     total magnetization       =     0.54 Bohr mag/cell
     absolute magnetization    =     1.44 Bohr mag/cell

     iteration # 78     ecut=    60.00 Ry     beta= 0.20
     Davidson diagonalization with overlap
     ethr =  1.30E-11,  avg # of iterations =  2.0

     negative rho (up, down):  3.181E-03 3.172E-03

     total cpu time spent up to now is    16112.9 secs

     total energy              =  -16575.12927480 Ry
     estimated scf accuracy    <       0.00000015 Ry

     total magnetization       =     0.54 Bohr mag/cell
     absolute magnetization    =     1.44 Bohr mag/cell

     iteration # 79     ecut=    60.00 Ry     beta= 0.20
     Davidson diagonalization with overlap
     ethr =  1.28E-11,  avg # of iterations =  1.8

     negative rho (up, down):  3.174E-03 3.165E-03

     total cpu time spent up to now is    16295.5 secs

     total energy              =  -16575.12927441 Ry
     estimated scf accuracy    <       0.00000014 Ry

     total magnetization       =     0.54 Bohr mag/cell
     absolute magnetization    =     1.44 Bohr mag/cell

     iteration # 80     ecut=    60.00 Ry     beta= 0.20
     Davidson diagonalization with overlap
     ethr =  1.25E-11,  avg # of iterations =  2.0

     negative rho (up, down):  3.172E-03 3.162E-03

     total cpu time spent up to now is    16488.0 secs

     total energy              =  -16575.12927220 Ry
     estimated scf accuracy    <       0.00000013 Ry

     total magnetization       =     0.55 Bohr mag/cell
     absolute magnetization    =     1.44 Bohr mag/cell

     iteration # 81     ecut=    60.00 Ry     beta= 0.20
     Davidson diagonalization with overlap
     ethr =  1.17E-11,  avg # of iterations =  4.0

     negative rho (up, down):  3.174E-03 3.165E-03

     total cpu time spent up to now is    16747.6 secs

     total energy              =  -16575.12927350 Ry
     estimated scf accuracy    <       0.00000011 Ry

     total magnetization       =     0.55 Bohr mag/cell
     absolute magnetization    =     1.43 Bohr mag/cell

     iteration # 82     ecut=    60.00 Ry     beta= 0.20
     Davidson diagonalization with overlap
     ethr =  9.90E-12,  avg # of iterations =  2.0

     negative rho (up, down):  3.174E-03 3.165E-03

     total cpu time spent up to now is    16972.6 secs

     total energy              =  -16575.12927382 Ry
     estimated scf accuracy    <       0.00000011 Ry

     total magnetization       =     0.55 Bohr mag/cell
     absolute magnetization    =     1.43 Bohr mag/cell

     iteration # 83     ecut=    60.00 Ry     beta= 0.20
     Davidson diagonalization with overlap
     ethr =  9.61E-12,  avg # of iterations =  1.2

     negative rho (up, down):  3.171E-03 3.162E-03

     total cpu time spent up to now is    17143.7 secs

     total energy              =  -16575.12927374 Ry
     estimated scf accuracy    <       0.00000011 Ry

     total magnetization       =     0.55 Bohr mag/cell
     absolute magnetization    =     1.43 Bohr mag/cell

     iteration # 84     ecut=    60.00 Ry     beta= 0.20
     Davidson diagonalization with overlap
     ethr =  9.49E-12,  avg # of iterations =  2.0

     negative rho (up, down):  3.172E-03 3.163E-03

     total cpu time spent up to now is    17341.7 secs

     total energy              =  -16575.12927383 Ry
     estimated scf accuracy    <       0.00000011 Ry

     total magnetization       =     0.55 Bohr mag/cell
     absolute magnetization    =     1.43 Bohr mag/cell

     iteration # 85     ecut=    60.00 Ry     beta= 0.20
     Davidson diagonalization with overlap
     ethr =  9.41E-12,  avg # of iterations =  1.1

     negative rho (up, down):  3.172E-03 3.163E-03

     total cpu time spent up to now is    17517.8 secs

     total energy              =  -16575.12927372 Ry
     estimated scf accuracy    <       0.00000011 Ry

     total magnetization       =     0.55 Bohr mag/cell
     absolute magnetization    =     1.43 Bohr mag/cell

     iteration # 86     ecut=    60.00 Ry     beta= 0.20
     Davidson diagonalization with overlap
     ethr =  9.33E-12,  avg # of iterations =  2.0

     negative rho (up, down):  3.163E-03 3.154E-03

     total cpu time spent up to now is    17709.6 secs

     total energy              =  -16575.12927361 Ry
     estimated scf accuracy    <       0.00000011 Ry

     total magnetization       =     0.55 Bohr mag/cell
     absolute magnetization    =     1.43 Bohr mag/cell

     iteration # 87     ecut=    60.00 Ry     beta= 0.20
     Davidson diagonalization with overlap
     ethr =  9.33E-12,  avg # of iterations =  2.0

     negative rho (up, down):  3.175E-03 3.165E-03

     total cpu time spent up to now is    17909.8 secs

     total energy              =  -16575.12927378 Ry
     estimated scf accuracy    <       0.00000011 Ry

     total magnetization       =     0.55 Bohr mag/cell
     absolute magnetization    =     1.43 Bohr mag/cell

     iteration # 88     ecut=    60.00 Ry     beta= 0.20
     Davidson diagonalization with overlap
     ethr =  9.33E-12,  avg # of iterations =  2.0

     negative rho (up, down):  3.180E-03 3.171E-03

     total cpu time spent up to now is    18096.1 secs

     total energy              =  -16575.12927389 Ry
     estimated scf accuracy    <       0.00000011 Ry

     total magnetization       =     0.55 Bohr mag/cell
     absolute magnetization    =     1.43 Bohr mag/cell

     iteration # 89     ecut=    60.00 Ry     beta= 0.20
     Davidson diagonalization with overlap
     ethr =  9.23E-12,  avg # of iterations =  1.5

     negative rho (up, down):  3.170E-03 3.161E-03

     total cpu time spent up to now is    18272.8 secs

     total energy              =  -16575.12927343 Ry
     estimated scf accuracy    <       0.00000011 Ry

     total magnetization       =     0.55 Bohr mag/cell
     absolute magnetization    =     1.43 Bohr mag/cell

     iteration # 90     ecut=    60.00 Ry     beta= 0.20
     Davidson diagonalization with overlap
     ethr =  9.23E-12,  avg # of iterations =  2.0

     negative rho (up, down):  3.171E-03 3.161E-03

     total cpu time spent up to now is    18474.5 secs

     total energy              =  -16575.12927372 Ry
     estimated scf accuracy    <       0.00000011 Ry

     total magnetization       =     0.55 Bohr mag/cell
     absolute magnetization    =     1.43 Bohr mag/cell

     iteration # 91     ecut=    60.00 Ry     beta= 0.20
     Davidson diagonalization with overlap
     ethr =  9.23E-12,  avg # of iterations =  1.0

     negative rho (up, down):  3.170E-03 3.161E-03

     total cpu time spent up to now is    18641.0 secs

     total energy              =  -16575.12927365 Ry
     estimated scf accuracy    <       0.00000010 Ry

     total magnetization       =     0.55 Bohr mag/cell
     absolute magnetization    =     1.43 Bohr mag/cell

     iteration # 92     ecut=    60.00 Ry     beta= 0.20
     Davidson diagonalization with overlap
     ethr =  9.15E-12,  avg # of iterations =  1.9

     negative rho (up, down):  3.173E-03 3.163E-03

     total cpu time spent up to now is    18826.2 secs

     total energy              =  -16575.12927361 Ry
     estimated scf accuracy    <       0.00000011 Ry

     total magnetization       =     0.55 Bohr mag/cell
     absolute magnetization    =     1.43 Bohr mag/cell

     iteration # 93     ecut=    60.00 Ry     beta= 0.20
     Davidson diagonalization with overlap
     ethr =  9.15E-12,  avg # of iterations =  1.9

     negative rho (up, down):  3.173E-03 3.163E-03

     total cpu time spent up to now is    19011.7 secs

     total energy              =  -16575.12927364 Ry
     estimated scf accuracy    <       0.00000010 Ry

     total magnetization       =     0.55 Bohr mag/cell
     absolute magnetization    =     1.42 Bohr mag/cell

     iteration # 94     ecut=    60.00 Ry     beta= 0.20
     Davidson diagonalization with overlap
     ethr =  8.92E-12,  avg # of iterations =  1.0

     negative rho (up, down):  3.173E-03 3.164E-03

     total cpu time spent up to now is    19178.9 secs

     total energy              =  -16575.12927365 Ry
     estimated scf accuracy    <       0.00000010 Ry

     total magnetization       =     0.55 Bohr mag/cell
     absolute magnetization    =     1.42 Bohr mag/cell

     iteration # 95     ecut=    60.00 Ry     beta= 0.20
     Davidson diagonalization with overlap
     ethr =  8.92E-12,  avg # of iterations =  1.0

     negative rho (up, down):  3.172E-03 3.163E-03

     total cpu time spent up to now is    19345.1 secs

     total energy              =  -16575.12927362 Ry
     estimated scf accuracy    <       0.00000010 Ry

     total magnetization       =     0.55 Bohr mag/cell
     absolute magnetization    =     1.42 Bohr mag/cell

     iteration # 96     ecut=    60.00 Ry     beta= 0.20
     Davidson diagonalization with overlap
     ethr =  8.92E-12,  avg # of iterations =  1.1

     negative rho (up, down):  3.168E-03 3.159E-03

     total cpu time spent up to now is    19514.3 secs

     total energy              =  -16575.12927362 Ry
     estimated scf accuracy    <       0.00000010 Ry

     total magnetization       =     0.55 Bohr mag/cell
     absolute magnetization    =     1.42 Bohr mag/cell

     iteration # 97     ecut=    60.00 Ry     beta= 0.20
     Davidson diagonalization with overlap
     ethr =  8.92E-12,  avg # of iterations =  1.6

     negative rho (up, down):  3.173E-03 3.164E-03

     total cpu time spent up to now is    19693.3 secs

     total energy              =  -16575.12927357 Ry
     estimated scf accuracy    <       0.00000010 Ry

     total magnetization       =     0.55 Bohr mag/cell
     absolute magnetization    =     1.43 Bohr mag/cell

     iteration # 98     ecut=    60.00 Ry     beta= 0.20
     Davidson diagonalization with overlap
     ethr =  8.92E-12,  avg # of iterations =  2.0

     negative rho (up, down):  3.182E-03 3.172E-03

     total cpu time spent up to now is    19883.0 secs

     total energy              =  -16575.12927377 Ry
     estimated scf accuracy    <       0.00000010 Ry

     total magnetization       =     0.55 Bohr mag/cell
     absolute magnetization    =     1.43 Bohr mag/cell

     iteration # 99     ecut=    60.00 Ry     beta= 0.20
     Davidson diagonalization with overlap
     ethr =  8.92E-12,  avg # of iterations =  1.6

     negative rho (up, down):  3.182E-03 3.173E-03

     total cpu time spent up to now is    20061.5 secs

     total energy              =  -16575.12927379 Ry
     estimated scf accuracy    <       0.00000010 Ry

     total magnetization       =     0.55 Bohr mag/cell
     absolute magnetization    =     1.42 Bohr mag/cell

     iteration #100     ecut=    60.00 Ry     beta= 0.20
     Davidson diagonalization with overlap
     ethr =  8.92E-12,  avg # of iterations =  1.0

     negative rho (up, down):  3.178E-03 3.169E-03

     total cpu time spent up to now is    20229.5 secs

     total energy              =  -16575.12927362 Ry
     estimated scf accuracy    <       0.00000010 Ry

     total magnetization       =     0.55 Bohr mag/cell
     absolute magnetization    =     1.42 Bohr mag/cell

     iteration #101     ecut=    60.00 Ry     beta= 0.20
     Davidson diagonalization with overlap
     ethr =  8.92E-12,  avg # of iterations =  2.0

     negative rho (up, down):  3.176E-03 3.166E-03

     total cpu time spent up to now is    20416.8 secs

     total energy              =  -16575.12927349 Ry
     estimated scf accuracy    <       0.00000010 Ry

     total magnetization       =     0.55 Bohr mag/cell
     absolute magnetization    =     1.42 Bohr mag/cell

     iteration #102     ecut=    60.00 Ry     beta= 0.20
     Davidson diagonalization with overlap
     ethr =  8.40E-12,  avg # of iterations =  2.0

     negative rho (up, down):  3.164E-03 3.155E-03

     total cpu time spent up to now is    20608.5 secs

     total energy              =  -16575.12927284 Ry
     estimated scf accuracy    <       0.00000009 Ry

     total magnetization       =     0.55 Bohr mag/cell
     absolute magnetization    =     1.42 Bohr mag/cell

     iteration #103     ecut=    60.00 Ry     beta= 0.20
     Davidson diagonalization with overlap
     ethr =  8.03E-12,  avg # of iterations =  2.8

     negative rho (up, down):  3.150E-03 3.141E-03

     total cpu time spent up to now is    20846.0 secs

     total energy              =  -16575.12927224 Ry
     estimated scf accuracy    <       0.00000008 Ry

     total magnetization       =     0.55 Bohr mag/cell
     absolute magnetization    =     1.41 Bohr mag/cell

     iteration #104     ecut=    60.00 Ry     beta= 0.20
     Davidson diagonalization with overlap
     ethr =  7.03E-12,  avg # of iterations =  4.0

     negative rho (up, down):  3.143E-03 3.134E-03

     total cpu time spent up to now is    21104.5 secs

     total energy              =  -16575.12927242 Ry
     estimated scf accuracy    <       0.00000007 Ry

     total magnetization       =     0.55 Bohr mag/cell
     absolute magnetization    =     1.41 Bohr mag/cell

     iteration #105     ecut=    60.00 Ry     beta= 0.20
     Davidson diagonalization with overlap
     ethr =  5.74E-12,  avg # of iterations =  3.6

     negative rho (up, down):  3.141E-03 3.132E-03

     total cpu time spent up to now is    21356.9 secs

     total energy              =  -16575.12927197 Ry
     estimated scf accuracy    <       0.00000005 Ry

     total magnetization       =     0.54 Bohr mag/cell
     absolute magnetization    =     1.41 Bohr mag/cell

     iteration #106     ecut=    60.00 Ry     beta= 0.20
     Davidson diagonalization with overlap
     ethr =  4.35E-12,  avg # of iterations =  4.0

     negative rho (up, down):  3.145E-03 3.136E-03

     total cpu time spent up to now is    21622.4 secs

     total energy              =  -16575.12927266 Ry
     estimated scf accuracy    <       0.00000004 Ry

     total magnetization       =     0.54 Bohr mag/cell
     absolute magnetization    =     1.40 Bohr mag/cell

     iteration #107     ecut=    60.00 Ry     beta= 0.20
     Davidson diagonalization with overlap
     ethr =  3.27E-12,  avg # of iterations =  3.0

     negative rho (up, down):  3.147E-03 3.138E-03

     total cpu time spent up to now is    21858.5 secs

     total energy              =  -16575.12927282 Ry
     estimated scf accuracy    <       0.00000003 Ry

     total magnetization       =     0.54 Bohr mag/cell
     absolute magnetization    =     1.40 Bohr mag/cell

     iteration #108     ecut=    60.00 Ry     beta= 0.20
     Davidson diagonalization with overlap
     ethr =  2.56E-12,  avg # of iterations =  2.4

     negative rho (up, down):  3.151E-03 3.142E-03

     total cpu time spent up to now is    22078.5 secs

     total energy              =  -16575.12927295 Ry
     estimated scf accuracy    <       0.00000002 Ry

     total magnetization       =     0.54 Bohr mag/cell
     absolute magnetization    =     1.39 Bohr mag/cell

     iteration #109     ecut=    60.00 Ry     beta= 0.20
     Davidson diagonalization with overlap
     ethr =  2.09E-12,  avg # of iterations =  2.0

     negative rho (up, down):  3.153E-03 3.144E-03

     total cpu time spent up to now is    22264.6 secs

     total energy              =  -16575.12927298 Ry
     estimated scf accuracy    <       0.00000002 Ry

     total magnetization       =     0.54 Bohr mag/cell
     absolute magnetization    =     1.39 Bohr mag/cell

     iteration #110     ecut=    60.00 Ry     beta= 0.20
     Davidson diagonalization with overlap
     ethr =  1.98E-12,  avg # of iterations =  2.0

     negative rho (up, down):  3.153E-03 3.144E-03

     total cpu time spent up to now is    22452.4 secs

     total energy              =  -16575.12927301 Ry
     estimated scf accuracy    <       0.00000002 Ry

     total magnetization       =     0.54 Bohr mag/cell
     absolute magnetization    =     1.39 Bohr mag/cell

     iteration #111     ecut=    60.00 Ry     beta= 0.20
     Davidson diagonalization with overlap
     ethr =  1.96E-12,  avg # of iterations =  1.0

     negative rho (up, down):  3.153E-03 3.144E-03

     total cpu time spent up to now is    22619.2 secs

     total energy              =  -16575.12927302 Ry
     estimated scf accuracy    <       0.00000002 Ry

     total magnetization       =     0.54 Bohr mag/cell
     absolute magnetization    =     1.39 Bohr mag/cell

     iteration #112     ecut=    60.00 Ry     beta= 0.20
     Davidson diagonalization with overlap
     ethr =  1.95E-12,  avg # of iterations =  2.0

     negative rho (up, down):  3.151E-03 3.142E-03

     total cpu time spent up to now is    22807.2 secs

     total energy              =  -16575.12927303 Ry
     estimated scf accuracy    <       0.00000002 Ry

     total magnetization       =     0.54 Bohr mag/cell
     absolute magnetization    =     1.39 Bohr mag/cell

     iteration #113     ecut=    60.00 Ry     beta= 0.20
     Davidson diagonalization with overlap
     ethr =  1.91E-12,  avg # of iterations =  1.9

     negative rho (up, down):  3.152E-03 3.143E-03

     total cpu time spent up to now is    22991.8 secs

     total energy              =  -16575.12927303 Ry
     estimated scf accuracy    <       0.00000002 Ry

     total magnetization       =     0.54 Bohr mag/cell
     absolute magnetization    =     1.40 Bohr mag/cell

     iteration #114     ecut=    60.00 Ry     beta= 0.20
     Davidson diagonalization with overlap
     ethr =  1.91E-12,  avg # of iterations =  1.1

     negative rho (up, down):  3.150E-03 3.141E-03

     total cpu time spent up to now is    23159.2 secs

     total energy              =  -16575.12927299 Ry
     estimated scf accuracy    <       0.00000002 Ry

     total magnetization       =     0.54 Bohr mag/cell
     absolute magnetization    =     1.39 Bohr mag/cell

     iteration #115     ecut=    60.00 Ry     beta= 0.20
     Davidson diagonalization with overlap
     ethr =  1.91E-12,  avg # of iterations =  2.0

     negative rho (up, down):  3.151E-03 3.142E-03

     total cpu time spent up to now is    23382.9 secs

     total energy              =  -16575.12927293 Ry
     estimated scf accuracy    <       0.00000002 Ry

     total magnetization       =     0.54 Bohr mag/cell
     absolute magnetization    =     1.40 Bohr mag/cell

     iteration #116     ecut=    60.00 Ry     beta= 0.20
     Davidson diagonalization with overlap
     ethr =  1.91E-12,  avg # of iterations =  2.0

     negative rho (up, down):  3.152E-03 3.143E-03

     total cpu time spent up to now is    23611.1 secs

     total energy              =  -16575.12927300 Ry
     estimated scf accuracy    <       0.00000002 Ry

     total magnetization       =     0.54 Bohr mag/cell
     absolute magnetization    =     1.39 Bohr mag/cell

     iteration #117     ecut=    60.00 Ry     beta= 0.20
     Davidson diagonalization with overlap
     ethr =  1.91E-12,  avg # of iterations =  2.0

     negative rho (up, down):  3.152E-03 3.142E-03

     total cpu time spent up to now is    23808.0 secs

     total energy              =  -16575.12927303 Ry
     estimated scf accuracy    <       0.00000002 Ry

     total magnetization       =     0.54 Bohr mag/cell
     absolute magnetization    =     1.40 Bohr mag/cell

     iteration #118     ecut=    60.00 Ry     beta= 0.20
     Davidson diagonalization with overlap
     ethr =  1.91E-12,  avg # of iterations =  2.0

     negative rho (up, down):  3.152E-03 3.143E-03

     total cpu time spent up to now is    23994.0 secs

     total energy              =  -16575.12927304 Ry
     estimated scf accuracy    <       0.00000002 Ry

     total magnetization       =     0.54 Bohr mag/cell
     absolute magnetization    =     1.40 Bohr mag/cell

     iteration #119     ecut=    60.00 Ry     beta= 0.20
     Davidson diagonalization with overlap
     ethr =  1.91E-12,  avg # of iterations =  1.0

     negative rho (up, down):  3.153E-03 3.144E-03

     total cpu time spent up to now is    24161.3 secs

     total energy              =  -16575.12927306 Ry
     estimated scf accuracy    <       0.00000002 Ry

     total magnetization       =     0.54 Bohr mag/cell
     absolute magnetization    =     1.40 Bohr mag/cell

     iteration #120     ecut=    60.00 Ry     beta= 0.20
     Davidson diagonalization with overlap
     ethr =  1.91E-12,  avg # of iterations =  1.6

     negative rho (up, down):  3.151E-03 3.141E-03

     total cpu time spent up to now is    24339.9 secs

     total energy              =  -16575.12927297 Ry
     estimated scf accuracy    <       0.00000002 Ry

     total magnetization       =     0.54 Bohr mag/cell
     absolute magnetization    =     1.40 Bohr mag/cell

     iteration #121     ecut=    60.00 Ry     beta= 0.20
     Davidson diagonalization with overlap
     ethr =  1.91E-12,  avg # of iterations =  2.0

     negative rho (up, down):  3.150E-03 3.141E-03

     total cpu time spent up to now is    24539.3 secs

     total energy              =  -16575.12927298 Ry
     estimated scf accuracy    <       0.00000002 Ry

     total magnetization       =     0.54 Bohr mag/cell
     absolute magnetization    =     1.40 Bohr mag/cell

     iteration #122     ecut=    60.00 Ry     beta= 0.20
     Davidson diagonalization with overlap
     ethr =  1.91E-12,  avg # of iterations =  2.0

     negative rho (up, down):  3.152E-03 3.143E-03

     total cpu time spent up to now is    24759.8 secs

     total energy              =  -16575.12927306 Ry
     estimated scf accuracy    <       0.00000002 Ry

     total magnetization       =     0.54 Bohr mag/cell
     absolute magnetization    =     1.40 Bohr mag/cell

     iteration #123     ecut=    60.00 Ry     beta= 0.20
     Davidson diagonalization with overlap
     ethr =  1.91E-12,  avg # of iterations =  1.1

     negative rho (up, down):  3.151E-03 3.142E-03

     total cpu time spent up to now is    24929.0 secs

     total energy              =  -16575.12927306 Ry
     estimated scf accuracy    <       0.00000002 Ry

     total magnetization       =     0.54 Bohr mag/cell
     absolute magnetization    =     1.40 Bohr mag/cell

     iteration #124     ecut=    60.00 Ry     beta= 0.20
     Davidson diagonalization with overlap
     ethr =  1.91E-12,  avg # of iterations =  1.9

     negative rho (up, down):  3.152E-03 3.143E-03

     total cpu time spent up to now is    25116.0 secs

     total energy              =  -16575.12927296 Ry
     estimated scf accuracy    <       0.00000002 Ry

     total magnetization       =     0.54 Bohr mag/cell
     absolute magnetization    =     1.40 Bohr mag/cell

     iteration #125     ecut=    60.00 Ry     beta= 0.20
     Davidson diagonalization with overlap
     ethr =  1.91E-12,  avg # of iterations =  2.0

     negative rho (up, down):  3.152E-03 3.142E-03

     total cpu time spent up to now is    25338.3 secs

     total energy              =  -16575.12927288 Ry
     estimated scf accuracy    <       0.00000002 Ry

     total magnetization       =     0.54 Bohr mag/cell
     absolute magnetization    =     1.39 Bohr mag/cell

     iteration #126     ecut=    60.00 Ry     beta= 0.20
     Davidson diagonalization with overlap
     ethr =  1.91E-12,  avg # of iterations =  2.9

     negative rho (up, down):  3.151E-03 3.141E-03

     total cpu time spent up to now is    25584.6 secs

     total energy              =  -16575.12927296 Ry
     estimated scf accuracy    <       0.00000002 Ry

     total magnetization       =     0.54 Bohr mag/cell
     absolute magnetization    =     1.40 Bohr mag/cell

     iteration #127     ecut=    60.00 Ry     beta= 0.20
     Davidson diagonalization with overlap
     ethr =  1.91E-12,  avg # of iterations =  2.0

     negative rho (up, down):  3.150E-03 3.141E-03

     total cpu time spent up to now is    25811.8 secs

     total energy              =  -16575.12927306 Ry
     estimated scf accuracy    <       0.00000002 Ry

     total magnetization       =     0.54 Bohr mag/cell
     absolute magnetization    =     1.40 Bohr mag/cell

     iteration #128     ecut=    60.00 Ry     beta= 0.20
     Davidson diagonalization with overlap
     ethr =  1.91E-12,  avg # of iterations =  1.0

     negative rho (up, down):  3.152E-03 3.143E-03

     total cpu time spent up to now is    25979.1 secs

     total energy              =  -16575.12927306 Ry
     estimated scf accuracy    <       0.00000002 Ry

     total magnetization       =     0.54 Bohr mag/cell
     absolute magnetization    =     1.40 Bohr mag/cell

     iteration #129     ecut=    60.00 Ry     beta= 0.20
     Davidson diagonalization with overlap
     ethr =  1.91E-12,  avg # of iterations =  1.6

     negative rho (up, down):  3.150E-03 3.140E-03

     total cpu time spent up to now is    26155.6 secs

     total energy              =  -16575.12927304 Ry
     estimated scf accuracy    <       0.00000002 Ry

     total magnetization       =     0.54 Bohr mag/cell
     absolute magnetization    =     1.40 Bohr mag/cell

     iteration #130     ecut=    60.00 Ry     beta= 0.20
     Davidson diagonalization with overlap
     ethr =  1.91E-12,  avg # of iterations =  1.6

     negative rho (up, down):  3.153E-03 3.144E-03

     total cpu time spent up to now is    26333.1 secs

     total energy              =  -16575.12927308 Ry
     estimated scf accuracy    <       0.00000002 Ry

     total magnetization       =     0.54 Bohr mag/cell
     absolute magnetization    =     1.40 Bohr mag/cell

     iteration #131     ecut=    60.00 Ry     beta= 0.20
     Davidson diagonalization with overlap
     ethr =  1.91E-12,  avg # of iterations =  2.0

     negative rho (up, down):  3.152E-03 3.143E-03

     total cpu time spent up to now is    26524.7 secs

     total energy              =  -16575.12927301 Ry
     estimated scf accuracy    <       0.00000002 Ry

     total magnetization       =     0.54 Bohr mag/cell
     absolute magnetization    =     1.40 Bohr mag/cell

     iteration #132     ecut=    60.00 Ry     beta= 0.20
     Davidson diagonalization with overlap
     ethr =  1.91E-12,  avg # of iterations =  2.0

     negative rho (up, down):  3.152E-03 3.142E-03

     total cpu time spent up to now is    26725.3 secs

     total energy              =  -16575.12927305 Ry
     estimated scf accuracy    <       0.00000002 Ry

     total magnetization       =     0.54 Bohr mag/cell
     absolute magnetization    =     1.40 Bohr mag/cell

     iteration #133     ecut=    60.00 Ry     beta= 0.20
     Davidson diagonalization with overlap
     ethr =  1.91E-12,  avg # of iterations =  1.0

     negative rho (up, down):  3.149E-03 3.140E-03

     total cpu time spent up to now is    26892.1 secs

     total energy              =  -16575.12927302 Ry
     estimated scf accuracy    <       0.00000002 Ry

     total magnetization       =     0.54 Bohr mag/cell
     absolute magnetization    =     1.40 Bohr mag/cell

     iteration #134     ecut=    60.00 Ry     beta= 0.20
     Davidson diagonalization with overlap
     ethr =  1.90E-12,  avg # of iterations =  2.0

     negative rho (up, down):  3.151E-03 3.141E-03

     total cpu time spent up to now is    27082.5 secs

     total energy              =  -16575.12927306 Ry
     estimated scf accuracy    <       0.00000002 Ry

     total magnetization       =     0.54 Bohr mag/cell
     absolute magnetization    =     1.40 Bohr mag/cell

     iteration #135     ecut=    60.00 Ry     beta= 0.20
     Davidson diagonalization with overlap
     ethr =  1.90E-12,  avg # of iterations =  2.0

     negative rho (up, down):  3.149E-03 3.139E-03

     total cpu time spent up to now is    27271.3 secs

     total energy              =  -16575.12927252 Ry
     estimated scf accuracy    <       0.00000002 Ry

     total magnetization       =     0.54 Bohr mag/cell
     absolute magnetization    =     1.40 Bohr mag/cell

     iteration #136     ecut=    60.00 Ry     beta= 0.20
     Davidson diagonalization with overlap
     ethr =  1.90E-12,  avg # of iterations =  3.6

     negative rho (up, down):  3.149E-03 3.139E-03

     total cpu time spent up to now is    27528.8 secs

     total energy              =  -16575.12927294 Ry
     estimated scf accuracy    <       0.00000002 Ry

     total magnetization       =     0.54 Bohr mag/cell
     absolute magnetization    =     1.39 Bohr mag/cell

     iteration #137     ecut=    60.00 Ry     beta= 0.20
     Davidson diagonalization with overlap
     ethr =  1.90E-12,  avg # of iterations =  2.0

     negative rho (up, down):  3.151E-03 3.142E-03

     total cpu time spent up to now is    27725.2 secs

     total energy              =  -16575.12927300 Ry
     estimated scf accuracy    <       0.00000002 Ry

     total magnetization       =     0.54 Bohr mag/cell
     absolute magnetization    =     1.39 Bohr mag/cell

     iteration #138     ecut=    60.00 Ry     beta= 0.20
     Davidson diagonalization with overlap
     ethr =  1.90E-12,  avg # of iterations =  1.7

     negative rho (up, down):  3.151E-03 3.142E-03

     total cpu time spent up to now is    27905.3 secs

     total energy              =  -16575.12927301 Ry
     estimated scf accuracy    <       0.00000002 Ry

     total magnetization       =     0.54 Bohr mag/cell
     absolute magnetization    =     1.39 Bohr mag/cell

     iteration #139     ecut=    60.00 Ry     beta= 0.20
     Davidson diagonalization with overlap
     ethr =  1.90E-12,  avg # of iterations =  1.1

     negative rho (up, down):  3.149E-03 3.140E-03

     total cpu time spent up to now is    28073.0 secs

     total energy              =  -16575.12927300 Ry
     estimated scf accuracy    <       0.00000002 Ry

     total magnetization       =     0.54 Bohr mag/cell
     absolute magnetization    =     1.39 Bohr mag/cell

     iteration #140     ecut=    60.00 Ry     beta= 0.20
     Davidson diagonalization with overlap
     ethr =  1.89E-12,  avg # of iterations =  1.0

     negative rho (up, down):  3.153E-03 3.144E-03

     total cpu time spent up to now is    28240.0 secs

     total energy              =  -16575.12927295 Ry
     estimated scf accuracy    <       0.00000002 Ry

     total magnetization       =     0.54 Bohr mag/cell
     absolute magnetization    =     1.39 Bohr mag/cell

     iteration #141     ecut=    60.00 Ry     beta= 0.20
     Davidson diagonalization with overlap
     ethr =  1.89E-12,  avg # of iterations =  2.0

     negative rho (up, down):  3.150E-03 3.141E-03

     total cpu time spent up to now is    28441.8 secs

     total energy              =  -16575.12927294 Ry
     estimated scf accuracy    <       0.00000002 Ry

     total magnetization       =     0.54 Bohr mag/cell
     absolute magnetization    =     1.39 Bohr mag/cell

     iteration #142     ecut=    60.00 Ry     beta= 0.20
     Davidson diagonalization with overlap
     ethr =  1.89E-12,  avg # of iterations =  2.0

     negative rho (up, down):  3.152E-03 3.143E-03

     total cpu time spent up to now is    28664.6 secs

     total energy              =  -16575.12927305 Ry
     estimated scf accuracy    <       0.00000002 Ry

     total magnetization       =     0.54 Bohr mag/cell
     absolute magnetization    =     1.39 Bohr mag/cell

     iteration #143     ecut=    60.00 Ry     beta= 0.20
     Davidson diagonalization with overlap
     ethr =  1.86E-12,  avg # of iterations =  1.6

     negative rho (up, down):  3.148E-03 3.139E-03

     total cpu time spent up to now is    28843.7 secs

     total energy              =  -16575.12927300 Ry
     estimated scf accuracy    <       0.00000002 Ry

     total magnetization       =     0.54 Bohr mag/cell
     absolute magnetization    =     1.39 Bohr mag/cell

     iteration #144     ecut=    60.00 Ry     beta= 0.20
     Davidson diagonalization with overlap
     ethr =  1.86E-12,  avg # of iterations =  2.0

     negative rho (up, down):  3.151E-03 3.141E-03

     total cpu time spent up to now is    29041.0 secs

     total energy              =  -16575.12927304 Ry
     estimated scf accuracy    <       0.00000002 Ry

     total magnetization       =     0.54 Bohr mag/cell
     absolute magnetization    =     1.40 Bohr mag/cell

     iteration #145     ecut=    60.00 Ry     beta= 0.20
     Davidson diagonalization with overlap
     ethr =  1.86E-12,  avg # of iterations =  2.0

     negative rho (up, down):  3.146E-03 3.137E-03

     total cpu time spent up to now is    29232.6 secs

     total energy              =  -16575.12927284 Ry
     estimated scf accuracy    <       0.00000002 Ry

     total magnetization       =     0.54 Bohr mag/cell
     absolute magnetization    =     1.40 Bohr mag/cell

     iteration #146     ecut=    60.00 Ry     beta= 0.20
     Davidson diagonalization with overlap
     ethr =  1.86E-12,  avg # of iterations =  2.3

     negative rho (up, down):  3.149E-03 3.140E-03

     total cpu time spent up to now is    29472.0 secs

     total energy              =  -16575.12927294 Ry
     estimated scf accuracy    <       0.00000002 Ry

     total magnetization       =     0.54 Bohr mag/cell
     absolute magnetization    =     1.39 Bohr mag/cell

     iteration #147     ecut=    60.00 Ry     beta= 0.20
     Davidson diagonalization with overlap
     ethr =  1.86E-12,  avg # of iterations =  2.0

     negative rho (up, down):  3.147E-03 3.138E-03

     total cpu time spent up to now is    29697.9 secs

     total energy              =  -16575.12927299 Ry
     estimated scf accuracy    <       0.00000002 Ry

     total magnetization       =     0.54 Bohr mag/cell
     absolute magnetization    =     1.40 Bohr mag/cell

     iteration #148     ecut=    60.00 Ry     beta= 0.20
     Davidson diagonalization with overlap
     ethr =  1.86E-12,  avg # of iterations =  2.0

     negative rho (up, down):  3.146E-03 3.137E-03

     total cpu time spent up to now is    29894.7 secs

     total energy              =  -16575.12927292 Ry
     estimated scf accuracy    <       0.00000002 Ry

     total magnetization       =     0.54 Bohr mag/cell
     absolute magnetization    =     1.39 Bohr mag/cell

     iteration #149     ecut=    60.00 Ry     beta= 0.20
     Davidson diagonalization with overlap
     ethr =  1.86E-12,  avg # of iterations =  2.0

     negative rho (up, down):  3.145E-03 3.135E-03

     total cpu time spent up to now is    30100.3 secs

     total energy              =  -16575.12927292 Ry
     estimated scf accuracy    <       0.00000002 Ry

     total magnetization       =     0.54 Bohr mag/cell
     absolute magnetization    =     1.40 Bohr mag/cell

     iteration #150     ecut=    60.00 Ry     beta= 0.20
     Davidson diagonalization with overlap
     ethr =  1.86E-12,  avg # of iterations =  2.0

     negative rho (up, down):  3.150E-03 3.141E-03

     total cpu time spent up to now is    30313.9 secs

     total energy              =  -16575.12927297 Ry
     estimated scf accuracy    <       0.00000002 Ry

     total magnetization       =     0.54 Bohr mag/cell
     absolute magnetization    =     1.40 Bohr mag/cell

     iteration #151     ecut=    60.00 Ry     beta= 0.20
     Davidson diagonalization with overlap
     ethr =  1.86E-12,  avg # of iterations =  2.0

     negative rho (up, down):  3.150E-03 3.141E-03

     total cpu time spent up to now is    30508.5 secs

     total energy              =  -16575.12927302 Ry
     estimated scf accuracy    <       0.00000002 Ry

     total magnetization       =     0.54 Bohr mag/cell
     absolute magnetization    =     1.39 Bohr mag/cell

     iteration #152     ecut=    60.00 Ry     beta= 0.20
     Davidson diagonalization with overlap
     ethr =  1.86E-12,  avg # of iterations =  1.1

     negative rho (up, down):  3.149E-03 3.140E-03

     total cpu time spent up to now is    30677.2 secs

     total energy              =  -16575.12927301 Ry
     estimated scf accuracy    <       0.00000002 Ry

     total magnetization       =     0.54 Bohr mag/cell
     absolute magnetization    =     1.39 Bohr mag/cell

     iteration #153     ecut=    60.00 Ry     beta= 0.20
     Davidson diagonalization with overlap
     ethr =  1.86E-12,  avg # of iterations =  1.0

     negative rho (up, down):  3.148E-03 3.139E-03

     total cpu time spent up to now is    30844.6 secs

     total energy              =  -16575.12927301 Ry
     estimated scf accuracy    <       0.00000002 Ry

     total magnetization       =     0.54 Bohr mag/cell
     absolute magnetization    =     1.39 Bohr mag/cell

     iteration #154     ecut=    60.00 Ry     beta= 0.20
     Davidson diagonalization with overlap
     ethr =  1.86E-12,  avg # of iterations =  1.0

     negative rho (up, down):  3.150E-03 3.140E-03

     total cpu time spent up to now is    31012.7 secs

     total energy              =  -16575.12927301 Ry
     estimated scf accuracy    <       0.00000002 Ry

     total magnetization       =     0.54 Bohr mag/cell
     absolute magnetization    =     1.39 Bohr mag/cell

     iteration #155     ecut=    60.00 Ry     beta= 0.20
     Davidson diagonalization with overlap
     ethr =  1.86E-12,  avg # of iterations =  2.0

     negative rho (up, down):  3.149E-03 3.140E-03

     total cpu time spent up to now is    31200.9 secs

     total energy              =  -16575.12927304 Ry
     estimated scf accuracy    <       0.00000002 Ry

     total magnetization       =     0.54 Bohr mag/cell
     absolute magnetization    =     1.39 Bohr mag/cell

     iteration #156     ecut=    60.00 Ry     beta= 0.20
     Davidson diagonalization with overlap
     ethr =  1.86E-12,  avg # of iterations =  1.0

     negative rho (up, down):  3.150E-03 3.140E-03

     total cpu time spent up to now is    31375.8 secs

     total energy              =  -16575.12927303 Ry
     estimated scf accuracy    <       0.00000002 Ry

     total magnetization       =     0.54 Bohr mag/cell
     absolute magnetization    =     1.39 Bohr mag/cell

     iteration #157     ecut=    60.00 Ry     beta= 0.20
     Davidson diagonalization with overlap
     ethr =  1.86E-12,  avg # of iterations =  1.0

     negative rho (up, down):  3.150E-03 3.140E-03

     total cpu time spent up to now is    31542.3 secs

     total energy              =  -16575.12927303 Ry
     estimated scf accuracy    <       0.00000002 Ry

     total magnetization       =     0.54 Bohr mag/cell
     absolute magnetization    =     1.39 Bohr mag/cell

     iteration #158     ecut=    60.00 Ry     beta= 0.20
     Davidson diagonalization with overlap
     ethr =  1.86E-12,  avg # of iterations =  1.0

     negative rho (up, down):  3.149E-03 3.140E-03

     total cpu time spent up to now is    31710.5 secs

     total energy              =  -16575.12927303 Ry
     estimated scf accuracy    <       0.00000002 Ry

     total magnetization       =     0.54 Bohr mag/cell
     absolute magnetization    =     1.39 Bohr mag/cell

     iteration #159     ecut=    60.00 Ry     beta= 0.20
     Davidson diagonalization with overlap
     ethr =  1.86E-12,  avg # of iterations =  1.0

     negative rho (up, down):  3.148E-03 3.139E-03

     total cpu time spent up to now is    31877.0 secs

     total energy              =  -16575.12927302 Ry
     estimated scf accuracy    <       0.00000002 Ry

     total magnetization       =     0.54 Bohr mag/cell
     absolute magnetization    =     1.39 Bohr mag/cell

     iteration #160     ecut=    60.00 Ry     beta= 0.20
     Davidson diagonalization with overlap
     ethr =  1.86E-12,  avg # of iterations =  1.1

     negative rho (up, down):  3.147E-03 3.138E-03

     total cpu time spent up to now is    32045.4 secs

     total energy              =  -16575.12927303 Ry
     estimated scf accuracy    <       0.00000002 Ry

     total magnetization       =     0.54 Bohr mag/cell
     absolute magnetization    =     1.39 Bohr mag/cell

     iteration #161     ecut=    60.00 Ry     beta= 0.20
     Davidson diagonalization with overlap
     ethr =  1.86E-12,  avg # of iterations =  1.0

     negative rho (up, down):  3.149E-03 3.139E-03

     total cpu time spent up to now is    32212.9 secs

     total energy              =  -16575.12927302 Ry
     estimated scf accuracy    <       0.00000002 Ry

     total magnetization       =     0.54 Bohr mag/cell
     absolute magnetization    =     1.39 Bohr mag/cell

     iteration #162     ecut=    60.00 Ry     beta= 0.20
     Davidson diagonalization with overlap
     ethr =  1.86E-12,  avg # of iterations =  1.1

     negative rho (up, down):  3.148E-03 3.139E-03

     total cpu time spent up to now is    32382.4 secs

     total energy              =  -16575.12927300 Ry
     estimated scf accuracy    <       0.00000002 Ry

     total magnetization       =     0.54 Bohr mag/cell
     absolute magnetization    =     1.39 Bohr mag/cell

     iteration #163     ecut=    60.00 Ry     beta= 0.20
     Davidson diagonalization with overlap
     ethr =  1.86E-12,  avg # of iterations =  2.0

     negative rho (up, down):  3.151E-03 3.141E-03

     total cpu time spent up to now is    32569.8 secs

     total energy              =  -16575.12927293 Ry
     estimated scf accuracy    <       0.00000002 Ry

     total magnetization       =     0.54 Bohr mag/cell
     absolute magnetization    =     1.39 Bohr mag/cell

     iteration #164     ecut=    60.00 Ry     beta= 0.20
     Davidson diagonalization with overlap
     ethr =  1.86E-12,  avg # of iterations =  2.5

     negative rho (up, down):  3.148E-03 3.138E-03

     total cpu time spent up to now is    32812.1 secs

     total energy              =  -16575.12927304 Ry
     estimated scf accuracy    <       0.00000002 Ry

     total magnetization       =     0.54 Bohr mag/cell
     absolute magnetization    =     1.40 Bohr mag/cell

     iteration #165     ecut=    60.00 Ry     beta= 0.20
     Davidson diagonalization with overlap
     ethr =  1.86E-12,  avg # of iterations =  2.0

     negative rho (up, down):  3.149E-03 3.140E-03

     total cpu time spent up to now is    32998.8 secs

     total energy              =  -16575.12927301 Ry
     estimated scf accuracy    <       0.00000002 Ry

     total magnetization       =     0.54 Bohr mag/cell
     absolute magnetization    =     1.40 Bohr mag/cell

     iteration #166     ecut=    60.00 Ry     beta= 0.20
     Davidson diagonalization with overlap
     ethr =  1.86E-12,  avg # of iterations =  2.0

     negative rho (up, down):  3.149E-03 3.139E-03

     total cpu time spent up to now is    33196.8 secs

     total energy              =  -16575.12927304 Ry
     estimated scf accuracy    <       0.00000002 Ry

     total magnetization       =     0.54 Bohr mag/cell
     absolute magnetization    =     1.40 Bohr mag/cell

     iteration #167     ecut=    60.00 Ry     beta= 0.20
     Davidson diagonalization with overlap
     ethr =  1.86E-12,  avg # of iterations =  1.1

     negative rho (up, down):  3.149E-03 3.140E-03

     total cpu time spent up to now is    33365.0 secs

     total energy              =  -16575.12927305 Ry
     estimated scf accuracy    <       0.00000002 Ry

     total magnetization       =     0.54 Bohr mag/cell
     absolute magnetization    =     1.40 Bohr mag/cell

     iteration #168     ecut=    60.00 Ry     beta= 0.20
     Davidson diagonalization with overlap
     ethr =  1.86E-12,  avg # of iterations =  1.1

     negative rho (up, down):  3.149E-03 3.140E-03

     total cpu time spent up to now is    33535.0 secs

     total energy              =  -16575.12927296 Ry
     estimated scf accuracy    <       0.00000002 Ry

     total magnetization       =     0.54 Bohr mag/cell
     absolute magnetization    =     1.40 Bohr mag/cell

     iteration #169     ecut=    60.00 Ry     beta= 0.20
     Davidson diagonalization with overlap
     ethr =  1.86E-12,  avg # of iterations =  2.0

     negative rho (up, down):  3.148E-03 3.139E-03

     total cpu time spent up to now is    33748.0 secs

     total energy              =  -16575.12927297 Ry
     estimated scf accuracy    <       0.00000002 Ry

     total magnetization       =     0.54 Bohr mag/cell
     absolute magnetization    =     1.39 Bohr mag/cell

     iteration #170     ecut=    60.00 Ry     beta= 0.20
     Davidson diagonalization with overlap
     ethr =  1.86E-12,  avg # of iterations =  2.0

     negative rho (up, down):  3.146E-03 3.137E-03

     total cpu time spent up to now is    33950.5 secs

     total energy              =  -16575.12927302 Ry
     estimated scf accuracy    <       0.00000002 Ry

     total magnetization       =     0.54 Bohr mag/cell
     absolute magnetization    =     1.40 Bohr mag/cell

     iteration #171     ecut=    60.00 Ry     beta= 0.20
     Davidson diagonalization with overlap
     ethr =  1.86E-12,  avg # of iterations =  2.0

     negative rho (up, down):  3.146E-03 3.137E-03

     total cpu time spent up to now is    34150.0 secs

     total energy              =  -16575.12927300 Ry
     estimated scf accuracy    <       0.00000002 Ry

     total magnetization       =     0.54 Bohr mag/cell
     absolute magnetization    =     1.40 Bohr mag/cell

     iteration #172     ecut=    60.00 Ry     beta= 0.20
     Davidson diagonalization with overlap
     ethr =  1.86E-12,  avg # of iterations =  2.0

     negative rho (up, down):  3.149E-03 3.139E-03

     total cpu time spent up to now is    34339.3 secs

     total energy              =  -16575.12927301 Ry
     estimated scf accuracy    <       0.00000002 Ry

     total magnetization       =     0.54 Bohr mag/cell
     absolute magnetization    =     1.40 Bohr mag/cell

     iteration #173     ecut=    60.00 Ry     beta= 0.20
     Davidson diagonalization with overlap
     ethr =  1.86E-12,  avg # of iterations =  2.0

     negative rho (up, down):  3.152E-03 3.143E-03

     total cpu time spent up to now is    34550.6 secs

     total energy              =  -16575.12927285 Ry
     estimated scf accuracy    <       0.00000002 Ry

     total magnetization       =     0.54 Bohr mag/cell
     absolute magnetization    =     1.40 Bohr mag/cell

     iteration #174     ecut=    60.00 Ry     beta= 0.20
     Davidson diagonalization with overlap
     ethr =  1.86E-12,  avg # of iterations =  2.9

     negative rho (up, down):  3.152E-03 3.143E-03

     total cpu time spent up to now is    34801.4 secs

     total energy              =  -16575.12927299 Ry
     estimated scf accuracy    <       0.00000002 Ry

     total magnetization       =     0.54 Bohr mag/cell
     absolute magnetization    =     1.39 Bohr mag/cell

     iteration #175     ecut=    60.00 Ry     beta= 0.20
     Davidson diagonalization with overlap
     ethr =  1.86E-12,  avg # of iterations =  2.0

     negative rho (up, down):  3.149E-03 3.140E-03

     total cpu time spent up to now is    34998.7 secs

     total energy              =  -16575.12927297 Ry
     estimated scf accuracy    <       0.00000002 Ry

     total magnetization       =     0.54 Bohr mag/cell
     absolute magnetization    =     1.39 Bohr mag/cell

     iteration #176     ecut=    60.00 Ry     beta= 0.20
     Davidson diagonalization with overlap
     ethr =  1.86E-12,  avg # of iterations =  2.0

     negative rho (up, down):  3.152E-03 3.143E-03

     total cpu time spent up to now is    35197.0 secs

     total energy              =  -16575.12927304 Ry
     estimated scf accuracy    <       0.00000002 Ry

     total magnetization       =     0.54 Bohr mag/cell
     absolute magnetization    =     1.40 Bohr mag/cell

     iteration #177     ecut=    60.00 Ry     beta= 0.20
     Davidson diagonalization with overlap
     ethr =  1.86E-12,  avg # of iterations =  2.0

     negative rho (up, down):  3.148E-03 3.139E-03

     total cpu time spent up to now is    35392.2 secs

     total energy              =  -16575.12927292 Ry
     estimated scf accuracy    <       0.00000002 Ry

     total magnetization       =     0.54 Bohr mag/cell
     absolute magnetization    =     1.40 Bohr mag/cell

     iteration #178     ecut=    60.00 Ry     beta= 0.20
     Davidson diagonalization with overlap
     ethr =  1.86E-12,  avg # of iterations =  2.0

     negative rho (up, down):  3.149E-03 3.140E-03

     total cpu time spent up to now is    35605.6 secs

     total energy              =  -16575.12927294 Ry
     estimated scf accuracy    <       0.00000002 Ry

     total magnetization       =     0.54 Bohr mag/cell
     absolute magnetization    =     1.39 Bohr mag/cell

     iteration #179     ecut=    60.00 Ry     beta= 0.20
     Davidson diagonalization with overlap
     ethr =  1.86E-12,  avg # of iterations =  2.0

     negative rho (up, down):  3.150E-03 3.141E-03

     total cpu time spent up to now is    35828.8 secs

     total energy              =  -16575.12927302 Ry
     estimated scf accuracy    <       0.00000002 Ry

     total magnetization       =     0.54 Bohr mag/cell
     absolute magnetization    =     1.40 Bohr mag/cell

     iteration #180     ecut=    60.00 Ry     beta= 0.20
     Davidson diagonalization with overlap
     ethr =  1.86E-12,  avg # of iterations =  2.0

     negative rho (up, down):  3.148E-03 3.139E-03

     total cpu time spent up to now is    36015.0 secs

     total energy              =  -16575.12927301 Ry
     estimated scf accuracy    <       0.00000002 Ry

     total magnetization       =     0.54 Bohr mag/cell
     absolute magnetization    =     1.40 Bohr mag/cell

     iteration #181     ecut=    60.00 Ry     beta= 0.20
     Davidson diagonalization with overlap
     ethr =  1.86E-12,  avg # of iterations =  2.0

     negative rho (up, down):  3.149E-03 3.139E-03

     total cpu time spent up to now is    36202.6 secs

     total energy              =  -16575.12927301 Ry
     estimated scf accuracy    <       0.00000002 Ry

     total magnetization       =     0.54 Bohr mag/cell
     absolute magnetization    =     1.40 Bohr mag/cell

     iteration #182     ecut=    60.00 Ry     beta= 0.20
     Davidson diagonalization with overlap
     ethr =  1.86E-12,  avg # of iterations =  1.7

     negative rho (up, down):  3.148E-03 3.139E-03

     total cpu time spent up to now is    36383.0 secs

     total energy              =  -16575.12927300 Ry
     estimated scf accuracy    <       0.00000002 Ry

     total magnetization       =     0.54 Bohr mag/cell
     absolute magnetization    =     1.40 Bohr mag/cell

     iteration #183     ecut=    60.00 Ry     beta= 0.20
     Davidson diagonalization with overlap
     ethr =  1.86E-12,  avg # of iterations =  1.1

     negative rho (up, down):  3.149E-03 3.140E-03

     total cpu time spent up to now is    36550.8 secs

     total energy              =  -16575.12927296 Ry
     estimated scf accuracy    <       0.00000002 Ry

     total magnetization       =     0.54 Bohr mag/cell
     absolute magnetization    =     1.40 Bohr mag/cell

     iteration #184     ecut=    60.00 Ry     beta= 0.20
     Davidson diagonalization with overlap
     ethr =  1.86E-12,  avg # of iterations =  2.0

     negative rho (up, down):  3.149E-03 3.140E-03

     total cpu time spent up to now is    36757.0 secs

     total energy              =  -16575.12927302 Ry
     estimated scf accuracy    <       0.00000002 Ry

     total magnetization       =     0.54 Bohr mag/cell
     absolute magnetization    =     1.40 Bohr mag/cell

     iteration #185     ecut=    60.00 Ry     beta= 0.20
     Davidson diagonalization with overlap
     ethr =  1.86E-12,  avg # of iterations =  2.0

     negative rho (up, down):  3.149E-03 3.140E-03

     total cpu time spent up to now is    36945.7 secs

     total energy              =  -16575.12927301 Ry
     estimated scf accuracy    <       0.00000002 Ry

     total magnetization       =     0.54 Bohr mag/cell
     absolute magnetization    =     1.40 Bohr mag/cell

     iteration #186     ecut=    60.00 Ry     beta= 0.20
     Davidson diagonalization with overlap
     ethr =  1.86E-12,  avg # of iterations =  2.0

     negative rho (up, down):  3.151E-03 3.142E-03

     total cpu time spent up to now is    37136.1 secs

     total energy              =  -16575.12927304 Ry
     estimated scf accuracy    <       0.00000002 Ry

     total magnetization       =     0.54 Bohr mag/cell
     absolute magnetization    =     1.40 Bohr mag/cell

     iteration #187     ecut=    60.00 Ry     beta= 0.20
     Davidson diagonalization with overlap
     ethr =  1.86E-12,  avg # of iterations =  1.8

     negative rho (up, down):  3.148E-03 3.138E-03

     total cpu time spent up to now is    37318.8 secs

     total energy              =  -16575.12927299 Ry
     estimated scf accuracy    <       0.00000002 Ry

     total magnetization       =     0.54 Bohr mag/cell
     absolute magnetization    =     1.40 Bohr mag/cell

     iteration #188     ecut=    60.00 Ry     beta= 0.20
     Davidson diagonalization with overlap
     ethr =  1.86E-12,  avg # of iterations =  2.0

     negative rho (up, down):  3.147E-03 3.137E-03

     total cpu time spent up to now is    37508.7 secs

     total energy              =  -16575.12927288 Ry
     estimated scf accuracy    <       0.00000002 Ry

     total magnetization       =     0.54 Bohr mag/cell
     absolute magnetization    =     1.40 Bohr mag/cell

     iteration #189     ecut=    60.00 Ry     beta= 0.20
     Davidson diagonalization with overlap
     ethr =  1.86E-12,  avg # of iterations =  2.0

     negative rho (up, down):  3.146E-03 3.137E-03

     total cpu time spent up to now is    37735.1 secs

     total energy              =  -16575.12927297 Ry
     estimated scf accuracy    <       0.00000002 Ry

     total magnetization       =     0.54 Bohr mag/cell
     absolute magnetization    =     1.39 Bohr mag/cell

     iteration #190     ecut=    60.00 Ry     beta= 0.20
     Davidson diagonalization with overlap
     ethr =  1.86E-12,  avg # of iterations =  1.0

     negative rho (up, down):  3.143E-03 3.133E-03

     total cpu time spent up to now is    37902.5 secs

     total energy              =  -16575.12927295 Ry
     estimated scf accuracy    <       0.00000002 Ry

     total magnetization       =     0.54 Bohr mag/cell
     absolute magnetization    =     1.39 Bohr mag/cell

     iteration #191     ecut=    60.00 Ry     beta= 0.20
     Davidson diagonalization with overlap
     ethr =  1.86E-12,  avg # of iterations =  1.0

     negative rho (up, down):  3.145E-03 3.136E-03

     total cpu time spent up to now is    38069.6 secs

     total energy              =  -16575.12927296 Ry
     estimated scf accuracy    <       0.00000002 Ry

     total magnetization       =     0.54 Bohr mag/cell
     absolute magnetization    =     1.39 Bohr mag/cell

     iteration #192     ecut=    60.00 Ry     beta= 0.20
     Davidson diagonalization with overlap
     ethr =  1.86E-12,  avg # of iterations =  1.6

     negative rho (up, down):  3.145E-03 3.136E-03

     total cpu time spent up to now is    38249.1 secs

     total energy              =  -16575.12927290 Ry
     estimated scf accuracy    <       0.00000002 Ry

     total magnetization       =     0.54 Bohr mag/cell
     absolute magnetization    =     1.40 Bohr mag/cell

     iteration #193     ecut=    60.00 Ry     beta= 0.20
     Davidson diagonalization with overlap
     ethr =  1.86E-12,  avg # of iterations =  2.6

     negative rho (up, down):  3.143E-03 3.134E-03

     total cpu time spent up to now is    38481.6 secs

     total energy              =  -16575.12927293 Ry
     estimated scf accuracy    <       0.00000002 Ry

     total magnetization       =     0.54 Bohr mag/cell
     absolute magnetization    =     1.39 Bohr mag/cell

     iteration #194     ecut=    60.00 Ry     beta= 0.20
     Davidson diagonalization with overlap
     ethr =  1.86E-12,  avg # of iterations =  2.0

     negative rho (up, down):  3.145E-03 3.135E-03

     total cpu time spent up to now is    38679.1 secs

     total energy              =  -16575.12927297 Ry
     estimated scf accuracy    <       0.00000002 Ry

     total magnetization       =     0.54 Bohr mag/cell
     absolute magnetization    =     1.39 Bohr mag/cell

     iteration #195     ecut=    60.00 Ry     beta= 0.20
     Davidson diagonalization with overlap
     ethr =  1.86E-12,  avg # of iterations =  2.0

     negative rho (up, down):  3.145E-03 3.136E-03

     total cpu time spent up to now is    38902.2 secs

     total energy              =  -16575.12927305 Ry
     estimated scf accuracy    <       0.00000002 Ry

     total magnetization       =     0.54 Bohr mag/cell
     absolute magnetization    =     1.40 Bohr mag/cell

     iteration #196     ecut=    60.00 Ry     beta= 0.20
     Davidson diagonalization with overlap
     ethr =  1.86E-12,  avg # of iterations =  2.0

     negative rho (up, down):  3.147E-03 3.138E-03

     total cpu time spent up to now is    39087.7 secs

     total energy              =  -16575.12927301 Ry
     estimated scf accuracy    <       0.00000002 Ry

     total magnetization       =     0.54 Bohr mag/cell
     absolute magnetization    =     1.40 Bohr mag/cell

     iteration #197     ecut=    60.00 Ry     beta= 0.20
     Davidson diagonalization with overlap
     ethr =  1.86E-12,  avg # of iterations =  2.0

     negative rho (up, down):  3.141E-03 3.132E-03

     total cpu time spent up to now is    39295.8 secs

     total energy              =  -16575.12927293 Ry
     estimated scf accuracy    <       0.00000002 Ry

     total magnetization       =     0.54 Bohr mag/cell
     absolute magnetization    =     1.40 Bohr mag/cell

     iteration #198     ecut=    60.00 Ry     beta= 0.20
     Davidson diagonalization with overlap
     ethr =  1.86E-12,  avg # of iterations =  2.0

     negative rho (up, down):  3.141E-03 3.131E-03

     total cpu time spent up to now is    39494.2 secs

     total energy              =  -16575.12927298 Ry
     estimated scf accuracy    <       0.00000002 Ry

     total magnetization       =     0.54 Bohr mag/cell
     absolute magnetization    =     1.40 Bohr mag/cell

     iteration #199     ecut=    60.00 Ry     beta= 0.20
     Davidson diagonalization with overlap
     ethr =  1.86E-12,  avg # of iterations =  1.9

     negative rho (up, down):  3.138E-03 3.128E-03

     total cpu time spent up to now is    39679.2 secs

     total energy              =  -16575.12927290 Ry
     estimated scf accuracy    <       0.00000002 Ry

     total magnetization       =     0.54 Bohr mag/cell
     absolute magnetization    =     1.40 Bohr mag/cell

     iteration #200     ecut=    60.00 Ry     beta= 0.20
     Davidson diagonalization with overlap
     ethr =  1.86E-12,  avg # of iterations =  2.0

     negative rho (up, down):  3.146E-03 3.137E-03

     total cpu time spent up to now is    39869.2 secs

     total energy              =  -16575.12927295 Ry
     estimated scf accuracy    <       0.00000002 Ry

     total magnetization       =     0.54 Bohr mag/cell
     absolute magnetization    =     1.40 Bohr mag/cell

     iteration #201     ecut=    60.00 Ry     beta= 0.20
     Davidson diagonalization with overlap
     ethr =  1.86E-12,  avg # of iterations =  2.0

     negative rho (up, down):  3.143E-03 3.134E-03

     total cpu time spent up to now is    40061.5 secs

     total energy              =  -16575.12927295 Ry
     estimated scf accuracy    <       0.00000002 Ry

     total magnetization       =     0.54 Bohr mag/cell
     absolute magnetization    =     1.39 Bohr mag/cell

     iteration #202     ecut=    60.00 Ry     beta= 0.20
     Davidson diagonalization with overlap
     ethr =  1.86E-12,  avg # of iterations =  2.0

     negative rho (up, down):  3.144E-03 3.134E-03

     total cpu time spent up to now is    40271.6 secs

     total energy              =  -16575.12927297 Ry
     estimated scf accuracy    <       0.00000002 Ry

     total magnetization       =     0.54 Bohr mag/cell
     absolute magnetization    =     1.40 Bohr mag/cell

     iteration #203     ecut=    60.00 Ry     beta= 0.20
     Davidson diagonalization with overlap
     ethr =  1.86E-12,  avg # of iterations =  2.0

     negative rho (up, down):  3.144E-03 3.135E-03

     total cpu time spent up to now is    40460.0 secs

     total energy              =  -16575.12927297 Ry
     estimated scf accuracy    <       0.00000002 Ry

     total magnetization       =     0.54 Bohr mag/cell
     absolute magnetization    =     1.40 Bohr mag/cell

     iteration #204     ecut=    60.00 Ry     beta= 0.20
     Davidson diagonalization with overlap
     ethr =  1.86E-12,  avg # of iterations =  2.2

     negative rho (up, down):  3.143E-03 3.134E-03

     total cpu time spent up to now is    40682.8 secs

     total energy              =  -16575.12927243 Ry
     estimated scf accuracy    <       0.00000002 Ry

     total magnetization       =     0.54 Bohr mag/cell
     absolute magnetization    =     1.40 Bohr mag/cell

     iteration #205     ecut=    60.00 Ry     beta= 0.20
     Davidson diagonalization with overlap
     ethr =  1.86E-12,  avg # of iterations =  3.5

     negative rho (up, down):  3.141E-03 3.132E-03

     total cpu time spent up to now is    40939.2 secs

     total energy              =  -16575.12927288 Ry
     estimated scf accuracy    <       0.00000002 Ry

     total magnetization       =     0.54 Bohr mag/cell
     absolute magnetization    =     1.39 Bohr mag/cell

     iteration #206     ecut=    60.00 Ry     beta= 0.20
     Davidson diagonalization with overlap
     ethr =  1.84E-12,  avg # of iterations =  1.6

     negative rho (up, down):  3.137E-03 3.128E-03

     total cpu time spent up to now is    41118.1 secs

     total energy              =  -16575.12927273 Ry
     estimated scf accuracy    <       0.00000002 Ry

     total magnetization       =     0.54 Bohr mag/cell
     absolute magnetization    =     1.39 Bohr mag/cell

     iteration #207     ecut=    60.00 Ry     beta= 0.20
     Davidson diagonalization with overlap
     ethr =  1.82E-12,  avg # of iterations =  2.0

     negative rho (up, down):  3.140E-03 3.131E-03

     total cpu time spent up to now is    41340.2 secs

     total energy              =  -16575.12927280 Ry
     estimated scf accuracy    <       0.00000002 Ry

     total magnetization       =     0.54 Bohr mag/cell
     absolute magnetization    =     1.39 Bohr mag/cell

     iteration #208     ecut=    60.00 Ry     beta= 0.20
     Davidson diagonalization with overlap
     ethr =  1.82E-12,  avg # of iterations =  2.0

     negative rho (up, down):  3.141E-03 3.132E-03

     total cpu time spent up to now is    41557.2 secs

     total energy              =  -16575.12927284 Ry
     estimated scf accuracy    <       0.00000002 Ry

     total magnetization       =     0.54 Bohr mag/cell
     absolute magnetization    =     1.39 Bohr mag/cell

     iteration #209     ecut=    60.00 Ry     beta= 0.20
     Davidson diagonalization with overlap
     ethr =  1.82E-12,  avg # of iterations =  2.0

     negative rho (up, down):  3.143E-03 3.134E-03

     total cpu time spent up to now is    41747.7 secs

     total energy              =  -16575.12927289 Ry
     estimated scf accuracy    <       0.00000002 Ry

     total magnetization       =     0.54 Bohr mag/cell
     absolute magnetization    =     1.39 Bohr mag/cell

     iteration #210     ecut=    60.00 Ry     beta= 0.20
     Davidson diagonalization with overlap
     ethr =  1.82E-12,  avg # of iterations =  2.0

     negative rho (up, down):  3.140E-03 3.131E-03

     total cpu time spent up to now is    41936.5 secs

     total energy              =  -16575.12927288 Ry
     estimated scf accuracy    <       0.00000002 Ry

     total magnetization       =     0.54 Bohr mag/cell
     absolute magnetization    =     1.39 Bohr mag/cell

     iteration #211     ecut=    60.00 Ry     beta= 0.20
     Davidson diagonalization with overlap
     ethr =  1.82E-12,  avg # of iterations =  2.0

     negative rho (up, down):  3.142E-03 3.132E-03

     total cpu time spent up to now is    42125.7 secs

     total energy              =  -16575.12927286 Ry
     estimated scf accuracy    <       0.00000002 Ry

     total magnetization       =     0.54 Bohr mag/cell
     absolute magnetization    =     1.39 Bohr mag/cell

     iteration #212     ecut=    60.00 Ry     beta= 0.20
     Davidson diagonalization with overlap
     ethr =  1.82E-12,  avg # of iterations =  2.0

     negative rho (up, down):  3.144E-03 3.135E-03

     total cpu time spent up to now is    42316.1 secs

     total energy              =  -16575.12927284 Ry
     estimated scf accuracy    <       0.00000002 Ry

     total magnetization       =     0.54 Bohr mag/cell
     absolute magnetization    =     1.39 Bohr mag/cell

     iteration #213     ecut=    60.00 Ry     beta= 0.20
     Davidson diagonalization with overlap
     ethr =  1.80E-12,  avg # of iterations =  2.0

     negative rho (up, down):  3.145E-03 3.135E-03

     total cpu time spent up to now is    42510.0 secs

     total energy              =  -16575.12927286 Ry
     estimated scf accuracy    <       0.00000002 Ry

     total magnetization       =     0.54 Bohr mag/cell
     absolute magnetization    =     1.39 Bohr mag/cell

     iteration #214     ecut=    60.00 Ry     beta= 0.20
     Davidson diagonalization with overlap
     ethr =  1.77E-12,  avg # of iterations =  1.6

     negative rho (up, down):  3.145E-03 3.136E-03

     total cpu time spent up to now is    42691.0 secs

     total energy              =  -16575.12927282 Ry
     estimated scf accuracy    <       0.00000002 Ry

     total magnetization       =     0.54 Bohr mag/cell
     absolute magnetization    =     1.39 Bohr mag/cell

     iteration #215     ecut=    60.00 Ry     beta= 0.20
     Davidson diagonalization with overlap
     ethr =  1.75E-12,  avg # of iterations =  2.0

     negative rho (up, down):  3.145E-03 3.136E-03

     total cpu time spent up to now is    42915.0 secs

     total energy              =  -16575.12927291 Ry
     estimated scf accuracy    <       0.00000002 Ry

     total magnetization       =     0.54 Bohr mag/cell
     absolute magnetization    =     1.39 Bohr mag/cell

     iteration #216     ecut=    60.00 Ry     beta= 0.20
     Davidson diagonalization with overlap
     ethr =  1.71E-12,  avg # of iterations =  1.0

     negative rho (up, down):  3.145E-03 3.136E-03

     total cpu time spent up to now is    43083.9 secs

     total energy              =  -16575.12927291 Ry
     estimated scf accuracy    <       0.00000002 Ry

     total magnetization       =     0.54 Bohr mag/cell
     absolute magnetization    =     1.39 Bohr mag/cell

     iteration #217     ecut=    60.00 Ry     beta= 0.20
     Davidson diagonalization with overlap
     ethr =  1.71E-12,  avg # of iterations =  1.0

     negative rho (up, down):  3.149E-03 3.140E-03

     total cpu time spent up to now is    43251.1 secs

     total energy              =  -16575.12927286 Ry
     estimated scf accuracy    <       0.00000002 Ry

     total magnetization       =     0.54 Bohr mag/cell
     absolute magnetization    =     1.39 Bohr mag/cell

     iteration #218     ecut=    60.00 Ry     beta= 0.20
     Davidson diagonalization with overlap
     ethr =  1.71E-12,  avg # of iterations =  3.5

     negative rho (up, down):  3.154E-03 3.144E-03

     total cpu time spent up to now is    43499.7 secs

     total energy              =  -16575.12927296 Ry
     estimated scf accuracy    <       0.00000002 Ry

     total magnetization       =     0.54 Bohr mag/cell
     absolute magnetization    =     1.40 Bohr mag/cell

     iteration #219     ecut=    60.00 Ry     beta= 0.20
     Davidson diagonalization with overlap
     ethr =  1.67E-12,  avg # of iterations =  4.0

     negative rho (up, down):  3.154E-03 3.144E-03

     total cpu time spent up to now is    43753.1 secs

     total energy              =  -16575.12927311 Ry
     estimated scf accuracy    <       0.00000002 Ry

     total magnetization       =     0.55 Bohr mag/cell
     absolute magnetization    =     1.40 Bohr mag/cell

     iteration #220     ecut=    60.00 Ry     beta= 0.20
     Davidson diagonalization with overlap
     ethr =  1.65E-12,  avg # of iterations =  2.0

     negative rho (up, down):  3.148E-03 3.139E-03

     total cpu time spent up to now is    43943.2 secs

     total energy              =  -16575.12927298 Ry
     estimated scf accuracy    <       0.00000002 Ry

     total magnetization       =     0.54 Bohr mag/cell
     absolute magnetization    =     1.40 Bohr mag/cell

     iteration #221     ecut=    60.00 Ry     beta= 0.20
     Davidson diagonalization with overlap
     ethr =  1.65E-12,  avg # of iterations =  2.8

     negative rho (up, down):  3.148E-03 3.139E-03

     total cpu time spent up to now is    44178.5 secs

     total energy              =  -16575.12927310 Ry
     estimated scf accuracy    <       0.00000002 Ry

     total magnetization       =     0.55 Bohr mag/cell
     absolute magnetization    =     1.40 Bohr mag/cell

     iteration #222     ecut=    60.00 Ry     beta= 0.20
     Davidson diagonalization with overlap
     ethr =  1.65E-12,  avg # of iterations =  1.9

     negative rho (up, down):  3.149E-03 3.139E-03

     total cpu time spent up to now is    44361.2 secs

     total energy              =  -16575.12927305 Ry
     estimated scf accuracy    <       0.00000002 Ry

     total magnetization       =     0.55 Bohr mag/cell
     absolute magnetization    =     1.40 Bohr mag/cell

     iteration #223     ecut=    60.00 Ry     beta= 0.20
     Davidson diagonalization with overlap
     ethr =  1.65E-12,  avg # of iterations =  2.0

     negative rho (up, down):  3.148E-03 3.139E-03

     total cpu time spent up to now is    44557.8 secs

     total energy              =  -16575.12927281 Ry
     estimated scf accuracy    <       0.00000002 Ry

     total magnetization       =     0.55 Bohr mag/cell
     absolute magnetization    =     1.40 Bohr mag/cell

     iteration #224     ecut=    60.00 Ry     beta= 0.20
     Davidson diagonalization with overlap
     ethr =  1.65E-12,  avg # of iterations =  3.1

     negative rho (up, down):  3.148E-03 3.139E-03

     total cpu time spent up to now is    44806.9 secs

     total energy              =  -16575.12927296 Ry
     estimated scf accuracy    <       0.00000002 Ry

     total magnetization       =     0.55 Bohr mag/cell
     absolute magnetization    =     1.40 Bohr mag/cell

     iteration #225     ecut=    60.00 Ry     beta= 0.20
     Davidson diagonalization with overlap
     ethr =  1.63E-12,  avg # of iterations =  2.0

     negative rho (up, down):  3.148E-03 3.138E-03

     total cpu time spent up to now is    45003.1 secs

     total energy              =  -16575.12927299 Ry
     estimated scf accuracy    <       0.00000002 Ry

     total magnetization       =     0.54 Bohr mag/cell
     absolute magnetization    =     1.40 Bohr mag/cell

     iteration #226     ecut=    60.00 Ry     beta= 0.20
     Davidson diagonalization with overlap
     ethr =  1.59E-12,  avg # of iterations =  2.0

     negative rho (up, down):  3.148E-03 3.139E-03

     total cpu time spent up to now is    45191.0 secs

     total energy              =  -16575.12927300 Ry
     estimated scf accuracy    <       0.00000002 Ry

     total magnetization       =     0.54 Bohr mag/cell
     absolute magnetization    =     1.40 Bohr mag/cell

     iteration #227     ecut=    60.00 Ry     beta= 0.20
     Davidson diagonalization with overlap
     ethr =  1.57E-12,  avg # of iterations =  1.0

     negative rho (up, down):  3.150E-03 3.141E-03

     total cpu time spent up to now is    45359.1 secs

     total energy              =  -16575.12927302 Ry
     estimated scf accuracy    <       0.00000002 Ry

     total magnetization       =     0.54 Bohr mag/cell
     absolute magnetization    =     1.40 Bohr mag/cell

     iteration #228     ecut=    60.00 Ry     beta= 0.20
     Davidson diagonalization with overlap
     ethr =  1.56E-12,  avg # of iterations =  2.0

     negative rho (up, down):  3.151E-03 3.142E-03

     total cpu time spent up to now is    45563.0 secs

     total energy              =  -16575.12927307 Ry
     estimated scf accuracy    <       0.00000002 Ry

     total magnetization       =     0.55 Bohr mag/cell
     absolute magnetization    =     1.40 Bohr mag/cell

     iteration #229     ecut=    60.00 Ry     beta= 0.20
     Davidson diagonalization with overlap
     ethr =  1.53E-12,  avg # of iterations =  2.0

     negative rho (up, down):  3.155E-03 3.145E-03

     total cpu time spent up to now is    45749.9 secs

     total energy              =  -16575.12927305 Ry
     estimated scf accuracy    <       0.00000002 Ry

     total magnetization       =     0.55 Bohr mag/cell
     absolute magnetization    =     1.40 Bohr mag/cell

     iteration #230     ecut=    60.00 Ry     beta= 0.20
     Davidson diagonalization with overlap
     ethr =  1.49E-12,  avg # of iterations =  3.2

     negative rho (up, down):  3.154E-03 3.144E-03

     total cpu time spent up to now is    45986.7 secs

     total energy              =  -16575.12927301 Ry
     estimated scf accuracy    <       0.00000002 Ry

     total magnetization       =     0.55 Bohr mag/cell
     absolute magnetization    =     1.40 Bohr mag/cell

     iteration #231     ecut=    60.00 Ry     beta= 0.20
     Davidson diagonalization with overlap
     ethr =  1.39E-12,  avg # of iterations =  3.0

     negative rho (up, down):  3.152E-03 3.143E-03

     total cpu time spent up to now is    46226.8 secs

     total energy              =  -16575.12927304 Ry
     estimated scf accuracy    <       0.00000001 Ry

     total magnetization       =     0.55 Bohr mag/cell
     absolute magnetization    =     1.40 Bohr mag/cell

     iteration #232     ecut=    60.00 Ry     beta= 0.20
     Davidson diagonalization with overlap
     ethr =  1.28E-12,  avg # of iterations =  2.3

     negative rho (up, down):  3.151E-03 3.142E-03

     total cpu time spent up to now is    46442.8 secs

     total energy              =  -16575.12927307 Ry
     estimated scf accuracy    <       0.00000001 Ry

     total magnetization       =     0.55 Bohr mag/cell
     absolute magnetization    =     1.40 Bohr mag/cell

     iteration #233     ecut=    60.00 Ry     beta= 0.20
     Davidson diagonalization with overlap
     ethr =  1.23E-12,  avg # of iterations =  2.0

     negative rho (up, down):  3.149E-03 3.140E-03

     total cpu time spent up to now is    46637.5 secs

     total energy              =  -16575.12927303 Ry
     estimated scf accuracy    <       0.00000001 Ry

     total magnetization       =     0.55 Bohr mag/cell
     absolute magnetization    =     1.40 Bohr mag/cell

     iteration #234     ecut=    60.00 Ry     beta= 0.20
     Davidson diagonalization with overlap
     ethr =  1.16E-12,  avg # of iterations =  2.4

     negative rho (up, down):  3.147E-03 3.138E-03

     total cpu time spent up to now is    46850.5 secs

     total energy              =  -16575.12927299 Ry
     estimated scf accuracy    <       0.00000001 Ry

     total magnetization       =     0.55 Bohr mag/cell
     absolute magnetization    =     1.40 Bohr mag/cell

     iteration #235     ecut=    60.00 Ry     beta= 0.20
     Davidson diagonalization with overlap
     ethr =  1.13E-12,  avg # of iterations =  4.0

     negative rho (up, down):  3.147E-03 3.137E-03

     total cpu time spent up to now is    47092.7 secs

     total energy              =  -16575.12927305 Ry
     estimated scf accuracy    <       0.00000001 Ry

     total magnetization       =     0.55 Bohr mag/cell
     absolute magnetization    =     1.40 Bohr mag/cell

     iteration #236     ecut=    60.00 Ry     beta= 0.20
     Davidson diagonalization with overlap
     ethr =  1.09E-12,  avg # of iterations =  1.1

     negative rho (up, down):  3.147E-03 3.137E-03

     total cpu time spent up to now is    47262.9 secs

     total energy              =  -16575.12927305 Ry
     estimated scf accuracy    <       0.00000001 Ry

     total magnetization       =     0.55 Bohr mag/cell
     absolute magnetization    =     1.40 Bohr mag/cell

     iteration #237     ecut=    60.00 Ry     beta= 0.20
     Davidson diagonalization with overlap
     ethr =  1.07E-12,  avg # of iterations =  2.0

     negative rho (up, down):  3.147E-03 3.138E-03

     total cpu time spent up to now is    47452.0 secs

     total energy              =  -16575.12927308 Ry
     estimated scf accuracy    <       0.00000001 Ry

     total magnetization       =     0.55 Bohr mag/cell
     absolute magnetization    =     1.40 Bohr mag/cell

     iteration #238     ecut=    60.00 Ry     beta= 0.20
     Davidson diagonalization with overlap
     ethr =  1.06E-12,  avg # of iterations =  2.0

     negative rho (up, down):  3.148E-03 3.138E-03

     total cpu time spent up to now is    47641.1 secs

     total energy              =  -16575.12927310 Ry
     estimated scf accuracy    <       0.00000001 Ry

     total magnetization       =     0.55 Bohr mag/cell
     absolute magnetization    =     1.40 Bohr mag/cell

     iteration #239     ecut=    60.00 Ry     beta= 0.20
     Davidson diagonalization with overlap
     ethr =  1.05E-12,  avg # of iterations =  2.0

     negative rho (up, down):  3.147E-03 3.138E-03

     total cpu time spent up to now is    47829.9 secs

     total energy              =  -16575.12927310 Ry
     estimated scf accuracy    <       0.00000001 Ry

     total magnetization       =     0.55 Bohr mag/cell
     absolute magnetization    =     1.40 Bohr mag/cell

     iteration #240     ecut=    60.00 Ry     beta= 0.20
     Davidson diagonalization with overlap
     ethr =  1.05E-12,  avg # of iterations =  1.1

     negative rho (up, down):  3.150E-03 3.141E-03

     total cpu time spent up to now is    47998.6 secs

     total energy              =  -16575.12927303 Ry
     estimated scf accuracy    <       0.00000001 Ry

     total magnetization       =     0.55 Bohr mag/cell
     absolute magnetization    =     1.40 Bohr mag/cell

     iteration #241     ecut=    60.00 Ry     beta= 0.20
     Davidson diagonalization with overlap
     ethr =  1.05E-12,  avg # of iterations =  3.8

     negative rho (up, down):  3.149E-03 3.140E-03

     total cpu time spent up to now is    48251.1 secs

     total energy              =  -16575.12927313 Ry
     estimated scf accuracy    <       0.00000001 Ry

     total magnetization       =     0.55 Bohr mag/cell
     absolute magnetization    =     1.40 Bohr mag/cell

     iteration #242     ecut=    60.00 Ry     beta= 0.20
     Davidson diagonalization with overlap
     ethr =  1.05E-12,  avg # of iterations =  2.0

     negative rho (up, down):  3.148E-03 3.139E-03

     total cpu time spent up to now is    48442.6 secs

     total energy              =  -16575.12927315 Ry
     estimated scf accuracy    <       0.00000001 Ry

     total magnetization       =     0.55 Bohr mag/cell
     absolute magnetization    =     1.40 Bohr mag/cell

     iteration #243     ecut=    60.00 Ry     beta= 0.20
     Davidson diagonalization with overlap
     ethr =  1.05E-12,  avg # of iterations =  1.1

     negative rho (up, down):  3.146E-03 3.137E-03

     total cpu time spent up to now is    48611.2 secs

     total energy              =  -16575.12927311 Ry
     estimated scf accuracy    <       0.00000001 Ry

     total magnetization       =     0.55 Bohr mag/cell
     absolute magnetization    =     1.40 Bohr mag/cell

     iteration #244     ecut=    60.00 Ry     beta= 0.20
     Davidson diagonalization with overlap
     ethr =  1.05E-12,  avg # of iterations =  2.0

     negative rho (up, down):  3.151E-03 3.141E-03

     total cpu time spent up to now is    48800.1 secs

     total energy              =  -16575.12927309 Ry
     estimated scf accuracy    <       0.00000001 Ry

     total magnetization       =     0.55 Bohr mag/cell
     absolute magnetization    =     1.40 Bohr mag/cell

     iteration #245     ecut=    60.00 Ry     beta= 0.20
     Davidson diagonalization with overlap
     ethr =  1.05E-12,  avg # of iterations =  2.7

     negative rho (up, down):  3.151E-03 3.142E-03

     total cpu time spent up to now is    49047.8 secs

     total energy              =  -16575.12927319 Ry
     estimated scf accuracy    <       0.00000001 Ry

     total magnetization       =     0.55 Bohr mag/cell
     absolute magnetization    =     1.40 Bohr mag/cell

     iteration #246     ecut=    60.00 Ry     beta= 0.20
     Davidson diagonalization with overlap
     ethr =  1.05E-12,  avg # of iterations =  1.0

     negative rho (up, down):  3.149E-03 3.139E-03

     total cpu time spent up to now is    49214.8 secs

     total energy              =  -16575.12927301 Ry
     estimated scf accuracy    <       0.00000001 Ry

     total magnetization       =     0.55 Bohr mag/cell
     absolute magnetization    =     1.40 Bohr mag/cell

     iteration #247     ecut=    60.00 Ry     beta= 0.20
     Davidson diagonalization with overlap
     ethr =  1.05E-12,  avg # of iterations =  2.9

     negative rho (up, down):  3.149E-03 3.140E-03

     total cpu time spent up to now is    49460.7 secs

     total energy              =  -16575.12927294 Ry
     estimated scf accuracy    <       0.00000001 Ry

     total magnetization       =     0.55 Bohr mag/cell
     absolute magnetization    =     1.40 Bohr mag/cell

     iteration #248     ecut=    60.00 Ry     beta= 0.20
     Davidson diagonalization with overlap
     ethr =  1.05E-12,  avg # of iterations =  4.0

     negative rho (up, down):  3.148E-03 3.139E-03

     total cpu time spent up to now is    49723.4 secs

     total energy              =  -16575.12927296 Ry
     estimated scf accuracy    <       0.00000001 Ry

     total magnetization       =     0.55 Bohr mag/cell
     absolute magnetization    =     1.40 Bohr mag/cell

     iteration #249     ecut=    60.00 Ry     beta= 0.20
     Davidson diagonalization with overlap
     ethr =  1.05E-12,  avg # of iterations =  3.9

     negative rho (up, down):  3.149E-03 3.140E-03

     total cpu time spent up to now is    49984.8 secs

     total energy              =  -16575.12927316 Ry
     estimated scf accuracy    <       0.00000001 Ry

     total magnetization       =     0.55 Bohr mag/cell
     absolute magnetization    =     1.40 Bohr mag/cell

     iteration #250     ecut=    60.00 Ry     beta= 0.20
     Davidson diagonalization with overlap
     ethr =  1.05E-12,  avg # of iterations =  2.0

     negative rho (up, down):  3.148E-03 3.139E-03

     total cpu time spent up to now is    50183.2 secs

     total energy              =  -16575.12927315 Ry
     estimated scf accuracy    <       0.00000001 Ry

     total magnetization       =     0.55 Bohr mag/cell
     absolute magnetization    =     1.40 Bohr mag/cell

     iteration #251     ecut=    60.00 Ry     beta= 0.20
     Davidson diagonalization with overlap
     ethr =  1.05E-12,  avg # of iterations =  2.0

     negative rho (up, down):  3.149E-03 3.140E-03

     total cpu time spent up to now is    50375.7 secs

     total energy              =  -16575.12927317 Ry
     estimated scf accuracy    <       0.00000001 Ry

     total magnetization       =     0.55 Bohr mag/cell
     absolute magnetization    =     1.40 Bohr mag/cell

     iteration #252     ecut=    60.00 Ry     beta= 0.20
     Davidson diagonalization with overlap
     ethr =  1.05E-12,  avg # of iterations =  2.0

     negative rho (up, down):  3.149E-03 3.140E-03

     total cpu time spent up to now is    50562.2 secs

     total energy              =  -16575.12927318 Ry
     estimated scf accuracy    <       0.00000001 Ry

     total magnetization       =     0.55 Bohr mag/cell
     absolute magnetization    =     1.40 Bohr mag/cell

     iteration #253     ecut=    60.00 Ry     beta= 0.20
     Davidson diagonalization with overlap
     ethr =  1.05E-12,  avg # of iterations =  1.2

     negative rho (up, down):  3.149E-03 3.140E-03

     total cpu time spent up to now is    50733.6 secs

     total energy              =  -16575.12927319 Ry
     estimated scf accuracy    <       0.00000001 Ry

     total magnetization       =     0.55 Bohr mag/cell
     absolute magnetization    =     1.40 Bohr mag/cell

     iteration #254     ecut=    60.00 Ry     beta= 0.20
     Davidson diagonalization with overlap
     ethr =  1.05E-12,  avg # of iterations =  1.6

     negative rho (up, down):  3.149E-03 3.140E-03

     total cpu time spent up to now is    50913.2 secs

     total energy              =  -16575.12927319 Ry
     estimated scf accuracy    <       0.00000001 Ry

     total magnetization       =     0.55 Bohr mag/cell
     absolute magnetization    =     1.40 Bohr mag/cell

     iteration #255     ecut=    60.00 Ry     beta= 0.20
     Davidson diagonalization with overlap
     ethr =  1.05E-12,  avg # of iterations =  1.0

     negative rho (up, down):  3.148E-03 3.138E-03

     total cpu time spent up to now is    51080.3 secs

     total energy              =  -16575.12927318 Ry
     estimated scf accuracy    <       0.00000001 Ry

     total magnetization       =     0.55 Bohr mag/cell
     absolute magnetization    =     1.40 Bohr mag/cell

     iteration #256     ecut=    60.00 Ry     beta= 0.20
     Davidson diagonalization with overlap
     ethr =  1.05E-12,  avg # of iterations =  2.0

     negative rho (up, down):  3.148E-03 3.139E-03

     total cpu time spent up to now is    51270.8 secs

     total energy              =  -16575.12927320 Ry
     estimated scf accuracy    <       0.00000001 Ry

     total magnetization       =     0.55 Bohr mag/cell
     absolute magnetization    =     1.40 Bohr mag/cell

     iteration #257     ecut=    60.00 Ry     beta= 0.20
     Davidson diagonalization with overlap
     ethr =  1.05E-12,  avg # of iterations =  2.0

     negative rho (up, down):  3.149E-03 3.140E-03

     total cpu time spent up to now is    51482.0 secs

     total energy              =  -16575.12927321 Ry
     estimated scf accuracy    <       0.00000001 Ry

     total magnetization       =     0.55 Bohr mag/cell
     absolute magnetization    =     1.40 Bohr mag/cell

     iteration #258     ecut=    60.00 Ry     beta= 0.20
     Davidson diagonalization with overlap
     ethr =  1.05E-12,  avg # of iterations =  2.0

     negative rho (up, down):  3.149E-03 3.139E-03

     total cpu time spent up to now is    51669.9 secs

     total energy              =  -16575.12927320 Ry
     estimated scf accuracy    <       0.00000001 Ry

     total magnetization       =     0.55 Bohr mag/cell
     absolute magnetization    =     1.40 Bohr mag/cell

     iteration #259     ecut=    60.00 Ry     beta= 0.20
     Davidson diagonalization with overlap
     ethr =  1.05E-12,  avg # of iterations =  2.0

     negative rho (up, down):  3.148E-03 3.139E-03

     total cpu time spent up to now is    51858.9 secs

     total energy              =  -16575.12927319 Ry
     estimated scf accuracy    <       0.00000001 Ry

     total magnetization       =     0.55 Bohr mag/cell
     absolute magnetization    =     1.40 Bohr mag/cell

     iteration #260     ecut=    60.00 Ry     beta= 0.20
     Davidson diagonalization with overlap
     ethr =  1.05E-12,  avg # of iterations =  2.0

     negative rho (up, down):  3.149E-03 3.139E-03

     total cpu time spent up to now is    52045.9 secs

     total energy              =  -16575.12927320 Ry
     estimated scf accuracy    <       0.00000001 Ry

     total magnetization       =     0.55 Bohr mag/cell
     absolute magnetization    =     1.40 Bohr mag/cell

     iteration #261     ecut=    60.00 Ry     beta= 0.20
     Davidson diagonalization with overlap
     ethr =  1.05E-12,  avg # of iterations =  1.2

     negative rho (up, down):  3.147E-03 3.138E-03

     total cpu time spent up to now is    52217.0 secs

     total energy              =  -16575.12927319 Ry
     estimated scf accuracy    <       0.00000001 Ry

     total magnetization       =     0.55 Bohr mag/cell
     absolute magnetization    =     1.40 Bohr mag/cell

     iteration #262     ecut=    60.00 Ry     beta= 0.20
     Davidson diagonalization with overlap
     ethr =  1.05E-12,  avg # of iterations =  2.0

     negative rho (up, down):  3.146E-03 3.136E-03

     total cpu time spent up to now is    52404.6 secs

     total energy              =  -16575.12927317 Ry
     estimated scf accuracy    <       0.00000001 Ry

     total magnetization       =     0.55 Bohr mag/cell
     absolute magnetization    =     1.40 Bohr mag/cell

     iteration #263     ecut=    60.00 Ry     beta= 0.20
     Davidson diagonalization with overlap
     ethr =  1.05E-12,  avg # of iterations =  2.0

     negative rho (up, down):  3.146E-03 3.137E-03

     total cpu time spent up to now is    52596.9 secs

     total energy              =  -16575.12927319 Ry
     estimated scf accuracy    <       0.00000001 Ry

     total magnetization       =     0.55 Bohr mag/cell
     absolute magnetization    =     1.40 Bohr mag/cell

     iteration #264     ecut=    60.00 Ry     beta= 0.20
     Davidson diagonalization with overlap
     ethr =  1.05E-12,  avg # of iterations =  2.0

     negative rho (up, down):  3.146E-03 3.136E-03

     total cpu time spent up to now is    52786.4 secs

     total energy              =  -16575.12927318 Ry
     estimated scf accuracy    <       0.00000001 Ry

     total magnetization       =     0.55 Bohr mag/cell
     absolute magnetization    =     1.40 Bohr mag/cell

     iteration #265     ecut=    60.00 Ry     beta= 0.20
     Davidson diagonalization with overlap
     ethr =  1.04E-12,  avg # of iterations =  1.6

     negative rho (up, down):  3.149E-03 3.139E-03

     total cpu time spent up to now is    52966.8 secs

     total energy              =  -16575.12927319 Ry
     estimated scf accuracy    <       0.00000001 Ry

     total magnetization       =     0.55 Bohr mag/cell
     absolute magnetization    =     1.40 Bohr mag/cell

     iteration #266     ecut=    60.00 Ry     beta= 0.20
     Davidson diagonalization with overlap
     ethr =  1.04E-12,  avg # of iterations =  2.2

     negative rho (up, down):  3.148E-03 3.139E-03

     total cpu time spent up to now is    53207.2 secs

     total energy              =  -16575.12927326 Ry
     estimated scf accuracy    <       0.00000001 Ry

     total magnetization       =     0.55 Bohr mag/cell
     absolute magnetization    =     1.41 Bohr mag/cell

     iteration #267     ecut=    60.00 Ry     beta= 0.20
     Davidson diagonalization with overlap
     ethr =  1.04E-12,  avg # of iterations =  1.6

     negative rho (up, down):  3.150E-03 3.141E-03

     total cpu time spent up to now is    53385.8 secs

     total energy              =  -16575.12927301 Ry
     estimated scf accuracy    <       0.00000001 Ry

     total magnetization       =     0.55 Bohr mag/cell
     absolute magnetization    =     1.41 Bohr mag/cell

     iteration #268     ecut=    60.00 Ry     beta= 0.20
     Davidson diagonalization with overlap
     ethr =  1.04E-12,  avg # of iterations =  4.0

     negative rho (up, down):  3.149E-03 3.139E-03

     total cpu time spent up to now is    53641.9 secs

     total energy              =  -16575.12927319 Ry
     estimated scf accuracy    <       0.00000001 Ry

     total magnetization       =     0.55 Bohr mag/cell
     absolute magnetization    =     1.40 Bohr mag/cell

     iteration #269     ecut=    60.00 Ry     beta= 0.20
     Davidson diagonalization with overlap
     ethr =  1.04E-12,  avg # of iterations =  2.0

     negative rho (up, down):  3.146E-03 3.136E-03

     total cpu time spent up to now is    53833.3 secs

     total energy              =  -16575.12927305 Ry
     estimated scf accuracy    <       0.00000001 Ry

     total magnetization       =     0.55 Bohr mag/cell
     absolute magnetization    =     1.40 Bohr mag/cell

     iteration #270     ecut=    60.00 Ry     beta= 0.20
     Davidson diagonalization with overlap
     ethr =  1.04E-12,  avg # of iterations =  2.9

     negative rho (up, down):  3.148E-03 3.139E-03

     total cpu time spent up to now is    54077.0 secs

     total energy              =  -16575.12927305 Ry
     estimated scf accuracy    <       0.00000001 Ry

     total magnetization       =     0.55 Bohr mag/cell
     absolute magnetization    =     1.40 Bohr mag/cell

     iteration #271     ecut=    60.00 Ry     beta= 0.20
     Davidson diagonalization with overlap
     ethr =  1.04E-12,  avg # of iterations =  2.9

     negative rho (up, down):  3.149E-03 3.139E-03

     total cpu time spent up to now is    54324.6 secs

     total energy              =  -16575.12927317 Ry
     estimated scf accuracy    <       0.00000001 Ry

     total magnetization       =     0.55 Bohr mag/cell
     absolute magnetization    =     1.40 Bohr mag/cell

     iteration #272     ecut=    60.00 Ry     beta= 0.20
     Davidson diagonalization with overlap
     ethr =  1.04E-12,  avg # of iterations =  2.0

     negative rho (up, down):  3.148E-03 3.139E-03

     total cpu time spent up to now is    54512.8 secs

     total energy              =  -16575.12927316 Ry
     estimated scf accuracy    <       0.00000001 Ry

     total magnetization       =     0.55 Bohr mag/cell
     absolute magnetization    =     1.40 Bohr mag/cell

     iteration #273     ecut=    60.00 Ry     beta= 0.20
     Davidson diagonalization with overlap
     ethr =  1.04E-12,  avg # of iterations =  2.0

     negative rho (up, down):  3.148E-03 3.139E-03

     total cpu time spent up to now is    54698.9 secs

     total energy              =  -16575.12927317 Ry
     estimated scf accuracy    <       0.00000001 Ry

     total magnetization       =     0.55 Bohr mag/cell
     absolute magnetization    =     1.40 Bohr mag/cell

     iteration #274     ecut=    60.00 Ry     beta= 0.20
     Davidson diagonalization with overlap
     ethr =  1.04E-12,  avg # of iterations =  2.0

     negative rho (up, down):  3.149E-03 3.140E-03

     total cpu time spent up to now is    54906.8 secs

     total energy              =  -16575.12927322 Ry
     estimated scf accuracy    <       0.00000001 Ry

     total magnetization       =     0.55 Bohr mag/cell
     absolute magnetization    =     1.40 Bohr mag/cell

     iteration #275     ecut=    60.00 Ry     beta= 0.20
     Davidson diagonalization with overlap
     ethr =  1.04E-12,  avg # of iterations =  2.0

     negative rho (up, down):  3.149E-03 3.140E-03

     total cpu time spent up to now is    55094.1 secs

     total energy              =  -16575.12927322 Ry
     estimated scf accuracy    <       0.00000001 Ry

     total magnetization       =     0.55 Bohr mag/cell
     absolute magnetization    =     1.40 Bohr mag/cell

     iteration #276     ecut=    60.00 Ry     beta= 0.20
     Davidson diagonalization with overlap
     ethr =  1.04E-12,  avg # of iterations =  2.0

     negative rho (up, down):  3.148E-03 3.139E-03

     total cpu time spent up to now is    55300.1 secs

     total energy              =  -16575.12927325 Ry
     estimated scf accuracy    <       0.00000001 Ry

     total magnetization       =     0.55 Bohr mag/cell
     absolute magnetization    =     1.40 Bohr mag/cell

     iteration #277     ecut=    60.00 Ry     beta= 0.20
     Davidson diagonalization with overlap
     ethr =  1.04E-12,  avg # of iterations =  2.0

     negative rho (up, down):  3.150E-03 3.141E-03

     total cpu time spent up to now is    55488.0 secs

     total energy              =  -16575.12927319 Ry
     estimated scf accuracy    <       0.00000001 Ry

     total magnetization       =     0.55 Bohr mag/cell
     absolute magnetization    =     1.41 Bohr mag/cell

     iteration #278     ecut=    60.00 Ry     beta= 0.20
     Davidson diagonalization with overlap
     ethr =  1.04E-12,  avg # of iterations =  2.0

     negative rho (up, down):  3.148E-03 3.139E-03

     total cpu time spent up to now is    55705.9 secs

     total energy              =  -16575.12927322 Ry
     estimated scf accuracy    <       0.00000001 Ry

     total magnetization       =     0.55 Bohr mag/cell
     absolute magnetization    =     1.40 Bohr mag/cell

     iteration #279     ecut=    60.00 Ry     beta= 0.20
     Davidson diagonalization with overlap
     ethr =  1.04E-12,  avg # of iterations =  2.0

     negative rho (up, down):  3.147E-03 3.138E-03

     total cpu time spent up to now is    55896.4 secs

     total energy              =  -16575.12927322 Ry
     estimated scf accuracy    <       0.00000001 Ry

     total magnetization       =     0.55 Bohr mag/cell
     absolute magnetization    =     1.40 Bohr mag/cell

     iteration #280     ecut=    60.00 Ry     beta= 0.20
     Davidson diagonalization with overlap
     ethr =  1.04E-12,  avg # of iterations =  1.6

     negative rho (up, down):  3.150E-03 3.140E-03

     total cpu time spent up to now is    56077.2 secs

     total energy              =  -16575.12927320 Ry
     estimated scf accuracy    <       0.00000001 Ry

     total magnetization       =     0.55 Bohr mag/cell
     absolute magnetization    =     1.40 Bohr mag/cell

     iteration #281     ecut=    60.00 Ry     beta= 0.20
     Davidson diagonalization with overlap
     ethr =  1.04E-12,  avg # of iterations =  2.0

     negative rho (up, down):  3.148E-03 3.139E-03

     total cpu time spent up to now is    56313.5 secs

     total energy              =  -16575.12927313 Ry
     estimated scf accuracy    <       0.00000001 Ry

     total magnetization       =     0.55 Bohr mag/cell
     absolute magnetization    =     1.40 Bohr mag/cell

     iteration #282     ecut=    60.00 Ry     beta= 0.20
     Davidson diagonalization with overlap
     ethr =  1.04E-12,  avg # of iterations =  2.6

     negative rho (up, down):  3.148E-03 3.139E-03

     total cpu time spent up to now is    56551.1 secs

     total energy              =  -16575.12927321 Ry
     estimated scf accuracy    <       0.00000001 Ry

     total magnetization       =     0.55 Bohr mag/cell
     absolute magnetization    =     1.40 Bohr mag/cell

     iteration #283     ecut=    60.00 Ry     beta= 0.20
     Davidson diagonalization with overlap
     ethr =  1.04E-12,  avg # of iterations =  1.0

     negative rho (up, down):  3.150E-03 3.141E-03

     total cpu time spent up to now is    56718.6 secs

     total energy              =  -16575.12927317 Ry
     estimated scf accuracy    <       0.00000001 Ry

     total magnetization       =     0.55 Bohr mag/cell
     absolute magnetization    =     1.40 Bohr mag/cell

     iteration #284     ecut=    60.00 Ry     beta= 0.20
     Davidson diagonalization with overlap
     ethr =  1.04E-12,  avg # of iterations =  3.0

     negative rho (up, down):  3.149E-03 3.140E-03

     total cpu time spent up to now is    56963.2 secs

     total energy              =  -16575.12927326 Ry
     estimated scf accuracy    <       0.00000001 Ry

     total magnetization       =     0.55 Bohr mag/cell
     absolute magnetization    =     1.41 Bohr mag/cell

     iteration #285     ecut=    60.00 Ry     beta= 0.20
     Davidson diagonalization with overlap
     ethr =  1.04E-12,  avg # of iterations =  2.0

     negative rho (up, down):  3.149E-03 3.140E-03

     total cpu time spent up to now is    57159.6 secs

     total energy              =  -16575.12927327 Ry
     estimated scf accuracy    <       0.00000001 Ry

     total magnetization       =     0.55 Bohr mag/cell
     absolute magnetization    =     1.41 Bohr mag/cell

     iteration #286     ecut=    60.00 Ry     beta= 0.20
     Davidson diagonalization with overlap
     ethr =  1.04E-12,  avg # of iterations =  1.2

     negative rho (up, down):  3.149E-03 3.140E-03

     total cpu time spent up to now is    57330.6 secs

     total energy              =  -16575.12927328 Ry
     estimated scf accuracy    <       0.00000001 Ry

     total magnetization       =     0.55 Bohr mag/cell
     absolute magnetization    =     1.41 Bohr mag/cell

     iteration #287     ecut=    60.00 Ry     beta= 0.20
     Davidson diagonalization with overlap
     ethr =  1.04E-12,  avg # of iterations =  1.0

     negative rho (up, down):  3.151E-03 3.141E-03

     total cpu time spent up to now is    57496.9 secs

     total energy              =  -16575.12927323 Ry
     estimated scf accuracy    <       0.00000001 Ry

     total magnetization       =     0.55 Bohr mag/cell
     absolute magnetization    =     1.41 Bohr mag/cell

     iteration #288     ecut=    60.00 Ry     beta= 0.20
     Davidson diagonalization with overlap
     ethr =  1.04E-12,  avg # of iterations =  2.0

     negative rho (up, down):  3.148E-03 3.139E-03

     total cpu time spent up to now is    57704.0 secs

     total energy              =  -16575.12927321 Ry
     estimated scf accuracy    <       0.00000001 Ry

     total magnetization       =     0.55 Bohr mag/cell
     absolute magnetization    =     1.41 Bohr mag/cell

     iteration #289     ecut=    60.00 Ry     beta= 0.20
     Davidson diagonalization with overlap
     ethr =  1.04E-12,  avg # of iterations =  2.4

     negative rho (up, down):  3.150E-03 3.140E-03

     total cpu time spent up to now is    57937.0 secs

     total energy              =  -16575.12927324 Ry
     estimated scf accuracy    <       0.00000001 Ry

     total magnetization       =     0.55 Bohr mag/cell
     absolute magnetization    =     1.41 Bohr mag/cell

     iteration #290     ecut=    60.00 Ry     beta= 0.20
     Davidson diagonalization with overlap
     ethr =  1.04E-12,  avg # of iterations =  2.0

     negative rho (up, down):  3.149E-03 3.140E-03

     total cpu time spent up to now is    58136.1 secs

     total energy              =  -16575.12927325 Ry
     estimated scf accuracy    <       0.00000001 Ry

     total magnetization       =     0.55 Bohr mag/cell
     absolute magnetization    =     1.40 Bohr mag/cell

     iteration #291     ecut=    60.00 Ry     beta= 0.20
     Davidson diagonalization with overlap
     ethr =  1.04E-12,  avg # of iterations =  2.0

     negative rho (up, down):  3.149E-03 3.140E-03

     total cpu time spent up to now is    58335.4 secs

     total energy              =  -16575.12927327 Ry
     estimated scf accuracy    <       0.00000001 Ry

     total magnetization       =     0.55 Bohr mag/cell
     absolute magnetization    =     1.41 Bohr mag/cell

     iteration #292     ecut=    60.00 Ry     beta= 0.20
     Davidson diagonalization with overlap
     ethr =  1.04E-12,  avg # of iterations =  1.0

     negative rho (up, down):  3.152E-03 3.143E-03

     total cpu time spent up to now is    58502.1 secs

     total energy              =  -16575.12927317 Ry
     estimated scf accuracy    <       0.00000001 Ry

     total magnetization       =     0.55 Bohr mag/cell
     absolute magnetization    =     1.41 Bohr mag/cell

     iteration #293     ecut=    60.00 Ry     beta= 0.20
     Davidson diagonalization with overlap
     ethr =  1.04E-12,  avg # of iterations =  4.0

     negative rho (up, down):  3.150E-03 3.141E-03

     total cpu time spent up to now is    58760.3 secs

     total energy              =  -16575.12927332 Ry
     estimated scf accuracy    <       0.00000001 Ry

     total magnetization       =     0.55 Bohr mag/cell
     absolute magnetization    =     1.41 Bohr mag/cell

     iteration #294     ecut=    60.00 Ry     beta= 0.20
     Davidson diagonalization with overlap
     ethr =  1.04E-12,  avg # of iterations =  2.0

     negative rho (up, down):  3.151E-03 3.141E-03

     total cpu time spent up to now is    58957.5 secs

     total energy              =  -16575.12927335 Ry
     estimated scf accuracy    <       0.00000001 Ry

     total magnetization       =     0.55 Bohr mag/cell
     absolute magnetization    =     1.41 Bohr mag/cell

     iteration #295     ecut=    60.00 Ry     beta= 0.20
     Davidson diagonalization with overlap
     ethr =  1.04E-12,  avg # of iterations =  2.0

     negative rho (up, down):  3.152E-03 3.142E-03

     total cpu time spent up to now is    59144.5 secs

     total energy              =  -16575.12927336 Ry
     estimated scf accuracy    <       0.00000001 Ry

     total magnetization       =     0.55 Bohr mag/cell
     absolute magnetization    =     1.41 Bohr mag/cell

     iteration #296     ecut=    60.00 Ry     beta= 0.20
     Davidson diagonalization with overlap
     ethr =  1.04E-12,  avg # of iterations =  2.0

     negative rho (up, down):  3.154E-03 3.144E-03

     total cpu time spent up to now is    59338.1 secs

     total energy              =  -16575.12927334 Ry
     estimated scf accuracy    <       0.00000001 Ry

     total magnetization       =     0.55 Bohr mag/cell
     absolute magnetization    =     1.41 Bohr mag/cell

     iteration #297     ecut=    60.00 Ry     beta= 0.20
     Davidson diagonalization with overlap
     ethr =  1.04E-12,  avg # of iterations =  2.9

     negative rho (up, down):  3.153E-03 3.144E-03

     total cpu time spent up to now is    59565.4 secs

     total energy              =  -16575.12927340 Ry
     estimated scf accuracy    <       0.00000001 Ry

     total magnetization       =     0.55 Bohr mag/cell
     absolute magnetization    =     1.41 Bohr mag/cell

     iteration #298     ecut=    60.00 Ry     beta= 0.20
     Davidson diagonalization with overlap
     ethr =  1.04E-12,  avg # of iterations =  2.0

     negative rho (up, down):  3.154E-03 3.145E-03

     total cpu time spent up to now is    59755.4 secs

     total energy              =  -16575.12927337 Ry
     estimated scf accuracy    <       0.00000001 Ry

     total magnetization       =     0.55 Bohr mag/cell
     absolute magnetization    =     1.41 Bohr mag/cell

     iteration #299     ecut=    60.00 Ry     beta= 0.20
     Davidson diagonalization with overlap
     ethr =  1.04E-12,  avg # of iterations =  2.0

     negative rho (up, down):  3.153E-03 3.144E-03

     total cpu time spent up to now is    59955.4 secs

     total energy              =  -16575.12927338 Ry
     estimated scf accuracy    <       0.00000001 Ry

     total magnetization       =     0.55 Bohr mag/cell
     absolute magnetization    =     1.41 Bohr mag/cell

     iteration #300     ecut=    60.00 Ry     beta= 0.20
     Davidson diagonalization with overlap
     ethr =  1.04E-12,  avg # of iterations =  2.0

     negative rho (up, down):  3.152E-03 3.143E-03

     total cpu time spent up to now is    60170.0 secs

     total energy              =  -16575.12927317 Ry
     estimated scf accuracy    <       0.00000001 Ry

     total magnetization       =     0.55 Bohr mag/cell
     absolute magnetization    =     1.41 Bohr mag/cell

     iteration #301     ecut=    60.00 Ry     beta= 0.20
     Davidson diagonalization with overlap
     ethr =  1.04E-12,  avg # of iterations =  3.2

     negative rho (up, down):  3.154E-03 3.145E-03

     total cpu time spent up to now is    60423.2 secs

     total energy              =  -16575.12927336 Ry
     estimated scf accuracy    <       0.00000001 Ry

     total magnetization       =     0.55 Bohr mag/cell
     absolute magnetization    =     1.41 Bohr mag/cell

     iteration #302     ecut=    60.00 Ry     beta= 0.20
     Davidson diagonalization with overlap
     ethr =  1.04E-12,  avg # of iterations =  2.0

     negative rho (up, down):  3.155E-03 3.146E-03

     total cpu time spent up to now is    60629.2 secs

     total energy              =  -16575.12927341 Ry
     estimated scf accuracy    <       0.00000001 Ry

     total magnetization       =     0.55 Bohr mag/cell
     absolute magnetization    =     1.41 Bohr mag/cell

     iteration #303     ecut=    60.00 Ry     beta= 0.20
     Davidson diagonalization with overlap
     ethr =  1.03E-12,  avg # of iterations =  2.0

     negative rho (up, down):  3.154E-03 3.145E-03

     total cpu time spent up to now is    60823.9 secs

     total energy              =  -16575.12927336 Ry
     estimated scf accuracy    <       0.00000001 Ry

     total magnetization       =     0.55 Bohr mag/cell
     absolute magnetization    =     1.41 Bohr mag/cell

     iteration #304     ecut=    60.00 Ry     beta= 0.20
     Davidson diagonalization with overlap
     ethr =  1.03E-12,  avg # of iterations =  2.0

     negative rho (up, down):  3.153E-03 3.143E-03

     total cpu time spent up to now is    61032.1 secs

     total energy              =  -16575.12927332 Ry
     estimated scf accuracy    <       0.00000001 Ry

     total magnetization       =     0.55 Bohr mag/cell
     absolute magnetization    =     1.41 Bohr mag/cell

     iteration #305     ecut=    60.00 Ry     beta= 0.20
     Davidson diagonalization with overlap
     ethr =  1.03E-12,  avg # of iterations =  2.6

     negative rho (up, down):  3.155E-03 3.145E-03

     total cpu time spent up to now is    61262.1 secs

     total energy              =  -16575.12927339 Ry
     estimated scf accuracy    <       0.00000001 Ry

     total magnetization       =     0.55 Bohr mag/cell
     absolute magnetization    =     1.41 Bohr mag/cell

     iteration #306     ecut=    60.00 Ry     beta= 0.20
     Davidson diagonalization with overlap
     ethr =  1.03E-12,  avg # of iterations =  2.0

     negative rho (up, down):  3.153E-03 3.144E-03

     total cpu time spent up to now is    61471.2 secs

     total energy              =  -16575.12927337 Ry
     estimated scf accuracy    <       0.00000001 Ry

     total magnetization       =     0.55 Bohr mag/cell
     absolute magnetization    =     1.41 Bohr mag/cell

     iteration #307     ecut=    60.00 Ry     beta= 0.20
     Davidson diagonalization with overlap
     ethr =  1.03E-12,  avg # of iterations =  2.6

     negative rho (up, down):  3.153E-03 3.144E-03

     total cpu time spent up to now is    61699.0 secs

     total energy              =  -16575.12927341 Ry
     estimated scf accuracy    <       0.00000001 Ry

     total magnetization       =     0.55 Bohr mag/cell
     absolute magnetization    =     1.41 Bohr mag/cell

     iteration #308     ecut=    60.00 Ry     beta= 0.20
     Davidson diagonalization with overlap
     ethr =  1.03E-12,  avg # of iterations =  2.0

     negative rho (up, down):  3.153E-03 3.144E-03

     total cpu time spent up to now is    61887.9 secs

     total energy              =  -16575.12927342 Ry
     estimated scf accuracy    <       0.00000001 Ry

     total magnetization       =     0.55 Bohr mag/cell
     absolute magnetization    =     1.41 Bohr mag/cell

     iteration #309     ecut=    60.00 Ry     beta= 0.20
     Davidson diagonalization with overlap
     ethr =  1.03E-12,  avg # of iterations =  1.1

     negative rho (up, down):  3.153E-03 3.143E-03

     total cpu time spent up to now is    62055.3 secs

     total energy              =  -16575.12927340 Ry
     estimated scf accuracy    <       0.00000001 Ry

     total magnetization       =     0.55 Bohr mag/cell
     absolute magnetization    =     1.41 Bohr mag/cell

     iteration #310     ecut=    60.00 Ry     beta= 0.20
     Davidson diagonalization with overlap
     ethr =  1.03E-12,  avg # of iterations =  2.1

     negative rho (up, down):  3.152E-03 3.143E-03

     total cpu time spent up to now is    62270.1 secs

     total energy              =  -16575.12927331 Ry
     estimated scf accuracy    <       0.00000001 Ry

     total magnetization       =     0.55 Bohr mag/cell
     absolute magnetization    =     1.41 Bohr mag/cell

     iteration #311     ecut=    60.00 Ry     beta= 0.20
     Davidson diagonalization with overlap
     ethr =  1.03E-12,  avg # of iterations =  3.4

     negative rho (up, down):  3.153E-03 3.144E-03

     total cpu time spent up to now is    62516.0 secs

     total energy              =  -16575.12927342 Ry
     estimated scf accuracy    <       0.00000001 Ry

     total magnetization       =     0.55 Bohr mag/cell
     absolute magnetization    =     1.41 Bohr mag/cell

     iteration #312     ecut=    60.00 Ry     beta= 0.20
     Davidson diagonalization with overlap
     ethr =  1.03E-12,  avg # of iterations =  2.0

     negative rho (up, down):  3.152E-03 3.143E-03

     total cpu time spent up to now is    62705.6 secs

     total energy              =  -16575.12927341 Ry
     estimated scf accuracy    <       0.00000001 Ry

     total magnetization       =     0.55 Bohr mag/cell
     absolute magnetization    =     1.41 Bohr mag/cell

     iteration #313     ecut=    60.00 Ry     beta= 0.20
     Davidson diagonalization with overlap
     ethr =  1.03E-12,  avg # of iterations =  2.0

     negative rho (up, down):  3.153E-03 3.144E-03

     total cpu time spent up to now is    62892.2 secs

     total energy              =  -16575.12927341 Ry
     estimated scf accuracy    <       0.00000001 Ry

     total magnetization       =     0.55 Bohr mag/cell
     absolute magnetization    =     1.41 Bohr mag/cell

     iteration #314     ecut=    60.00 Ry     beta= 0.20
     Davidson diagonalization with overlap
     ethr =  1.03E-12,  avg # of iterations =  2.1

     negative rho (up, down):  3.155E-03 3.146E-03

     total cpu time spent up to now is    63118.0 secs

     total energy              =  -16575.12927347 Ry
     estimated scf accuracy    <       0.00000001 Ry

     total magnetization       =     0.55 Bohr mag/cell
     absolute magnetization    =     1.41 Bohr mag/cell

     iteration #315     ecut=    60.00 Ry     beta= 0.20
     Davidson diagonalization with overlap
     ethr =  1.03E-12,  avg # of iterations =  2.0

     negative rho (up, down):  3.151E-03 3.141E-03

     total cpu time spent up to now is    63307.3 secs

     total energy              =  -16575.12927333 Ry
     estimated scf accuracy    <       0.00000001 Ry

     total magnetization       =     0.55 Bohr mag/cell
     absolute magnetization    =     1.41 Bohr mag/cell

     iteration #316     ecut=    60.00 Ry     beta= 0.20
     Davidson diagonalization with overlap
     ethr =  1.03E-12,  avg # of iterations =  3.1

     negative rho (up, down):  3.152E-03 3.143E-03

     total cpu time spent up to now is    63545.3 secs

     total energy              =  -16575.12927339 Ry
     estimated scf accuracy    <       0.00000001 Ry

     total magnetization       =     0.55 Bohr mag/cell
     absolute magnetization    =     1.41 Bohr mag/cell

     iteration #317     ecut=    60.00 Ry     beta= 0.20
     Davidson diagonalization with overlap
     ethr =  1.03E-12,  avg # of iterations =  2.0

     negative rho (up, down):  3.154E-03 3.145E-03

     total cpu time spent up to now is    63748.3 secs

     total energy              =  -16575.12927325 Ry
     estimated scf accuracy    <       0.00000001 Ry

     total magnetization       =     0.55 Bohr mag/cell
     absolute magnetization    =     1.41 Bohr mag/cell

     iteration #318     ecut=    60.00 Ry     beta= 0.20
     Davidson diagonalization with overlap
     ethr =  1.03E-12,  avg # of iterations =  4.0

     negative rho (up, down):  3.154E-03 3.144E-03

     total cpu time spent up to now is    64002.0 secs

     total energy              =  -16575.12927337 Ry
     estimated scf accuracy    <       0.00000001 Ry

     total magnetization       =     0.55 Bohr mag/cell
     absolute magnetization    =     1.41 Bohr mag/cell

     iteration #319     ecut=    60.00 Ry     beta= 0.20
     Davidson diagonalization with overlap
     ethr =  1.03E-12,  avg # of iterations =  2.0

     negative rho (up, down):  3.153E-03 3.144E-03

     total cpu time spent up to now is    64189.0 secs

     total energy              =  -16575.12927335 Ry
     estimated scf accuracy    <       0.00000001 Ry

     total magnetization       =     0.55 Bohr mag/cell
     absolute magnetization    =     1.41 Bohr mag/cell

     iteration #320     ecut=    60.00 Ry     beta= 0.20
     Davidson diagonalization with overlap
     ethr =  1.03E-12,  avg # of iterations =  2.0

     negative rho (up, down):  3.153E-03 3.143E-03

     total cpu time spent up to now is    64385.6 secs

     total energy              =  -16575.12927331 Ry
     estimated scf accuracy    <       0.00000001 Ry

     total magnetization       =     0.55 Bohr mag/cell
     absolute magnetization    =     1.41 Bohr mag/cell

     iteration #321     ecut=    60.00 Ry     beta= 0.20
     Davidson diagonalization with overlap
     ethr =  1.03E-12,  avg # of iterations =  2.5

     negative rho (up, down):  3.152E-03 3.143E-03

     total cpu time spent up to now is    64620.9 secs

     total energy              =  -16575.12927338 Ry
     estimated scf accuracy    <       0.00000001 Ry

     total magnetization       =     0.55 Bohr mag/cell
     absolute magnetization    =     1.41 Bohr mag/cell

     iteration #322     ecut=    60.00 Ry     beta= 0.20
     Davidson diagonalization with overlap
     ethr =  1.03E-12,  avg # of iterations =  2.0

     negative rho (up, down):  3.155E-03 3.146E-03

     total cpu time spent up to now is    64811.7 secs

     total energy              =  -16575.12927331 Ry
     estimated scf accuracy    <       0.00000001 Ry

     total magnetization       =     0.55 Bohr mag/cell
     absolute magnetization    =     1.41 Bohr mag/cell

     iteration #323     ecut=    60.00 Ry     beta= 0.20
     Davidson diagonalization with overlap
     ethr =  1.03E-12,  avg # of iterations =  4.0

     negative rho (up, down):  3.156E-03 3.147E-03

     total cpu time spent up to now is    65072.3 secs

     total energy              =  -16575.12927343 Ry
     estimated scf accuracy    <       0.00000001 Ry

     total magnetization       =     0.55 Bohr mag/cell
     absolute magnetization    =     1.41 Bohr mag/cell

     iteration #324     ecut=    60.00 Ry     beta= 0.20
     Davidson diagonalization with overlap
     ethr =  1.03E-12,  avg # of iterations =  2.0

     negative rho (up, down):  3.155E-03 3.146E-03

     total cpu time spent up to now is    65286.2 secs

     total energy              =  -16575.12927341 Ry
     estimated scf accuracy    <       0.00000001 Ry

     total magnetization       =     0.55 Bohr mag/cell
     absolute magnetization    =     1.41 Bohr mag/cell

     iteration #325     ecut=    60.00 Ry     beta= 0.20
     Davidson diagonalization with overlap
     ethr =  1.03E-12,  avg # of iterations =  2.0

     negative rho (up, down):  3.155E-03 3.146E-03

     total cpu time spent up to now is    65493.7 secs

     total energy              =  -16575.12927334 Ry
     estimated scf accuracy    <       0.00000001 Ry

     total magnetization       =     0.55 Bohr mag/cell
     absolute magnetization    =     1.41 Bohr mag/cell

     iteration #326     ecut=    60.00 Ry     beta= 0.20
     Davidson diagonalization with overlap
     ethr =  1.03E-12,  avg # of iterations =  3.0

     negative rho (up, down):  3.155E-03 3.146E-03

     total cpu time spent up to now is    65725.0 secs

     total energy              =  -16575.12927340 Ry
     estimated scf accuracy    <       0.00000001 Ry

     total magnetization       =     0.55 Bohr mag/cell
     absolute magnetization    =     1.41 Bohr mag/cell

     iteration #327     ecut=    60.00 Ry     beta= 0.20
     Davidson diagonalization with overlap
     ethr =  1.03E-12,  avg # of iterations =  1.0

     negative rho (up, down):  3.157E-03 3.147E-03

     total cpu time spent up to now is    65891.7 secs

     total energy              =  -16575.12927332 Ry
     estimated scf accuracy    <       0.00000001 Ry

     total magnetization       =     0.55 Bohr mag/cell
     absolute magnetization    =     1.41 Bohr mag/cell

     iteration #328     ecut=    60.00 Ry     beta= 0.20
     Davidson diagonalization with overlap
     ethr =  1.03E-12,  avg # of iterations =  2.7

     negative rho (up, down):  3.153E-03 3.143E-03

     total cpu time spent up to now is    66124.9 secs

     total energy              =  -16575.12927333 Ry
     estimated scf accuracy    <       0.00000001 Ry

     total magnetization       =     0.55 Bohr mag/cell
     absolute magnetization    =     1.41 Bohr mag/cell

     iteration #329     ecut=    60.00 Ry     beta= 0.20
     Davidson diagonalization with overlap
     ethr =  1.03E-12,  avg # of iterations =  2.0

     negative rho (up, down):  3.151E-03 3.142E-03

     total cpu time spent up to now is    66358.2 secs

     total energy              =  -16575.12927335 Ry
     estimated scf accuracy    <       0.00000001 Ry

     total magnetization       =     0.55 Bohr mag/cell
     absolute magnetization    =     1.41 Bohr mag/cell

     iteration #330     ecut=    60.00 Ry     beta= 0.20
     Davidson diagonalization with overlap
     ethr =  1.03E-12,  avg # of iterations =  2.0

     negative rho (up, down):  3.150E-03 3.141E-03

     total cpu time spent up to now is    66554.2 secs

     total energy              =  -16575.12927322 Ry
     estimated scf accuracy    <       0.00000001 Ry

     total magnetization       =     0.55 Bohr mag/cell
     absolute magnetization    =     1.41 Bohr mag/cell

     iteration #331     ecut=    60.00 Ry     beta= 0.20
     Davidson diagonalization with overlap
     ethr =  1.03E-12,  avg # of iterations =  2.6

     negative rho (up, down):  3.147E-03 3.137E-03

     total cpu time spent up to now is    66799.0 secs

     total energy              =  -16575.12927311 Ry
     estimated scf accuracy    <       0.00000001 Ry

     total magnetization       =     0.55 Bohr mag/cell
     absolute magnetization    =     1.41 Bohr mag/cell

     iteration #332     ecut=    60.00 Ry     beta= 0.20
     Davidson diagonalization with overlap
     ethr =  1.03E-12,  avg # of iterations =  4.0

     negative rho (up, down):  3.148E-03 3.139E-03

     total cpu time spent up to now is    67054.7 secs

     total energy              =  -16575.12927321 Ry
     estimated scf accuracy    <       0.00000001 Ry

     total magnetization       =     0.55 Bohr mag/cell
     absolute magnetization    =     1.41 Bohr mag/cell

     iteration #333     ecut=    60.00 Ry     beta= 0.20
     Davidson diagonalization with overlap
     ethr =  1.03E-12,  avg # of iterations =  3.5

     negative rho (up, down):  3.147E-03 3.137E-03

     total cpu time spent up to now is    67300.9 secs

     total energy              =  -16575.12927322 Ry
     estimated scf accuracy    <       0.00000001 Ry

     total magnetization       =     0.55 Bohr mag/cell
     absolute magnetization    =     1.41 Bohr mag/cell

     iteration #334     ecut=    60.00 Ry     beta= 0.20
     Davidson diagonalization with overlap
     ethr =  1.03E-12,  avg # of iterations =  2.5

     negative rho (up, down):  3.150E-03 3.141E-03

     total cpu time spent up to now is    67536.7 secs

     total energy              =  -16575.12927314 Ry
     estimated scf accuracy    <       0.00000001 Ry

     total magnetization       =     0.55 Bohr mag/cell
     absolute magnetization    =     1.41 Bohr mag/cell

     iteration #335     ecut=    60.00 Ry     beta= 0.20
     Davidson diagonalization with overlap
     ethr =  1.03E-12,  avg # of iterations =  4.0

     negative rho (up, down):  3.153E-03 3.143E-03

     total cpu time spent up to now is    67796.9 secs

     total energy              =  -16575.12927306 Ry
     estimated scf accuracy    <       0.00000001 Ry

     total magnetization       =     0.55 Bohr mag/cell
     absolute magnetization    =     1.41 Bohr mag/cell

     iteration #336     ecut=    60.00 Ry     beta= 0.20
     Davidson diagonalization with overlap
     ethr =  1.03E-12,  avg # of iterations =  4.0

     negative rho (up, down):  3.153E-03 3.144E-03

     total cpu time spent up to now is    68057.5 secs

     total energy              =  -16575.12927334 Ry
     estimated scf accuracy    <       0.00000001 Ry

     total magnetization       =     0.55 Bohr mag/cell
     absolute magnetization    =     1.41 Bohr mag/cell

     iteration #337     ecut=    60.00 Ry     beta= 0.20
     Davidson diagonalization with overlap
     ethr =  1.02E-12,  avg # of iterations =  2.0

     negative rho (up, down):  3.155E-03 3.145E-03

     total cpu time spent up to now is    68244.1 secs

     total energy              =  -16575.12927334 Ry
     estimated scf accuracy    <       0.00000001 Ry

     total magnetization       =     0.55 Bohr mag/cell
     absolute magnetization    =     1.41 Bohr mag/cell

     iteration #338     ecut=    60.00 Ry     beta= 0.20
     Davidson diagonalization with overlap
     ethr =  1.01E-12,  avg # of iterations =  2.0

     negative rho (up, down):  3.152E-03 3.143E-03

     total cpu time spent up to now is    68432.3 secs

     total energy              =  -16575.12927331 Ry
     estimated scf accuracy    <       0.00000001 Ry

     total magnetization       =     0.55 Bohr mag/cell
     absolute magnetization    =     1.41 Bohr mag/cell

     iteration #339     ecut=    60.00 Ry     beta= 0.20
     Davidson diagonalization with overlap
     ethr =  1.01E-12,  avg # of iterations =  2.0

     negative rho (up, down):  3.152E-03 3.143E-03

     total cpu time spent up to now is    68623.5 secs

     total energy              =  -16575.12927332 Ry
     estimated scf accuracy    <       0.00000001 Ry

     total magnetization       =     0.55 Bohr mag/cell
     absolute magnetization    =     1.41 Bohr mag/cell

     iteration #340     ecut=    60.00 Ry     beta= 0.20
     Davidson diagonalization with overlap
     ethr =  9.91E-13,  avg # of iterations =  1.4

     negative rho (up, down):  3.152E-03 3.143E-03

     total cpu time spent up to now is    68796.5 secs

     total energy              =  -16575.12927332 Ry
     estimated scf accuracy    <       0.00000001 Ry

     total magnetization       =     0.55 Bohr mag/cell
     absolute magnetization    =     1.41 Bohr mag/cell

     iteration #341     ecut=    60.00 Ry     beta= 0.20
     Davidson diagonalization with overlap
     ethr =  9.91E-13,  avg # of iterations =  2.0

     negative rho (up, down):  3.152E-03 3.143E-03

     total cpu time spent up to now is    68983.0 secs

     total energy              =  -16575.12927331 Ry
     estimated scf accuracy    <       0.00000001 Ry

     total magnetization       =     0.55 Bohr mag/cell
     absolute magnetization    =     1.41 Bohr mag/cell

     iteration #342     ecut=    60.00 Ry     beta= 0.20
     Davidson diagonalization with overlap
     ethr =  9.91E-13,  avg # of iterations =  2.0

     negative rho (up, down):  3.153E-03 3.143E-03

     total cpu time spent up to now is    69170.1 secs

     total energy              =  -16575.12927332 Ry
     estimated scf accuracy    <       0.00000001 Ry

     total magnetization       =     0.55 Bohr mag/cell
     absolute magnetization    =     1.41 Bohr mag/cell

     iteration #343     ecut=    60.00 Ry     beta= 0.20
     Davidson diagonalization with overlap
     ethr =  9.91E-13,  avg # of iterations =  2.0

     negative rho (up, down):  3.151E-03 3.142E-03

     total cpu time spent up to now is    69362.8 secs

     total energy              =  -16575.12927326 Ry
     estimated scf accuracy    <       0.00000001 Ry

     total magnetization       =     0.55 Bohr mag/cell
     absolute magnetization    =     1.41 Bohr mag/cell

     iteration #344     ecut=    60.00 Ry     beta= 0.20
     Davidson diagonalization with overlap
     ethr =  9.88E-13,  avg # of iterations =  2.2

     negative rho (up, down):  3.151E-03 3.142E-03

     total cpu time spent up to now is    69590.4 secs

     total energy              =  -16575.12927325 Ry
     estimated scf accuracy    <       0.00000001 Ry

     total magnetization       =     0.55 Bohr mag/cell
     absolute magnetization    =     1.41 Bohr mag/cell

     iteration #345     ecut=    60.00 Ry     beta= 0.20
     Davidson diagonalization with overlap
     ethr =  9.88E-13,  avg # of iterations =  3.2

     negative rho (up, down):  3.151E-03 3.142E-03

     total cpu time spent up to now is    69836.9 secs

     total energy              =  -16575.12927333 Ry
     estimated scf accuracy    <       0.00000001 Ry

     total magnetization       =     0.55 Bohr mag/cell
     absolute magnetization    =     1.41 Bohr mag/cell

     iteration #346     ecut=    60.00 Ry     beta= 0.20
     Davidson diagonalization with overlap
     ethr =  9.88E-13,  avg # of iterations =  2.0

     negative rho (up, down):  3.151E-03 3.142E-03

     total cpu time spent up to now is    70029.5 secs

     total energy              =  -16575.12927336 Ry
     estimated scf accuracy    <       0.00000001 Ry

     total magnetization       =     0.55 Bohr mag/cell
     absolute magnetization    =     1.41 Bohr mag/cell

     iteration #347     ecut=    60.00 Ry     beta= 0.20
     Davidson diagonalization with overlap
     ethr =  9.88E-13,  avg # of iterations =  1.7

     negative rho (up, down):  3.153E-03 3.144E-03

     total cpu time spent up to now is    70210.3 secs

     total energy              =  -16575.12927337 Ry
     estimated scf accuracy    <       0.00000001 Ry

     total magnetization       =     0.55 Bohr mag/cell
     absolute magnetization    =     1.41 Bohr mag/cell

     iteration #348     ecut=    60.00 Ry     beta= 0.20
     Davidson diagonalization with overlap
     ethr =  9.88E-13,  avg # of iterations =  1.2

     negative rho (up, down):  3.153E-03 3.143E-03

     total cpu time spent up to now is    70382.8 secs

     total energy              =  -16575.12927337 Ry
     estimated scf accuracy    <       0.00000001 Ry

     total magnetization       =     0.55 Bohr mag/cell
     absolute magnetization    =     1.41 Bohr mag/cell

     iteration #349     ecut=    60.00 Ry     beta= 0.20
     Davidson diagonalization with overlap
     ethr =  9.88E-13,  avg # of iterations =  1.3

     negative rho (up, down):  3.152E-03 3.143E-03

     total cpu time spent up to now is    70556.9 secs

     total energy              =  -16575.12927336 Ry
     estimated scf accuracy    <       0.00000001 Ry

     total magnetization       =     0.55 Bohr mag/cell
     absolute magnetization    =     1.41 Bohr mag/cell

     iteration #350     ecut=    60.00 Ry     beta= 0.20
     Davidson diagonalization with overlap
     ethr =  9.85E-13,  avg # of iterations =  2.0

     negative rho (up, down):  3.152E-03 3.143E-03

     total cpu time spent up to now is    70742.7 secs

     total energy              =  -16575.12927336 Ry
     estimated scf accuracy    <       0.00000001 Ry

     total magnetization       =     0.55 Bohr mag/cell
     absolute magnetization    =     1.41 Bohr mag/cell

     iteration #351     ecut=    60.00 Ry     beta= 0.20
     Davidson diagonalization with overlap
     ethr =  9.85E-13,  avg # of iterations =  1.8

     negative rho (up, down):  3.152E-03 3.143E-03

     total cpu time spent up to now is    70925.7 secs

     total energy              =  -16575.12927328 Ry
     estimated scf accuracy    <       0.00000001 Ry

     total magnetization       =     0.55 Bohr mag/cell
     absolute magnetization    =     1.41 Bohr mag/cell

     iteration #352     ecut=    60.00 Ry     beta= 0.20
     Davidson diagonalization with overlap
     ethr =  9.85E-13,  avg # of iterations =  2.5

     negative rho (up, down):  3.152E-03 3.143E-03

     total cpu time spent up to now is    71156.7 secs

     total energy              =  -16575.12927333 Ry
     estimated scf accuracy    <       0.00000001 Ry

     total magnetization       =     0.55 Bohr mag/cell
     absolute magnetization    =     1.41 Bohr mag/cell

     iteration #353     ecut=    60.00 Ry     beta= 0.20
     Davidson diagonalization with overlap
     ethr =  9.85E-13,  avg # of iterations =  2.0

     negative rho (up, down):  3.152E-03 3.143E-03

     total cpu time spent up to now is    71380.3 secs

     total energy              =  -16575.12927336 Ry
     estimated scf accuracy    <       0.00000001 Ry

     total magnetization       =     0.55 Bohr mag/cell
     absolute magnetization    =     1.41 Bohr mag/cell

     iteration #354     ecut=    60.00 Ry     beta= 0.20
     Davidson diagonalization with overlap
     ethr =  9.85E-13,  avg # of iterations =  2.9

     negative rho (up, down):  3.152E-03 3.143E-03

     total cpu time spent up to now is    71618.0 secs

     total energy              =  -16575.12927330 Ry
     estimated scf accuracy    <       0.00000001 Ry

     total magnetization       =     0.55 Bohr mag/cell
     absolute magnetization    =     1.41 Bohr mag/cell

     iteration #355     ecut=    60.00 Ry     beta= 0.20
     Davidson diagonalization with overlap
     ethr =  9.85E-13,  avg # of iterations =  2.6

     negative rho (up, down):  3.151E-03 3.142E-03

     total cpu time spent up to now is    71851.0 secs

     total energy              =  -16575.12927334 Ry
     estimated scf accuracy    <       0.00000001 Ry

     total magnetization       =     0.55 Bohr mag/cell
     absolute magnetization    =     1.41 Bohr mag/cell

     iteration #356     ecut=    60.00 Ry     beta= 0.20
     Davidson diagonalization with overlap
     ethr =  9.85E-13,  avg # of iterations =  2.0

     negative rho (up, down):  3.152E-03 3.143E-03

     total cpu time spent up to now is    72040.4 secs

     total energy              =  -16575.12927335 Ry
     estimated scf accuracy    <       0.00000001 Ry

     total magnetization       =     0.55 Bohr mag/cell
     absolute magnetization    =     1.41 Bohr mag/cell

     iteration #357     ecut=    60.00 Ry     beta= 0.20
     Davidson diagonalization with overlap
     ethr =  9.85E-13,  avg # of iterations =  1.0

     negative rho (up, down):  3.153E-03 3.143E-03

     total cpu time spent up to now is    72207.6 secs

     total energy              =  -16575.12927336 Ry
     estimated scf accuracy    <       0.00000001 Ry

     total magnetization       =     0.55 Bohr mag/cell
     absolute magnetization    =     1.41 Bohr mag/cell

     iteration #358     ecut=    60.00 Ry     beta= 0.20
     Davidson diagonalization with overlap
     ethr =  9.85E-13,  avg # of iterations =  1.0

     negative rho (up, down):  3.153E-03 3.144E-03

     total cpu time spent up to now is    72374.2 secs

     total energy              =  -16575.12927336 Ry
     estimated scf accuracy    <       0.00000001 Ry

     total magnetization       =     0.55 Bohr mag/cell
     absolute magnetization    =     1.41 Bohr mag/cell

     iteration #359     ecut=    60.00 Ry     beta= 0.20
     Davidson diagonalization with overlap
     ethr =  9.82E-13,  avg # of iterations =  2.0

     negative rho (up, down):  3.153E-03 3.143E-03

     total cpu time spent up to now is    72562.3 secs

     total energy              =  -16575.12927336 Ry
     estimated scf accuracy    <       0.00000001 Ry

     total magnetization       =     0.55 Bohr mag/cell
     absolute magnetization    =     1.41 Bohr mag/cell

     iteration #360     ecut=    60.00 Ry     beta= 0.20
     Davidson diagonalization with overlap
     ethr =  9.82E-13,  avg # of iterations =  1.8

     negative rho (up, down):  3.153E-03 3.144E-03

     total cpu time spent up to now is    72744.7 secs

     total energy              =  -16575.12927336 Ry
     estimated scf accuracy    <       0.00000001 Ry

     total magnetization       =     0.55 Bohr mag/cell
     absolute magnetization    =     1.41 Bohr mag/cell

     iteration #361     ecut=    60.00 Ry     beta= 0.20
     Davidson diagonalization with overlap
     ethr =  9.82E-13,  avg # of iterations =  1.6

     negative rho (up, down):  3.153E-03 3.144E-03

     total cpu time spent up to now is    72922.0 secs

     total energy              =  -16575.12927337 Ry
     estimated scf accuracy    <       0.00000001 Ry

     total magnetization       =     0.55 Bohr mag/cell
     absolute magnetization    =     1.41 Bohr mag/cell

     iteration #362     ecut=    60.00 Ry     beta= 0.20
     Davidson diagonalization with overlap
     ethr =  9.82E-13,  avg # of iterations =  2.0

     negative rho (up, down):  3.153E-03 3.143E-03

     total cpu time spent up to now is    73108.4 secs

     total energy              =  -16575.12927333 Ry
     estimated scf accuracy    <       0.00000001 Ry

     total magnetization       =     0.55 Bohr mag/cell
     absolute magnetization    =     1.41 Bohr mag/cell

     iteration #363     ecut=    60.00 Ry     beta= 0.20
     Davidson diagonalization with overlap
     ethr =  9.82E-13,  avg # of iterations =  2.0

     negative rho (up, down):  3.153E-03 3.143E-03

     total cpu time spent up to now is    73316.5 secs

     total energy              =  -16575.12927333 Ry
     estimated scf accuracy    <       0.00000001 Ry

     total magnetization       =     0.55 Bohr mag/cell
     absolute magnetization    =     1.41 Bohr mag/cell

     iteration #364     ecut=    60.00 Ry     beta= 0.20
     Davidson diagonalization with overlap
     ethr =  9.82E-13,  avg # of iterations =  2.0

     negative rho (up, down):  3.153E-03 3.143E-03

     total cpu time spent up to now is    73507.0 secs

     total energy              =  -16575.12927320 Ry
     estimated scf accuracy    <       0.00000001 Ry

     total magnetization       =     0.55 Bohr mag/cell
     absolute magnetization    =     1.41 Bohr mag/cell

     iteration #365     ecut=    60.00 Ry     beta= 0.20
     Davidson diagonalization with overlap
     ethr =  9.82E-13,  avg # of iterations =  3.5

     negative rho (up, down):  3.154E-03 3.144E-03

     total cpu time spent up to now is    73754.7 secs

     total energy              =  -16575.12927328 Ry
     estimated scf accuracy    <       0.00000001 Ry

     total magnetization       =     0.55 Bohr mag/cell
     absolute magnetization    =     1.40 Bohr mag/cell

     iteration #366     ecut=    60.00 Ry     beta= 0.20
     Davidson diagonalization with overlap
     ethr =  9.58E-13,  avg # of iterations =  2.0

     negative rho (up, down):  3.154E-03 3.145E-03

     total cpu time spent up to now is    73946.2 secs

     total energy              =  -16575.12927327 Ry
     estimated scf accuracy    <       0.00000001 Ry

     total magnetization       =     0.55 Bohr mag/cell
     absolute magnetization    =     1.40 Bohr mag/cell

     iteration #367     ecut=    60.00 Ry     beta= 0.20
     Davidson diagonalization with overlap
     ethr =  9.50E-13,  avg # of iterations =  2.0

     negative rho (up, down):  3.155E-03 3.146E-03

     total cpu time spent up to now is    74138.2 secs

     total energy              =  -16575.12927328 Ry
     estimated scf accuracy    <       0.00000001 Ry

     total magnetization       =     0.55 Bohr mag/cell
     absolute magnetization    =     1.40 Bohr mag/cell

     iteration #368     ecut=    60.00 Ry     beta= 0.20
     Davidson diagonalization with overlap
     ethr =  9.22E-13,  avg # of iterations =  2.0

     negative rho (up, down):  3.155E-03 3.145E-03

     total cpu time spent up to now is    74330.4 secs

     total energy              =  -16575.12927328 Ry
     estimated scf accuracy    <       0.00000001 Ry

     total magnetization       =     0.55 Bohr mag/cell
     absolute magnetization    =     1.40 Bohr mag/cell

     iteration #369     ecut=    60.00 Ry     beta= 0.20
     Davidson diagonalization with overlap
     ethr =  9.22E-13,  avg # of iterations =  2.0

     negative rho (up, down):  3.154E-03 3.145E-03

     total cpu time spent up to now is    74517.5 secs

     total energy              =  -16575.12927328 Ry
     estimated scf accuracy    <       0.00000001 Ry

     total magnetization       =     0.55 Bohr mag/cell
     absolute magnetization    =     1.40 Bohr mag/cell

     iteration #370     ecut=    60.00 Ry     beta= 0.20
     Davidson diagonalization with overlap
     ethr =  9.21E-13,  avg # of iterations =  1.0

     negative rho (up, down):  3.154E-03 3.144E-03

     total cpu time spent up to now is    74683.8 secs

     total energy              =  -16575.12927326 Ry
     estimated scf accuracy    <       0.00000001 Ry

     total magnetization       =     0.55 Bohr mag/cell
     absolute magnetization    =     1.40 Bohr mag/cell

     iteration #371     ecut=    60.00 Ry     beta= 0.20
     Davidson diagonalization with overlap
     ethr =  9.18E-13,  avg # of iterations =  2.0

     negative rho (up, down):  3.154E-03 3.144E-03

     total cpu time spent up to now is    74878.5 secs

     total energy              =  -16575.12927327 Ry
     estimated scf accuracy    <       0.00000001 Ry

     total magnetization       =     0.55 Bohr mag/cell
     absolute magnetization    =     1.40 Bohr mag/cell

     iteration #372     ecut=    60.00 Ry     beta= 0.20
     Davidson diagonalization with overlap
     ethr =  9.17E-13,  avg # of iterations =  1.0

     negative rho (up, down):  3.155E-03 3.146E-03

     total cpu time spent up to now is    75044.8 secs

     total energy              =  -16575.12927328 Ry
     estimated scf accuracy    <       0.00000001 Ry

     total magnetization       =     0.55 Bohr mag/cell
     absolute magnetization    =     1.40 Bohr mag/cell

     iteration #373     ecut=    60.00 Ry     beta= 0.20
     Davidson diagonalization with overlap
     ethr =  9.16E-13,  avg # of iterations =  2.0

     negative rho (up, down):  3.154E-03 3.145E-03

     total cpu time spent up to now is    75235.0 secs

     total energy              =  -16575.12927322 Ry
     estimated scf accuracy    <       0.00000001 Ry

     total magnetization       =     0.55 Bohr mag/cell
     absolute magnetization    =     1.40 Bohr mag/cell

     iteration #374     ecut=    60.00 Ry     beta= 0.20
     Davidson diagonalization with overlap
     ethr =  9.16E-13,  avg # of iterations =  2.0

     negative rho (up, down):  3.153E-03 3.144E-03

     total cpu time spent up to now is    75458.2 secs

     total energy              =  -16575.12927325 Ry
     estimated scf accuracy    <       0.00000001 Ry

     total magnetization       =     0.55 Bohr mag/cell
     absolute magnetization    =     1.40 Bohr mag/cell

     iteration #375     ecut=    60.00 Ry     beta= 0.20
     Davidson diagonalization with overlap
     ethr =  9.16E-13,  avg # of iterations =  2.0

     negative rho (up, down):  3.152E-03 3.142E-03

     total cpu time spent up to now is    75671.7 secs

     total energy              =  -16575.12927327 Ry
     estimated scf accuracy    <       0.00000001 Ry

     total magnetization       =     0.55 Bohr mag/cell
     absolute magnetization    =     1.40 Bohr mag/cell

     iteration #376     ecut=    60.00 Ry     beta= 0.20
     Davidson diagonalization with overlap
     ethr =  9.12E-13,  avg # of iterations =  2.4

     negative rho (up, down):  3.151E-03 3.142E-03

     total cpu time spent up to now is    75900.5 secs

     total energy              =  -16575.12927331 Ry
     estimated scf accuracy    <       0.00000001 Ry

     total magnetization       =     0.55 Bohr mag/cell
     absolute magnetization    =     1.41 Bohr mag/cell

     iteration #377     ecut=    60.00 Ry     beta= 0.20
     Davidson diagonalization with overlap
     ethr =  9.10E-13,  avg # of iterations =  1.9

     negative rho (up, down):  3.151E-03 3.142E-03

     total cpu time spent up to now is    76084.4 secs

     total energy              =  -16575.12927332 Ry
     estimated scf accuracy    <       0.00000001 Ry

     total magnetization       =     0.55 Bohr mag/cell
     absolute magnetization    =     1.41 Bohr mag/cell

     iteration #378     ecut=    60.00 Ry     beta= 0.20
     Davidson diagonalization with overlap
     ethr =  9.10E-13,  avg # of iterations =  1.0

     negative rho (up, down):  3.152E-03 3.143E-03

     total cpu time spent up to now is    76250.7 secs

     total energy              =  -16575.12927318 Ry
     estimated scf accuracy    <       0.00000001 Ry

     total magnetization       =     0.55 Bohr mag/cell
     absolute magnetization    =     1.41 Bohr mag/cell

     iteration #379     ecut=    60.00 Ry     beta= 0.20
     Davidson diagonalization with overlap
     ethr =  9.10E-13,  avg # of iterations =  3.7

     negative rho (up, down):  3.140E-03 3.131E-03
 
     Magnetic moment per site  (integrated on atomic sphere of radius R)
     atom   1 (R=0.066)  charge=  8.4386  magn=  0.0019
     atom   2 (R=0.066)  charge=  8.3680  magn= -0.0000
     atom   3 (R=0.066)  charge=  8.4407  magn=  0.0019
     atom   4 (R=0.066)  charge=  8.3679  magn= -0.0003
     atom   5 (R=0.066)  charge=  5.1645  magn=  0.0088
     atom   6 (R=0.066)  charge=  5.1651  magn=  0.0080
     atom   7 (R=0.066)  charge=  5.1632  magn=  0.0096
     atom   8 (R=0.066)  charge=  5.1644  magn=  0.0089
     atom   9 (R=0.066)  charge=  8.3739  magn=  0.0685
     atom  10 (R=0.066)  charge=  8.3613  magn= -0.0129
     atom  11 (R=0.066)  charge=  8.3729  magn=  0.0767
     atom  12 (R=0.066)  charge=  8.3610  magn= -0.0121
     atom  13 (R=0.066)  charge=  5.1400  magn=  0.0063
     atom  14 (R=0.066)  charge=  5.1371  magn=  0.0058
     atom  15 (R=0.066)  charge=  5.1405  magn=  0.0051
     atom  16 (R=0.066)  charge=  5.1363  magn=  0.0049
     atom  17 (R=0.066)  charge=  8.3581  magn= -0.0153
     atom  18 (R=0.066)  charge=  8.3617  magn= -0.0008
     atom  19 (R=0.066)  charge=  8.3586  magn= -0.0139
     atom  20 (R=0.066)  charge=  8.3617  magn=  0.0003
     atom  21 (R=0.066)  charge=  5.1366  magn= -0.0027
     atom  22 (R=0.066)  charge=  5.1325  magn= -0.0024
     atom  23 (R=0.066)  charge=  5.1350  magn= -0.0028
     atom  24 (R=0.066)  charge=  5.1326  magn= -0.0030
     atom  25 (R=0.066)  charge=  8.3383  magn= -0.0019
     atom  26 (R=0.066)  charge=  8.3225  magn= -0.0022
     atom  27 (R=0.066)  charge=  8.3386  magn= -0.0023
     atom  28 (R=0.066)  charge=  8.3222  magn= -0.0021
     atom  29 (R=0.066)  charge=  5.1068  magn= -0.0017
     atom  30 (R=0.066)  charge=  5.1076  magn= -0.0016
     atom  31 (R=0.066)  charge=  5.1062  magn= -0.0015
     atom  32 (R=0.066)  charge=  5.1092  magn= -0.0015
     atom  33 (R=0.066)  charge=  8.4393  magn=  0.0022
     atom  34 (R=0.066)  charge=  8.3681  magn= -0.0011
     atom  35 (R=0.066)  charge=  8.4407  magn=  0.0023
     atom  36 (R=0.066)  charge=  8.3679  magn= -0.0008
     atom  37 (R=0.066)  charge=  5.1643  magn=  0.0094
     atom  38 (R=0.066)  charge=  5.1657  magn=  0.0091
     atom  39 (R=0.066)  charge=  5.1642  magn=  0.0095
     atom  40 (R=0.066)  charge=  5.1645  magn=  0.0091
     atom  41 (R=0.066)  charge=  8.3734  magn=  0.0763
     atom  42 (R=0.066)  charge=  8.3613  magn= -0.0138
     atom  43 (R=0.066)  charge=  8.3730  magn=  0.0776
     atom  44 (R=0.066)  charge=  8.3610  magn= -0.0116
     atom  45 (R=0.066)  charge=  5.1408  magn=  0.0070
     atom  46 (R=0.066)  charge=  5.1380  magn=  0.0065
     atom  47 (R=0.066)  charge=  5.1408  magn=  0.0071
     atom  48 (R=0.066)  charge=  5.1371  magn=  0.0063
     atom  49 (R=0.066)  charge=  8.3582  magn= -0.0123
     atom  50 (R=0.066)  charge=  8.3617  magn= -0.0003
     atom  51 (R=0.066)  charge=  8.3581  magn= -0.0119
     atom  52 (R=0.066)  charge=  8.3616  magn= -0.0014
     atom  53 (R=0.066)  charge=  5.1354  magn= -0.0025
     atom  54 (R=0.066)  charge=  5.1331  magn= -0.0027
     atom  55 (R=0.066)  charge=  5.1354  magn= -0.0028
     atom  56 (R=0.066)  charge=  5.1333  magn= -0.0025
     atom  57 (R=0.066)  charge=  8.3381  magn= -0.0036
     atom  58 (R=0.066)  charge=  8.3223  magn= -0.0023
     atom  59 (R=0.066)  charge=  8.3385  magn= -0.0035
     atom  60 (R=0.066)  charge=  8.3220  magn= -0.0021
     atom  61 (R=0.066)  charge=  5.1063  magn= -0.0019
     atom  62 (R=0.066)  charge=  5.1073  magn= -0.0019
     atom  63 (R=0.066)  charge=  5.1071  magn= -0.0019
     atom  64 (R=0.066)  charge=  5.1060  magn= -0.0019
     atom  65 (R=0.066)  charge=  8.4399  magn=  0.0019
     atom  66 (R=0.066)  charge=  8.3679  magn= -0.0005
     atom  67 (R=0.066)  charge=  8.4378  magn=  0.0019
     atom  68 (R=0.066)  charge=  8.3682  magn= -0.0001
     atom  69 (R=0.066)  charge=  5.1632  magn=  0.0098
     atom  70 (R=0.066)  charge=  5.1640  magn=  0.0091
     atom  71 (R=0.066)  charge=  5.1635  magn=  0.0091
     atom  72 (R=0.066)  charge=  5.1650  magn=  0.0084
     atom  73 (R=0.066)  charge=  8.3729  magn=  0.0794
     atom  74 (R=0.066)  charge=  8.3609  magn= -0.0119
     atom  75 (R=0.066)  charge=  8.3735  magn=  0.0728
     atom  76 (R=0.066)  charge=  8.3613  magn= -0.0127
     atom  77 (R=0.066)  charge=  5.1401  magn=  0.0058
     atom  78 (R=0.066)  charge=  5.1367  magn=  0.0054
     atom  79 (R=0.066)  charge=  5.1402  magn=  0.0068
     atom  80 (R=0.066)  charge=  5.1377  magn=  0.0061
     atom  81 (R=0.066)  charge=  8.3581  magn= -0.0142
     atom  82 (R=0.066)  charge=  8.3617  magn= -0.0001
     atom  83 (R=0.066)  charge=  8.3582  magn= -0.0150
     atom  84 (R=0.066)  charge=  8.3617  magn= -0.0011
     atom  85 (R=0.066)  charge=  5.1356  magn= -0.0028
     atom  86 (R=0.066)  charge=  5.1328  magn= -0.0031
     atom  87 (R=0.066)  charge=  5.1354  magn= -0.0027
     atom  88 (R=0.066)  charge=  5.1327  magn= -0.0026
     atom  89 (R=0.066)  charge=  8.3383  magn= -0.0027
     atom  90 (R=0.066)  charge=  8.3219  magn= -0.0021
     atom  91 (R=0.066)  charge=  8.3381  magn= -0.0022
     atom  92 (R=0.066)  charge=  8.3222  magn= -0.0022
     atom  93 (R=0.066)  charge=  5.1065  magn= -0.0016
     atom  94 (R=0.066)  charge=  5.1066  magn= -0.0016
     atom  95 (R=0.066)  charge=  5.1067  magn= -0.0018
     atom  96 (R=0.066)  charge=  5.1071  magn= -0.0018
     atom  97 (R=0.066)  charge=  8.4403  magn=  0.0023
     atom  98 (R=0.066)  charge=  8.3680  magn= -0.0009
     atom  99 (R=0.066)  charge=  8.4387  magn=  0.0021
     atom 100 (R=0.066)  charge=  8.3683  magn= -0.0011
     atom 101 (R=0.066)  charge=  5.1634  magn=  0.0098
     atom 102 (R=0.066)  charge=  5.1642  magn=  0.0094
     atom 103 (R=0.066)  charge=  5.1646  magn=  0.0094
     atom 104 (R=0.066)  charge=  5.1654  magn=  0.0091
     atom 105 (R=0.066)  charge=  8.3726  magn=  0.0808
     atom 106 (R=0.066)  charge=  8.3610  magn= -0.0109
     atom 107 (R=0.066)  charge=  8.3732  magn=  0.0769
     atom 108 (R=0.066)  charge=  8.3613  magn= -0.0130
     atom 109 (R=0.066)  charge=  5.1410  magn=  0.0071
     atom 110 (R=0.066)  charge=  5.1377  magn=  0.0065
     atom 111 (R=0.066)  charge=  5.1410  magn=  0.0073
     atom 112 (R=0.066)  charge=  5.1377  magn=  0.0069
     atom 113 (R=0.066)  charge=  8.3583  magn= -0.0120
     atom 114 (R=0.066)  charge=  8.3615  magn= -0.0010
     atom 115 (R=0.066)  charge=  8.3583  magn= -0.0130
     atom 116 (R=0.066)  charge=  8.3616  magn=  0.0001
     atom 117 (R=0.066)  charge=  5.1358  magn= -0.0031
     atom 118 (R=0.066)  charge=  5.1330  magn= -0.0026
     atom 119 (R=0.066)  charge=  5.1353  magn= -0.0026
     atom 120 (R=0.066)  charge=  5.1330  magn= -0.0026
     atom 121 (R=0.066)  charge=  8.3384  magn= -0.0039
     atom 122 (R=0.066)  charge=  8.3207  magn= -0.0020
     atom 123 (R=0.066)  charge=  8.3381  magn= -0.0037
     atom 124 (R=0.066)  charge=  8.3212  magn= -0.0022
     atom 125 (R=0.066)  charge=  5.1052  magn= -0.0020
     atom 126 (R=0.066)  charge=  5.1066  magn= -0.0019
     atom 127 (R=0.066)  charge=  5.1059  magn= -0.0020
     atom 128 (R=0.066)  charge=  5.1074  magn= -0.0020
     atom 129 (R=0.038)  charge=  0.8728  magn=  0.0000
     atom 130 (R=0.038)  charge=  0.7930  magn= -0.0000
     atom 131 (R=0.038)  charge=  0.4929  magn= -0.0000
     atom 132 (R=0.038)  charge=  0.4953  magn= -0.0000
     atom 133 (R=0.038)  charge=  0.4961  magn= -0.0000
     atom 134 (R=0.038)  charge=  0.8694  magn= -0.0000
     atom 135 (R=0.048)  charge=  4.7999  magn= -0.0000
     atom 136 (R=0.038)  charge=  0.4949  magn=  0.0000
     atom 137 (R=0.038)  charge=  0.8015  magn= -0.0000
     atom 138 (R=0.048)  charge=  4.7994  magn= -0.0000
     atom 139 (R=0.038)  charge=  0.4949  magn= -0.0000
     atom 140 (R=0.048)  charge=  4.7998  magn= -0.0000
     atom 141 (R=0.048)  charge=  4.7996  magn= -0.0000
     atom 142 (R=0.038)  charge=  0.5095  magn= -0.0000

     total cpu time spent up to now is    76505.9 secs

     End of self-consistent calculation

 ------ SPIN UP ------------


          k = 0.0000 0.0000 0.0000 (297339 PWs)   bands (ev):

   -26.9724 -26.7488 -25.4908 -25.2943 -20.8799 -20.6433 -20.5973 -20.5971
   -20.5327 -20.3731 -20.3715 -20.3575 -20.2869 -20.2626 -20.2622 -20.1879
   -20.1247 -20.1001 -20.0992 -20.0758 -20.0692 -20.0686 -20.0370 -19.9974
   -19.9728 -19.9498 -19.9329 -19.9314 -19.8663 -19.8657 -19.8196 -19.8188
   -19.7798 -19.7565 -19.7550 -19.6943 -19.6838 -19.6810 -19.6806 -19.6297
   -19.6295 -19.5883 -19.5790 -19.5753 -19.5148 -19.4883 -19.4589 -19.4079
   -19.4056 -19.3811 -19.3800 -19.3740 -19.3081 -19.3069 -19.3002 -19.2392
   -19.2343 -19.2317 -19.0903 -18.9238 -18.7689 -18.7166 -18.7145 -18.6632
   -18.5156 -18.4907 -18.4867 -18.4626 -16.1497 -14.5500 -12.3009 -10.9657
    -9.3034  -9.2931  -9.0830  -8.8198  -8.7743  -8.7727  -8.5548  -8.5546
    -8.2971  -8.2544  -8.2532  -8.1999  -7.9418  -7.9273  -7.9217  -7.8851
    -7.8627  -7.8177  -7.7718  -7.7712  -7.7226  -7.6272  -7.6234  -7.6197
    -7.5905  -7.5734  -7.5719  -7.5680  -7.5381  -7.4887  -7.4426  -7.4397
    -7.4377  -7.4296  -7.3708  -7.3699  -7.3218  -7.3019  -7.1889  -7.1886
    -7.1765  -7.1744  -7.1700  -7.1673  -7.1433  -7.1401  -7.1135  -7.1131
    -7.0768  -7.0739  -7.0728  -7.0630  -7.0051  -6.9756  -6.9528  -6.9393
    -6.9125  -6.9120  -6.8927  -6.8858  -6.8842  -6.8790  -6.8772  -6.8526
    -6.8392  -6.8245  -6.8168  -6.7565  -6.7558  -6.7529  -6.7442  -6.7431
    -6.7104  -6.7088  -6.7014  -6.6711  -6.6576  -6.6558  -6.6359  -6.6348
    -6.6344  -6.6168  -6.6061  -6.5994  -6.5974  -6.5834  -6.5629  -6.5601
    -6.5568  -6.5478  -6.5460  -6.5367  -6.5349  -6.5316  -6.5303  -6.5295
    -6.4998  -6.4985  -6.4665  -6.4417  -6.4399  -6.4187  -6.4169  -6.3810
    -6.3546  -6.3377  -6.3300  -6.3246  -6.3122  -6.3118  -6.3114  -6.3107
    -6.2930  -6.2821  -6.2795  -6.2561  -6.2520  -6.2475  -6.2379  -6.2200
    -6.2162  -6.2155  -6.1522  -6.1510  -6.1454  -6.1442  -6.1345  -6.1172
    -6.1160  -6.0204  -6.0085  -6.0073  -5.9616  -5.9591  -5.9565  -5.9545
    -5.9279  -5.9269  -5.8875  -5.8647  -5.8601  -5.8296  -5.8283  -5.8091
    -5.8036  -5.7987  -5.7808  -5.7393  -5.7106  -5.6591  -5.6082  -5.6070
    -5.5991  -5.5377  -5.5352  -5.4048  -5.4039  -5.3880  -5.3632  -5.3129
    -5.2950  -5.2772  -5.2740  -5.2041  -5.1812  -5.1443  -5.1151  -5.0964
    -5.0384  -5.0376  -5.0357  -5.0345  -4.9691  -4.9633  -4.9234  -4.9183
    -4.9180  -4.8961  -4.8845  -4.8748  -4.8658  -4.8575  -4.8473  -4.8065
    -4.7516  -4.6827  -4.6800  -4.6280  -4.6200  -4.6194  -4.5967  -4.5758
    -4.5350  -4.5341  -4.5000  -4.4979  -4.4967  -4.4139  -4.4007  -4.3776
    -4.3189  -4.3181  -4.2856  -4.2607  -4.2558  -4.2344  -4.2255  -4.2192
    -4.2045  -4.2042  -4.2021  -4.1758  -4.1357  -4.1130  -4.1114  -4.1069
    -4.0563  -4.0212  -4.0195  -4.0106  -4.0081  -3.9824  -3.9808  -3.9655
    -3.9472  -3.9445  -3.9367  -3.9258  -3.9175  -3.9154  -3.9122  -3.8855
    -3.8839  -3.8831  -3.8799  -3.8783  -3.8701  -3.8593  -3.8560  -3.8542
    -3.8535  -3.8516  -3.8278  -3.8269  -3.8204  -3.7965  -3.7865  -3.7859
    -3.7698  -3.7680  -3.7670  -3.7592  -3.7585  -3.7519  -3.7495  -3.7493
    -3.7446  -3.7189  -3.7125  -3.7103  -3.7097  -3.6909  -3.6895  -3.6886
    -3.6876  -3.6865  -3.6767  -3.6749  -3.6736  -3.6731  -3.6580  -3.6558
    -3.6554  -3.6506  -3.6491  -3.6463  -3.6434  -3.6411  -3.6398  -3.6391
    -3.6317  -3.6311  -3.6244  -3.6230  -3.6192  -3.6139  -3.6128  -3.5997
    -3.5990  -3.5901  -3.5895  -3.5816  -3.5808  -3.5785  -3.5746  -3.5707
    -3.5695  -3.5686  -3.5643  -3.5614  -3.5447  -3.5388  -3.5387  -3.5318
    -3.5253  -3.5074  -3.5073  -3.5040  -3.5027  -3.5017  -3.4940  -3.4927
    -3.4923  -3.4861  -3.4726  -3.4720  -3.4695  -3.4692  -3.4532  -3.4488
    -3.4488  -3.4468  -3.4416  -3.4414  -3.4271  -3.4265  -3.4232  -3.4111
    -3.4065  -3.3987  -3.3952  -3.3929  -3.3797  -3.3752  -3.3661  -3.3656
    -3.3613  -3.3589  -3.3409  -3.3395  -3.3374  -3.3354  -3.3344  -3.3330
    -3.3320  -3.2969  -3.2744  -3.2522  -3.2505  -3.2499  -3.2488  -3.2452
    -3.2425  -3.2225  -3.2092  -3.1977  -3.1944  -3.1868  -3.1866  -3.1855
    -3.1809  -3.1658  -3.1654  -3.1645  -3.1627  -3.1465  -3.1324  -3.1306
    -3.1295  -3.1273  -3.1149  -3.1131  -3.1106  -3.1087  -3.0969  -3.0967
    -3.0948  -3.0854  -3.0845  -3.0665  -3.0557  -3.0547  -3.0540  -3.0442
    -3.0397  -3.0387  -3.0270  -3.0142  -2.9989  -2.9958  -2.9887  -2.9881
    -2.9865  -2.9823  -2.9588  -2.9577  -2.9540  -2.9502  -2.9478  -2.9453
    -2.9420  -2.9335  -2.9314  -2.9298  -2.9233  -2.9121  -2.9115  -2.9066
    -2.8997  -2.8849  -2.8638  -2.8501  -2.8461  -2.8415  -2.8373  -2.8354
    -2.8100  -2.8087  -2.7919  -2.7905  -2.7709  -2.7594  -2.7566  -2.7293
    -2.7217  -2.7039  -2.7021  -2.6923  -2.6815  -2.6794  -2.6524  -2.6520
    -2.6430  -2.5996  -2.5887  -2.5827  -2.5801  -2.5555  -2.5427  -2.5363
    -2.5349  -2.5225  -2.5217  -2.5115  -2.4878  -2.4688  -2.4591  -2.4575
    -2.4343  -2.4076  -2.4043  -2.4008  -2.3701  -2.3206  -2.3139  -2.2986
    -2.2920  -2.2789  -2.2182  -2.2108  -2.1806  -2.1768  -2.1654  -2.1563
    -1.9407  -1.8980  -1.8972  -1.8964  -1.8944  -1.8262  -1.8235  -1.8218
    -1.8095  -1.8075  -1.7460  -1.7257  -1.7240  -1.7038  -1.6835  -1.5590
    -1.5393  -1.5382  -1.5191  -1.4842  -1.4839  -1.4748  -1.4502  -1.4494
    -1.3897  -1.3879  -1.3819  -1.3315  -1.3028  -1.3023  -1.2481  -1.2031
    -1.2013  -1.0749  -1.0413  -1.0391  -1.0250  -0.9429  -0.9237  -0.9063
    -0.9051  -0.8751  -0.8295  -0.8280  -0.7850  -0.7821  -0.7726  -0.7139
    -0.6219  -0.6201  -0.5955  -0.5218  -0.4825  -0.4491  -0.4484  -0.4078
    -0.3587  -0.3471  -0.3458  -0.3153  -0.3101  -0.3022  -0.2942  -0.0896
    -0.0099  -0.0062  -0.0029   0.1179   0.1970   0.2078   0.2258   0.8417
     1.2890   1.8745   1.9022   1.9933   2.1086   2.2114   2.2123   2.3946
     2.4867   2.6769   2.6832   2.7877   2.7888   2.8086   2.8133   2.8229
     2.8978   2.9336   2.9377   2.9925   3.0382   3.0738   3.1899   3.2114
     3.2395   3.2405   3.2991   3.3077   3.3330   3.3338   3.3441   3.4097
     3.4118   3.4543   3.5088   3.5161   3.5183   3.5574   3.5598   3.7065
     3.7070   3.7871   3.7880   3.8299   3.8439   3.9328   3.9339   3.9617
     3.9920   4.0347   4.0357   4.0657   4.0889   4.1477   4.1487   4.1892
     4.2402   4.2509   4.2525   4.2538   4.2568   4.2879   4.3210   4.3364
     4.3428   4.4450   4.4718   4.4891   4.5019   4.5396   4.5446   4.5490
     4.5682   4.5785   4.5831

          k = 0.0000 0.2849 0.0000 (297550 PWs)   bands (ev):

   -26.9724 -26.7488 -25.4909 -25.2943 -20.8454 -20.6150 -20.6068 -20.5692
   -20.5639 -20.3589 -20.3476 -20.3445 -20.3387 -20.3372 -20.3273 -20.2625
   -20.1284 -20.1189 -20.1144 -20.0860 -20.0768 -20.0706 -20.0532 -20.0097
   -19.9336 -19.9318 -19.9121 -19.8619 -19.8606 -19.8551 -19.8003 -19.7981
   -19.7291 -19.7172 -19.7005 -19.6788 -19.6730 -19.6699 -19.6639 -19.6530
   -19.6030 -19.5743 -19.5581 -19.5472 -19.5155 -19.5126 -19.4282 -19.4201
   -19.4184 -19.4149 -19.3898 -19.3850 -19.3440 -19.3367 -19.3297 -19.2697
   -19.2629 -19.2623 -19.0730 -18.9605 -18.7256 -18.6784 -18.6707 -18.6216
   -18.5481 -18.5196 -18.5135 -18.4851 -16.1497 -14.5500 -12.3009 -10.9657
    -9.3034  -9.2931  -8.9493  -8.8198  -8.7731  -8.6471  -8.4521  -8.4488
    -8.2003  -8.1672  -8.1608  -8.1559  -8.1217  -7.9311  -7.9036  -7.8744
    -7.8525  -7.8174  -7.8120  -7.8067  -7.7517  -7.7046  -7.7036  -7.6714
    -7.6474  -7.6289  -7.5902  -7.5853  -7.5809  -7.5801  -7.5758  -7.5639
    -7.5599  -7.4339  -7.4014  -7.3781  -7.3482  -7.3425  -7.3140  -7.3097
    -7.3034  -7.3012  -7.2014  -7.1768  -7.1746  -7.1603  -7.1558  -7.1418
    -7.0953  -7.0921  -7.0368  -7.0339  -7.0327  -7.0250  -7.0133  -6.9956
    -6.9449  -6.9418  -6.9012  -6.8827  -6.8813  -6.8777  -6.8477  -6.8438
    -6.8429  -6.8341  -6.7811  -6.7716  -6.7683  -6.7462  -6.7425  -6.7198
    -6.6940  -6.6864  -6.6632  -6.6621  -6.6512  -6.6261  -6.6251  -6.6151
    -6.6107  -6.6024  -6.5932  -6.5875  -6.5805  -6.5756  -6.5727  -6.5558
    -6.5491  -6.5419  -6.5255  -6.5219  -6.5114  -6.5077  -6.4757  -6.4606
    -6.4590  -6.4564  -6.4519  -6.4318  -6.4231  -6.4138  -6.4118  -6.4087
    -6.4066  -6.3993  -6.3857  -6.3474  -6.3369  -6.3184  -6.3172  -6.3146
    -6.2769  -6.2557  -6.2540  -6.2519  -6.2497  -6.2303  -6.2262  -6.2231
    -6.1971  -6.1883  -6.1786  -6.1776  -6.1734  -6.1214  -6.1134  -6.0690
    -6.0281  -6.0195  -5.9735  -5.9296  -5.9260  -5.9101  -5.8895  -5.8676
    -5.8619  -5.8247  -5.8185  -5.7591  -5.7486  -5.7444  -5.7317  -5.7203
    -5.7007  -5.6567  -5.6553  -5.6463  -5.6274  -5.6122  -5.6030  -5.5741
    -5.5019  -5.4826  -5.4548  -5.3985  -5.3883  -5.3818  -5.3618  -5.3133
    -5.3103  -5.3038  -5.2892  -5.2596  -5.2186  -5.1979  -5.1704  -5.1507
    -5.1164  -5.1102  -5.1033  -5.0538  -5.0347  -5.0151  -4.9840  -4.9572
    -4.9161  -4.9105  -4.8558  -4.8500  -4.8476  -4.8395  -4.8235  -4.7939
    -4.7729  -4.7419  -4.7125  -4.6805  -4.6612  -4.6607  -4.6458  -4.5985
    -4.5967  -4.5172  -4.5131  -4.4869  -4.4700  -4.4570  -4.4326  -4.4278
    -4.4121  -4.4040  -4.3317  -4.2830  -4.2759  -4.2281  -4.2251  -4.2113
    -4.2081  -4.1992  -4.1961  -4.1871  -4.1754  -4.1641  -4.1393  -4.1240
    -4.1230  -4.1154  -4.1142  -4.1076  -4.0897  -4.0451  -3.9896  -3.9574
    -3.9416  -3.9398  -3.9375  -3.9340  -3.9244  -3.9180  -3.9143  -3.9083
    -3.8910  -3.8868  -3.8826  -3.8804  -3.8747  -3.8512  -3.8477  -3.8464
    -3.8454  -3.8270  -3.8254  -3.8219  -3.7966  -3.7885  -3.7807  -3.7776
    -3.7756  -3.7741  -3.7684  -3.7679  -3.7547  -3.7521  -3.7507  -3.7441
    -3.7394  -3.7187  -3.7168  -3.7143  -3.7131  -3.7071  -3.7047  -3.7019
    -3.6935  -3.6920  -3.6911  -3.6852  -3.6721  -3.6640  -3.6617  -3.6590
    -3.6522  -3.6462  -3.6392  -3.6316  -3.6285  -3.6261  -3.6222  -3.6103
    -3.6026  -3.6022  -3.5969  -3.5914  -3.5848  -3.5792  -3.5767  -3.5751
    -3.5717  -3.5565  -3.5512  -3.5433  -3.5426  -3.5417  -3.5406  -3.5331
    -3.5262  -3.5218  -3.5212  -3.5195  -3.5150  -3.5076  -3.5063  -3.4991
    -3.4947  -3.4940  -3.4937  -3.4791  -3.4780  -3.4712  -3.4645  -3.4636
    -3.4621  -3.4615  -3.4580  -3.4548  -3.4515  -3.4486  -3.4475  -3.4364
    -3.4282  -3.4263  -3.4094  -3.4081  -3.4057  -3.4031  -3.4021  -3.3951
    -3.3901  -3.3890  -3.3843  -3.3743  -3.3738  -3.3725  -3.3681  -3.3565
    -3.3474  -3.3431  -3.3375  -3.3303  -3.3272  -3.3204  -3.3176  -3.3168
    -3.3138  -3.2985  -3.2672  -3.2664  -3.2619  -3.2589  -3.2516  -3.2439
    -3.2433  -3.2185  -3.2125  -3.2084  -3.2051  -3.2033  -3.2024  -3.1994
    -3.1839  -3.1802  -3.1744  -3.1661  -3.1600  -3.1567  -3.1377  -3.1368
    -3.1350  -3.1319  -3.1300  -3.1279  -3.1239  -3.1135  -3.1102  -3.1090
    -3.1016  -3.0967  -3.0916  -3.0840  -3.0816  -3.0785  -3.0694  -3.0658
    -3.0523  -3.0441  -3.0410  -3.0159  -3.0143  -3.0010  -3.0002  -2.9962
    -2.9950  -2.9892  -2.9873  -2.9863  -2.9817  -2.9715  -2.9709  -2.9542
    -2.9488  -2.9399  -2.9361  -2.9328  -2.9224  -2.9195  -2.9175  -2.9134
    -2.9059  -2.8834  -2.8695  -2.8451  -2.8446  -2.8396  -2.8374  -2.8328
    -2.8273  -2.8219  -2.8116  -2.8036  -2.7968  -2.7842  -2.7771  -2.7746
    -2.7679  -2.7656  -2.7570  -2.7458  -2.7148  -2.6907  -2.6641  -2.6589
    -2.6570  -2.6377  -2.6142  -2.5926  -2.5875  -2.5748  -2.5515  -2.5487
    -2.5383  -2.5294  -2.5264  -2.5183  -2.5114  -2.4959  -2.4926  -2.4896
    -2.4843  -2.4419  -2.4057  -2.3975  -2.3894  -2.3538  -2.3345  -2.3250
    -2.2204  -2.1757  -2.1537  -2.1495  -2.1459  -2.1427  -2.1337  -2.0509
    -1.9734  -1.9385  -1.9294  -1.8944  -1.8721  -1.8486  -1.8354  -1.8304
    -1.8046  -1.7958  -1.7751  -1.7257  -1.6939  -1.6630  -1.6551  -1.6203
    -1.5808  -1.5721  -1.5491  -1.5226  -1.5151  -1.4796  -1.4707  -1.3621
    -1.3254  -1.2937  -1.2788  -1.1719  -1.1508  -1.1176  -1.0986  -1.0585
    -1.0528  -1.0346  -1.0277  -1.0048  -0.9960  -0.9794  -0.9655  -0.9201
    -0.9008  -0.8872  -0.8804  -0.8076  -0.7999  -0.7891  -0.7519  -0.7131
    -0.7032  -0.6274  -0.5958  -0.5881  -0.5867  -0.5175  -0.4875  -0.4711
    -0.4678  -0.4489  -0.4071  -0.3892  -0.3433  -0.2221  -0.2007  -0.1710
    -0.1445  -0.1130   0.0038   0.0949   0.0952   0.1259   0.1527   1.0307
     1.3908   1.9257   1.9788   2.0258   2.0545   2.3088   2.3288   2.3787
     2.4521   2.5431   2.5698   2.7324   2.7558   2.8748   2.8790   2.9076
     2.9099   2.9888   3.0223   3.0453   3.0593   3.1022   3.1412   3.1883
     3.2096   3.2601   3.2735   3.3019   3.3062   3.3117   3.3192   3.3281
     3.3415   3.4232   3.4519   3.5721   3.5803   3.6065   3.6772   3.6845
     3.7158   3.7641   3.8603   3.8717   3.8924   3.9121   3.9386   3.9963
     4.0010   4.0328   4.0401   4.0657   4.0793   4.0910   4.1047   4.1294
     4.1620   4.2062   4.2595   4.2849   4.2923   4.3004   4.3147   4.3378
     4.3512   4.3760   4.3833   4.3887   4.3917   4.4176   4.4712   4.4890
     4.5283   4.5397   4.5423

          k = 0.0000-0.5698 0.0000 (297598 PWs)   bands (ev):

   -26.9724 -26.7488 -25.4909 -25.2943 -20.7503 -20.7465 -20.5017 -20.4999
   -20.4850 -20.4841 -20.4743 -20.4736 -20.2584 -20.2570 -20.2462 -20.2447
   -20.2416 -20.2408 -20.1951 -20.1897 -20.0068 -20.0054 -19.9955 -19.9942
   -19.9917 -19.9894 -19.8538 -19.8501 -19.7741 -19.7730 -19.7632 -19.7622
   -19.7529 -19.7519 -19.6766 -19.6722 -19.6617 -19.6589 -19.6201 -19.6123
   -19.5517 -19.5503 -19.5371 -19.5353 -19.5278 -19.5251 -19.4418 -19.4409
   -19.4287 -19.4274 -19.4123 -19.4080 -19.3384 -19.3366 -19.3287 -19.3277
   -19.3259 -19.3254 -19.0283 -19.0208 -18.6345 -18.6293 -18.5956 -18.5945
   -18.5854 -18.5829 -18.5493 -18.5418 -16.1497 -14.5500 -12.3009 -10.9657
    -9.3034  -9.2931  -8.8198  -8.7731  -8.5865  -8.5803  -8.2855  -8.2840
    -8.1744  -8.1730  -8.1644  -8.1634  -8.0620  -8.0599  -7.9404  -7.9382
    -7.9074  -7.9066  -7.9059  -7.9032  -7.8180  -7.7932  -7.7916  -7.7513
    -7.7475  -7.6653  -7.6565  -7.5354  -7.5315  -7.5310  -7.5257  -7.5229
    -7.5195  -7.5010  -7.4982  -7.4561  -7.4536  -7.4467  -7.4448  -7.4028
    -7.3997  -7.3017  -7.2333  -7.2285  -7.1490  -7.1472  -7.1439  -7.1416
    -7.0861  -7.0841  -7.0789  -7.0773  -7.0642  -7.0560  -6.9476  -6.9459
    -6.9449  -6.9427  -6.9404  -6.9391  -6.9348  -6.9327  -6.8589  -6.8586
    -6.8237  -6.8210  -6.7587  -6.7573  -6.7148  -6.7139  -6.7125  -6.7098
    -6.6810  -6.6750  -6.6731  -6.6726  -6.6447  -6.6432  -6.6382  -6.6366
    -6.6303  -6.6291  -6.6153  -6.6061  -6.6033  -6.5725  -6.5721  -6.5537
    -6.5467  -6.5197  -6.5139  -6.4976  -6.4955  -6.4953  -6.4919  -6.4905
    -6.4885  -6.4376  -6.4317  -6.3993  -6.3985  -6.3837  -6.3821  -6.3662
    -6.3660  -6.3577  -6.3567  -6.3505  -6.3499  -6.3277  -6.3258  -6.3225
    -6.3190  -6.3165  -6.3093  -6.2635  -6.2586  -6.2261  -6.2174  -6.2168
    -6.1966  -6.1961  -6.1409  -6.1401  -6.1034  -6.1012  -6.0979  -6.0955
    -6.0927  -6.0919  -5.8723  -5.8654  -5.8618  -5.8601  -5.8254  -5.8167
    -5.8139  -5.7516  -5.7491  -5.7073  -5.7009  -5.6245  -5.6237  -5.6184
    -5.6182  -5.5261  -5.5229  -5.5212  -5.5159  -5.4891  -5.4855  -5.4241
    -5.4159  -5.4060  -5.4057  -5.3858  -5.3613  -5.3316  -5.3306  -5.2991
    -5.2981  -5.2943  -5.2911  -5.2511  -5.2443  -5.1994  -5.1950  -5.1330
    -5.1235  -5.1213  -5.0912  -5.0900  -5.0771  -5.0623  -5.0061  -5.0049
    -4.9640  -4.9632  -4.9246  -4.9202  -4.9184  -4.9166  -4.9073  -4.8546
    -4.7904  -4.7811  -4.7420  -4.7396  -4.7021  -4.6997  -4.6814  -4.6671
    -4.6641  -4.6588  -4.6581  -4.6425  -4.6405  -4.4470  -4.4441  -4.4066
    -4.4033  -4.2869  -4.2861  -4.2806  -4.2746  -4.2609  -4.2598  -4.2342
    -4.2329  -4.2292  -4.2255  -4.2220  -4.2008  -4.2001  -4.1869  -4.1854
    -4.1416  -4.1347  -4.1075  -4.1047  -4.0882  -4.0828  -3.9759  -3.9719
    -3.9707  -3.9700  -3.9469  -3.9447  -3.9183  -3.9179  -3.9110  -3.9095
    -3.8915  -3.8880  -3.8683  -3.8672  -3.8630  -3.8625  -3.8541  -3.8449
    -3.8393  -3.8386  -3.8348  -3.8343  -3.8029  -3.8003  -3.7784  -3.7777
    -3.7682  -3.7675  -3.7541  -3.7496  -3.7450  -3.7386  -3.7376  -3.7335
    -3.7307  -3.7292  -3.7171  -3.7162  -3.7103  -3.7096  -3.7086  -3.7050
    -3.7035  -3.7016  -3.6925  -3.6898  -3.6638  -3.6624  -3.6601  -3.6575
    -3.6558  -3.6550  -3.6229  -3.6217  -3.6213  -3.6149  -3.6094  -3.6091
    -3.6028  -3.6022  -3.5824  -3.5791  -3.5781  -3.5745  -3.5731  -3.5707
    -3.5541  -3.5532  -3.5450  -3.5440  -3.5195  -3.5190  -3.5041  -3.5036
    -3.5028  -3.5025  -3.4970  -3.4960  -3.4943  -3.4941  -3.4758  -3.4757
    -3.4614  -3.4609  -3.4594  -3.4590  -3.4528  -3.4493  -3.4332  -3.4287
    -3.4212  -3.4202  -3.4175  -3.4158  -3.4151  -3.4134  -3.4126  -3.4125
    -3.4076  -3.4062  -3.3753  -3.3735  -3.3673  -3.3654  -3.3632  -3.3607
    -3.3597  -3.3577  -3.3553  -3.3543  -3.3457  -3.3452  -3.3432  -3.3423
    -3.3411  -3.3382  -3.3340  -3.3232  -3.3204  -3.3194  -3.3183  -3.3001
    -3.2994  -3.2833  -3.2818  -3.2793  -3.2758  -3.2370  -3.2366  -3.2326
    -3.2315  -3.2243  -3.2219  -3.2033  -3.2008  -3.1969  -3.1965  -3.1944
    -3.1921  -3.1910  -3.1882  -3.1838  -3.1832  -3.1737  -3.1705  -3.1482
    -3.1471  -3.1323  -3.1309  -3.1269  -3.1254  -3.1149  -3.1121  -3.1090
    -3.1073  -3.1038  -3.0994  -3.0904  -3.0902  -3.0852  -3.0841  -3.0693
    -3.0669  -3.0633  -3.0611  -3.0394  -3.0387  -3.0154  -3.0145  -3.0107
    -3.0095  -3.0077  -3.0065  -2.9967  -2.9894  -2.9852  -2.9842  -2.9695
    -2.9650  -2.9429  -2.9415  -2.9355  -2.9342  -2.9220  -2.9203  -2.9194
    -2.9181  -2.9133  -2.9119  -2.9028  -2.8985  -2.8757  -2.8750  -2.8622
    -2.8596  -2.8230  -2.8190  -2.8124  -2.8118  -2.8098  -2.8095  -2.8090
    -2.8071  -2.7842  -2.7815  -2.7767  -2.7759  -2.7609  -2.7600  -2.6235
    -2.6224  -2.6161  -2.6151  -2.6034  -2.6028  -2.6002  -2.5952  -2.5871
    -2.5839  -2.5286  -2.5279  -2.5254  -2.5246  -2.5188  -2.5125  -2.4508
    -2.4428  -2.4292  -2.4262  -2.3769  -2.3756  -2.3675  -2.3623  -2.2675
    -2.2667  -2.1463  -2.1430  -2.1198  -2.1183  -2.1141  -2.1052  -2.0141
    -2.0105  -1.9011  -1.9007  -1.8705  -1.8703  -1.8686  -1.8677  -1.8257
    -1.8240  -1.8163  -1.8108  -1.7443  -1.7439  -1.6829  -1.6825  -1.5464
    -1.5462  -1.5283  -1.5277  -1.4570  -1.4521  -1.3437  -1.3424  -1.2918
    -1.2900  -1.2665  -1.2653  -1.1465  -1.1437  -1.0892  -1.0876  -1.0662
    -1.0643  -0.9901  -0.9810  -0.9471  -0.9439  -0.9037  -0.9026  -0.8843
    -0.8835  -0.8333  -0.8326  -0.7538  -0.7527  -0.7419  -0.7411  -0.7045
    -0.7030  -0.6506  -0.6496  -0.6160  -0.6143  -0.5590  -0.5586  -0.5574
    -0.5557  -0.4797  -0.4784  -0.4168  -0.4151  -0.3914  -0.3900  -0.2211
    -0.2133  -0.0312  -0.0230   0.0092   0.0133   0.0404   0.0491   1.4810
     1.4884   1.6598   1.6697   2.2287   2.2350   2.3638   2.3759   2.5931
     2.6000   2.6282   2.6330   2.6486   2.6492   2.7248   2.7254   2.8703
     2.8758   2.9931   3.0020   3.0654   3.0665   3.0948   3.0965   3.1629
     3.1659   3.2582   3.2603   3.2776   3.3139   3.3202   3.4775   3.4799
     3.4949   3.4962   3.5157   3.5319   3.5332   3.5350   3.6019   3.6030
     3.6477   3.7424   3.7822   3.8615   3.9282   3.9425   3.9438   3.9540
     3.9554   3.9987   4.0070   4.1007   4.1012   4.1080   4.1091   4.1935
     4.2296   4.2300   4.2709   4.2746   4.2842   4.2924   4.2950   4.3080
     4.3202   4.3369   4.3423   4.3427   4.3444   4.3526   4.4269   4.4298
     4.4364   4.5336   4.5420

          k = 0.2500-0.0079 0.0000 (297380 PWs)   bands (ev):

   -26.9724 -26.7488 -25.4908 -25.2943 -20.8592 -20.7083 -20.6234 -20.5128
   -20.4821 -20.4787 -20.3683 -20.3386 -20.3118 -20.2621 -20.2007 -20.1783
   -20.1531 -20.1134 -20.1066 -20.0993 -20.0288 -20.0246 -19.9952 -19.9938
   -19.9803 -19.9796 -19.9619 -19.9596 -19.8896 -19.8505 -19.8410 -19.8283
   -19.7725 -19.7615 -19.7194 -19.6797 -19.6734 -19.6633 -19.6502 -19.6365
   -19.6091 -19.6075 -19.5903 -19.5794 -19.5199 -19.5088 -19.4940 -19.4530
   -19.4107 -19.3691 -19.3501 -19.3435 -19.3331 -19.3065 -19.2896 -19.2814
   -19.2444 -19.1191 -19.1149 -18.9484 -18.7652 -18.7351 -18.6961 -18.6668
   -18.5142 -18.4975 -18.4800 -18.4639 -16.1497 -14.5500 -12.3009 -10.9657
    -9.3034  -9.2931  -9.0453  -8.8198  -8.7731  -8.7656  -8.7368  -8.4619
    -8.3319  -8.2594  -8.1165  -8.0317  -7.9799  -7.9768  -7.8965  -7.8530
    -7.8520  -7.8174  -7.7825  -7.7320  -7.6705  -7.6391  -7.6106  -7.5934
    -7.5920  -7.5611  -7.5116  -7.4946  -7.4910  -7.4790  -7.4626  -7.4436
    -7.4157  -7.4148  -7.4061  -7.3996  -7.3363  -7.3232  -7.3178  -7.3010
    -7.2824  -7.2460  -7.2171  -7.2082  -7.1737  -7.1372  -7.1312  -7.1267
    -7.1139  -7.0863  -7.0728  -7.0718  -7.0546  -7.0109  -6.9781  -6.9720
    -6.9714  -6.9412  -6.9382  -6.9245  -6.9055  -6.9048  -6.9023  -6.8726
    -6.8667  -6.8441  -6.8368  -6.8359  -6.8254  -6.8217  -6.7793  -6.7521
    -6.7467  -6.7424  -6.7006  -6.6941  -6.6625  -6.6552  -6.6248  -6.6240
    -6.6153  -6.6084  -6.6061  -6.5902  -6.5894  -6.5834  -6.5643  -6.5558
    -6.5488  -6.5477  -6.5358  -6.5344  -6.5251  -6.5016  -6.4676  -6.4376
    -6.4319  -6.4276  -6.4250  -6.4241  -6.4089  -6.4033  -6.3954  -6.3922
    -6.3780  -6.3663  -6.3413  -6.3173  -6.3103  -6.3082  -6.2926  -6.2806
    -6.2786  -6.2744  -6.2694  -6.2628  -6.2504  -6.2450  -6.2230  -6.1881
    -6.1859  -6.1668  -6.1511  -6.1474  -6.1420  -6.1231  -6.1050  -6.0957
    -6.0875  -6.0313  -6.0118  -5.9926  -5.9884  -5.9668  -5.9192  -5.8970
    -5.8613  -5.8347  -5.8282  -5.8198  -5.8100  -5.8056  -5.8041  -5.7890
    -5.7841  -5.7593  -5.7584  -5.7341  -5.6849  -5.6681  -5.5841  -5.5321
    -5.4442  -5.4360  -5.4104  -5.4030  -5.4002  -5.3955  -5.3831  -5.3581
    -5.2598  -5.2478  -5.2433  -5.1456  -5.1320  -5.1151  -5.1009  -5.0904
    -5.0814  -5.0770  -5.0720  -5.0299  -5.0016  -4.9896  -4.9522  -4.9513
    -4.9415  -4.9346  -4.9333  -4.9163  -4.9034  -4.8703  -4.8538  -4.8371
    -4.8051  -4.7891  -4.7475  -4.7306  -4.6860  -4.6803  -4.6610  -4.5803
    -4.5711  -4.5625  -4.5417  -4.5380  -4.5043  -4.4970  -4.3670  -4.3446
    -4.3032  -4.2605  -4.2524  -4.2342  -4.2291  -4.2199  -4.2176  -4.2005
    -4.1915  -4.1833  -4.1747  -4.1719  -4.1307  -4.1267  -4.1250  -4.1203
    -4.1116  -4.1047  -4.0445  -4.0378  -4.0271  -4.0036  -3.9860  -3.9779
    -3.9611  -3.9460  -3.9420  -3.9363  -3.9309  -3.9294  -3.9219  -3.9106
    -3.9029  -3.9018  -3.8991  -3.8975  -3.8884  -3.8871  -3.8738  -3.8633
    -3.8546  -3.8407  -3.8216  -3.8203  -3.7950  -3.7920  -3.7881  -3.7790
    -3.7757  -3.7645  -3.7629  -3.7596  -3.7540  -3.7513  -3.7468  -3.7433
    -3.7282  -3.7274  -3.7215  -3.7212  -3.7169  -3.7149  -3.7062  -3.6988
    -3.6976  -3.6942  -3.6806  -3.6790  -3.6780  -3.6664  -3.6655  -3.6637
    -3.6636  -3.6623  -3.6605  -3.6516  -3.6468  -3.6451  -3.6398  -3.6271
    -3.6225  -3.6188  -3.6176  -3.6162  -3.6150  -3.6121  -3.6072  -3.6052
    -3.5973  -3.5941  -3.5868  -3.5847  -3.5754  -3.5725  -3.5718  -3.5647
    -3.5635  -3.5560  -3.5511  -3.5459  -3.5288  -3.5278  -3.5260  -3.5191
    -3.5167  -3.5127  -3.5078  -3.5032  -3.5016  -3.5000  -3.4989  -3.4907
    -3.4788  -3.4784  -3.4766  -3.4755  -3.4739  -3.4673  -3.4671  -3.4644
    -3.4610  -3.4599  -3.4458  -3.4438  -3.4227  -3.4156  -3.4147  -3.4104
    -3.3983  -3.3885  -3.3805  -3.3769  -3.3639  -3.3597  -3.3561  -3.3546
    -3.3490  -3.3411  -3.3406  -3.3348  -3.3306  -3.3247  -3.3210  -3.3132
    -3.3068  -3.2883  -3.2743  -3.2723  -3.2702  -3.2645  -3.2590  -3.2516
    -3.2314  -3.2242  -3.2126  -3.2025  -3.1998  -3.1967  -3.1938  -3.1899
    -3.1864  -3.1759  -3.1695  -3.1663  -3.1641  -3.1353  -3.1333  -3.1324
    -3.1272  -3.1257  -3.1214  -3.1082  -3.1038  -3.1000  -3.0864  -3.0831
    -3.0787  -3.0599  -3.0582  -3.0559  -3.0467  -3.0446  -3.0425  -3.0352
    -3.0256  -3.0210  -3.0148  -3.0069  -3.0029  -2.9990  -2.9809  -2.9737
    -2.9687  -2.9666  -2.9636  -2.9608  -2.9555  -2.9536  -2.9515  -2.9489
    -2.9483  -2.9340  -2.9281  -2.9264  -2.9211  -2.9151  -2.9140  -2.8849
    -2.8713  -2.8566  -2.8529  -2.8505  -2.8279  -2.8261  -2.8250  -2.8193
    -2.8159  -2.7846  -2.7757  -2.7699  -2.7682  -2.7604  -2.7534  -2.7357
    -2.7090  -2.7073  -2.7018  -2.6667  -2.6656  -2.6473  -2.6341  -2.6300
    -2.6235  -2.6187  -2.6103  -2.6017  -2.5911  -2.5833  -2.5541  -2.5489
    -2.5350  -2.5234  -2.5178  -2.5123  -2.4954  -2.4923  -2.4896  -2.4702
    -2.4591  -2.4473  -2.4431  -2.4286  -2.3947  -2.3720  -2.3708  -2.3677
    -2.3236  -2.2974  -2.2508  -2.2145  -2.1754  -2.1228  -2.0455  -2.0304
    -2.0235  -2.0042  -1.9671  -1.9531  -1.8882  -1.8392  -1.7764  -1.7574
    -1.7367  -1.7282  -1.7010  -1.6899  -1.6734  -1.6250  -1.5845  -1.5714
    -1.5638  -1.5596  -1.5422  -1.5298  -1.5168  -1.4872  -1.4256  -1.4086
    -1.3913  -1.3829  -1.3612  -1.3470  -1.2902  -1.2612  -1.1689  -1.1477
    -1.1347  -1.1061  -1.0845  -1.0198  -1.0177  -1.0056  -0.9829  -0.9688
    -0.9596  -0.8543  -0.8047  -0.8022  -0.7848  -0.7652  -0.7299  -0.7092
    -0.6664  -0.6541  -0.6105  -0.5643  -0.5449  -0.5238  -0.4673  -0.4249
    -0.4019  -0.4009  -0.3965  -0.3480  -0.3094  -0.2519  -0.1269  -0.1106
    -0.0767  -0.0538   0.0569   0.0718   0.1020   0.2054   0.5620   0.9610
     1.0967   1.6084   1.7272   1.8551   1.9732   1.9764   2.5153   2.5552
     2.5575   2.5652   2.6835   2.6929   2.7706   2.8799   2.8828   2.9759
     2.9837   3.0522   3.0751   3.1288   3.1872   3.1922   3.2492   3.2526
     3.2566   3.2714   3.3043   3.3091   3.3219   3.3653   3.3687   3.3781
     3.4868   3.4911   3.4990   3.5168   3.5226   3.5699   3.6002   3.6389
     3.6622   3.6919   3.7679   3.7738   3.8631   3.8805   3.8930   3.9023
     3.9446   3.9935   4.0535   4.0564   4.0575   4.0608   4.1050   4.1850
     4.2055   4.2176   4.2775   4.3112   4.3259   4.3540   4.3739   4.3878
     4.3947   4.4129   4.4652   4.4819   4.5022   4.5483   4.5583   4.5618
     4.5812   4.5990   4.6277

          k = 0.2500 0.2770 0.0000 (297503 PWs)   bands (ev):

   -26.9724 -26.7488 -25.4909 -25.2943 -20.8260 -20.6736 -20.5937 -20.5883
   -20.4598 -20.4560 -20.4423 -20.3189 -20.3097 -20.2857 -20.2447 -20.2367
   -20.2105 -20.1702 -20.1083 -20.1005 -20.0747 -20.0346 -20.0024 -19.9976
   -19.9744 -19.9298 -19.9247 -19.8827 -19.8541 -19.8205 -19.8070 -19.7749
   -19.7633 -19.7232 -19.6935 -19.6737 -19.6706 -19.6530 -19.6479 -19.6403
   -19.6090 -19.6045 -19.5292 -19.5259 -19.5236 -19.5046 -19.4972 -19.4622
   -19.4289 -19.4081 -19.3850 -19.3791 -19.3728 -19.3387 -19.3089 -19.2719
   -19.2701 -19.1492 -19.0969 -18.9862 -18.7233 -18.6901 -18.6590 -18.6240
   -18.5455 -18.5294 -18.5037 -18.4878 -16.1497 -14.5500 -12.3009 -10.9657
    -9.3034  -9.2931  -8.9154  -8.8198  -8.7731  -8.6469  -8.6144  -8.3520
    -8.2337  -8.1667  -8.0918  -8.0906  -7.9465  -7.9138  -7.9097  -7.8965
    -7.8503  -7.8425  -7.8185  -7.8165  -7.7343  -7.7291  -7.6851  -7.6495
    -7.6166  -7.6021  -7.5930  -7.5657  -7.5631  -7.5407  -7.5364  -7.5209
    -7.4737  -7.4422  -7.4407  -7.4039  -7.3927  -7.3840  -7.3756  -7.3514
    -7.3134  -7.2981  -7.2623  -7.2479  -7.2325  -7.2072  -7.1702  -7.1683
    -7.1466  -7.1022  -7.0821  -7.0624  -7.0564  -7.0506  -7.0430  -6.9867
    -6.9625  -6.9428  -6.9376  -6.9345  -6.9101  -6.9017  -6.8978  -6.8692
    -6.8601  -6.8585  -6.8540  -6.8518  -6.8461  -6.8418  -6.7788  -6.7213
    -6.7015  -6.6950  -6.6888  -6.6587  -6.6505  -6.6463  -6.6416  -6.6157
    -6.6044  -6.6026  -6.6007  -6.5753  -6.5687  -6.5586  -6.5527  -6.5445
    -6.5435  -6.5314  -6.5104  -6.5063  -6.5038  -6.4945  -6.4744  -6.4697
    -6.4617  -6.4459  -6.4420  -6.4379  -6.4164  -6.4127  -6.3971  -6.3875
    -6.3630  -6.3591  -6.3521  -6.3435  -6.3398  -6.3340  -6.3279  -6.3192
    -6.2904  -6.2885  -6.2756  -6.2413  -6.2364  -6.2287  -6.2236  -6.2175
    -6.1711  -6.1630  -6.1148  -6.0926  -6.0902  -6.0607  -6.0507  -6.0472
    -6.0034  -5.9926  -5.9300  -5.8985  -5.8745  -5.8687  -5.8530  -5.8234
    -5.8050  -5.8010  -5.7812  -5.7640  -5.7519  -5.7508  -5.7120  -5.6574
    -5.6483  -5.6190  -5.5832  -5.5506  -5.5458  -5.5430  -5.5326  -5.5043
    -5.4796  -5.4655  -5.4527  -5.3887  -5.3690  -5.3615  -5.3494  -5.3392
    -5.3215  -5.2801  -5.2182  -5.1989  -5.1831  -5.1681  -5.1549  -5.1463
    -5.1326  -5.1217  -5.0978  -5.0683  -5.0668  -5.0440  -5.0332  -5.0138
    -4.9988  -4.9525  -4.9416  -4.9318  -4.9178  -4.8985  -4.8549  -4.8391
    -4.8048  -4.7805  -4.7546  -4.7386  -4.6989  -4.6808  -4.6624  -4.6570
    -4.6493  -4.6433  -4.6374  -4.5306  -4.4488  -4.4179  -4.4149  -4.4014
    -4.3921  -4.3353  -4.2949  -4.2676  -4.2463  -4.2285  -4.2229  -4.2205
    -4.2191  -4.2044  -4.1987  -4.1925  -4.1791  -4.1755  -4.1660  -4.1459
    -4.1366  -4.1271  -4.1217  -4.1121  -4.0938  -4.0141  -4.0103  -4.0026
    -3.9686  -3.9625  -3.9555  -3.9425  -3.9330  -3.9208  -3.9135  -3.9088
    -3.9043  -3.9015  -3.8949  -3.8831  -3.8757  -3.8689  -3.8623  -3.8584
    -3.8433  -3.8394  -3.8153  -3.8094  -3.8061  -3.8012  -3.7829  -3.7728
    -3.7643  -3.7614  -3.7553  -3.7534  -3.7490  -3.7410  -3.7363  -3.7337
    -3.7316  -3.7308  -3.7269  -3.7245  -3.7146  -3.7119  -3.7057  -3.7032
    -3.6988  -3.6950  -3.6901  -3.6818  -3.6799  -3.6644  -3.6637  -3.6589
    -3.6485  -3.6414  -3.6359  -3.6338  -3.6220  -3.6174  -3.6135  -3.6095
    -3.6078  -3.5959  -3.5941  -3.5899  -3.5882  -3.5791  -3.5789  -3.5781
    -3.5733  -3.5705  -3.5669  -3.5661  -3.5608  -3.5571  -3.5454  -3.5364
    -3.5354  -3.5306  -3.5281  -3.5262  -3.5192  -3.5161  -3.5150  -3.5104
    -3.5038  -3.4960  -3.4900  -3.4887  -3.4706  -3.4699  -3.4675  -3.4654
    -3.4647  -3.4615  -3.4482  -3.4461  -3.4450  -3.4425  -3.4354  -3.4283
    -3.4226  -3.4152  -3.4124  -3.4101  -3.3983  -3.3924  -3.3915  -3.3895
    -3.3836  -3.3713  -3.3695  -3.3651  -3.3460  -3.3443  -3.3433  -3.3422
    -3.3397  -3.3357  -3.3349  -3.3335  -3.3307  -3.3264  -3.3105  -3.3100
    -3.3060  -3.3021  -3.2912  -3.2721  -3.2678  -3.2580  -3.2565  -3.2447
    -3.2375  -3.2268  -3.2225  -3.2186  -3.2147  -3.2101  -3.2067  -3.2021
    -3.1886  -3.1763  -3.1738  -3.1706  -3.1591  -3.1583  -3.1560  -3.1536
    -3.1489  -3.1474  -3.1327  -3.1208  -3.1202  -3.1158  -3.1035  -3.1008
    -3.1002  -3.0980  -3.0796  -3.0787  -3.0736  -3.0608  -3.0568  -3.0463
    -3.0414  -3.0231  -3.0200  -3.0029  -3.0015  -2.9963  -2.9951  -2.9920
    -2.9911  -2.9845  -2.9779  -2.9759  -2.9684  -2.9656  -2.9636  -2.9616
    -2.9582  -2.9464  -2.9391  -2.9282  -2.9252  -2.9093  -2.8971  -2.8826
    -2.8750  -2.8706  -2.8574  -2.8334  -2.8324  -2.8252  -2.8230  -2.8162
    -2.8122  -2.8034  -2.7970  -2.7912  -2.7890  -2.7820  -2.7731  -2.7712
    -2.7458  -2.7292  -2.7247  -2.7077  -2.6882  -2.6648  -2.6626  -2.6580
    -2.6559  -2.6189  -2.6135  -2.6066  -2.5976  -2.5907  -2.5701  -2.5631
    -2.5608  -2.5473  -2.5272  -2.5255  -2.5168  -2.5141  -2.5103  -2.4908
    -2.4710  -2.4672  -2.4546  -2.4272  -2.4196  -2.4072  -2.3895  -2.3316
    -2.2788  -2.2087  -2.2059  -2.1819  -2.1160  -2.0565  -2.0386  -2.0284
    -2.0200  -1.9968  -1.9563  -1.9533  -1.9292  -1.9199  -1.8452  -1.8077
    -1.8012  -1.7600  -1.7073  -1.7049  -1.6732  -1.6566  -1.5948  -1.5734
    -1.5587  -1.5489  -1.5339  -1.5088  -1.4834  -1.4269  -1.3999  -1.3190
    -1.2866  -1.2798  -1.2147  -1.2071  -1.1778  -1.1096  -1.0878  -1.0513
    -1.0310  -1.0295  -1.0085  -0.9967  -0.9907  -0.9892  -0.9654  -0.9478
    -0.9257  -0.9069  -0.8972  -0.8417  -0.8284  -0.7807  -0.7448  -0.7017
    -0.6569  -0.6526  -0.6333  -0.6010  -0.5629  -0.5536  -0.5120  -0.4890
    -0.4845  -0.4262  -0.4247  -0.4112  -0.3897  -0.3672  -0.2548  -0.1943
    -0.1504  -0.1117  -0.0455   0.0249   0.0637   0.1711   0.5157   1.1399
     1.1797   1.5075   1.9130   1.9377   2.0198   2.1166   2.3913   2.6038
     2.6282   2.6339   2.6467   2.6976   2.7600   2.7737   2.8806   2.9713
     2.9865   3.0300   3.0857   3.1111   3.1177   3.1605   3.1925   3.2430
     3.2935   3.3010   3.3033   3.3235   3.3312   3.3602   3.3753   3.3877
     3.4140   3.4941   3.4976   3.5738   3.5754   3.5773   3.6336   3.7427
     3.7524   3.7568   3.7841   3.7948   3.8340   3.8700   3.8790   3.8957
     3.9093   3.9636   3.9868   4.0041   4.0405   4.0734   4.0889   4.1573
     4.1602   4.1978   4.2118   4.2237   4.2343   4.2391   4.2417   4.3212
     4.3363   4.3625   4.3661   4.4019   4.4347   4.4557   4.4788   4.4965
     4.5302   4.5537   4.5938

          k = 0.2500-0.5777 0.0000 (297509 PWs)   bands (ev):

   -26.9724 -26.7488 -25.4909 -25.2943 -20.7312 -20.7260 -20.5893 -20.5797
   -20.4846 -20.4798 -20.3766 -20.3663 -20.3540 -20.3429 -20.2254 -20.2213
   -20.2181 -20.2115 -20.1584 -20.1471 -20.0991 -20.0890 -20.0133 -20.0082
   -19.9108 -19.9003 -19.8485 -19.8430 -19.8059 -19.7955 -19.7730 -19.7690
   -19.7394 -19.7295 -19.6851 -19.6797 -19.6549 -19.6487 -19.5999 -19.5966
   -19.5918 -19.5828 -19.5223 -19.5168 -19.5019 -19.4883 -19.4788 -19.4681
   -19.4453 -19.4362 -19.4246 -19.4179 -19.4020 -19.3895 -19.3391 -19.3334
   -19.2231 -19.2126 -19.0530 -19.0447 -18.6320 -18.6265 -18.6098 -18.5996
   -18.5791 -18.5693 -18.5529 -18.5444 -16.1497 -14.5500 -12.3009 -10.9657
    -9.3034  -9.2931  -8.8198  -8.7731  -8.5571  -8.5479  -8.3346  -8.3250
    -8.2610  -8.2523  -8.0599  -8.0489  -8.0161  -7.9940  -7.9857  -7.9652
    -7.9127  -7.9049  -7.8178  -7.7581  -7.7489  -7.7364  -7.7271  -7.7231
    -7.7070  -7.6927  -7.6922  -7.6883  -7.6814  -7.5630  -7.5574  -7.4744
    -7.4728  -7.4693  -7.4557  -7.4507  -7.4379  -7.4235  -7.4177  -7.3557
    -7.3323  -7.3034  -7.3009  -7.2888  -7.2701  -7.2609  -7.2482  -7.2431
    -7.1406  -7.1010  -7.0588  -7.0551  -7.0442  -7.0384  -7.0303  -7.0006
    -6.9695  -6.9628  -6.9429  -6.9367  -6.9312  -6.9154  -6.9029  -6.8985
    -6.8882  -6.8756  -6.8628  -6.8485  -6.8337  -6.8280  -6.7493  -6.7430
    -6.7346  -6.7258  -6.6589  -6.6515  -6.6295  -6.6273  -6.6203  -6.6168
    -6.6149  -6.6015  -6.5943  -6.5705  -6.5608  -6.5580  -6.5551  -6.5533
    -6.5496  -6.5319  -6.5220  -6.5177  -6.5131  -6.4831  -6.4731  -6.4656
    -6.4607  -6.4547  -6.4431  -6.4375  -6.4314  -6.4175  -6.4074  -6.3861
    -6.3826  -6.3724  -6.3697  -6.3281  -6.3179  -6.3138  -6.3099  -6.3063
    -6.3015  -6.2989  -6.2954  -6.2274  -6.2164  -6.1991  -6.1834  -6.1578
    -6.1498  -6.1445  -6.1351  -6.1165  -6.0922  -6.0423  -6.0275  -6.0209
    -5.9511  -5.9402  -5.9316  -5.8950  -5.8434  -5.8378  -5.8237  -5.7411
    -5.7350  -5.7228  -5.6886  -5.6666  -5.6272  -5.5840  -5.5568  -5.5424
    -5.4980  -5.4910  -5.4852  -5.4747  -5.4733  -5.4527  -5.4462  -5.3992
    -5.3887  -5.3825  -5.3670  -5.3501  -5.3409  -5.3343  -5.3041  -5.3009
    -5.2961  -5.2764  -5.2601  -5.2573  -5.2342  -5.2019  -5.1814  -5.1641
    -5.1532  -5.1288  -5.1162  -5.1105  -5.0958  -5.0940  -5.0674  -5.0544
    -5.0393  -4.9835  -4.9828  -4.9594  -4.9438  -4.9371  -4.9266  -4.9107
    -4.8594  -4.8544  -4.8218  -4.7925  -4.7827  -4.7698  -4.7225  -4.7171
    -4.6887  -4.6823  -4.6794  -4.6729  -4.6681  -4.5115  -4.4494  -4.3710
    -4.3340  -4.3326  -4.3205  -4.3021  -4.2742  -4.2611  -4.2558  -4.2440
    -4.2259  -4.2183  -4.2059  -4.1893  -4.1862  -4.1828  -4.1802  -4.1739
    -4.1715  -4.1436  -4.1352  -4.1322  -4.0649  -4.0568  -3.9728  -3.9691
    -3.9665  -3.9582  -3.9558  -3.9530  -3.9400  -3.9312  -3.9276  -3.9202
    -3.9064  -3.9042  -3.8982  -3.8924  -3.8858  -3.8816  -3.8677  -3.8661
    -3.8639  -3.8450  -3.8328  -3.8124  -3.8092  -3.8000  -3.7686  -3.7683
    -3.7647  -3.7630  -3.7612  -3.7557  -3.7535  -3.7506  -3.7441  -3.7402
    -3.7340  -3.7313  -3.7148  -3.7137  -3.7008  -3.6995  -3.6980  -3.6970
    -3.6954  -3.6885  -3.6758  -3.6704  -3.6657  -3.6620  -3.6594  -3.6519
    -3.6467  -3.6408  -3.6287  -3.6229  -3.6217  -3.6171  -3.6077  -3.6033
    -3.5927  -3.5857  -3.5849  -3.5826  -3.5823  -3.5778  -3.5741  -3.5710
    -3.5629  -3.5582  -3.5464  -3.5348  -3.5336  -3.5321  -3.5311  -3.5268
    -3.5217  -3.5089  -3.4958  -3.4897  -3.4887  -3.4836  -3.4811  -3.4753
    -3.4681  -3.4670  -3.4576  -3.4562  -3.4541  -3.4522  -3.4467  -3.4424
    -3.4351  -3.4304  -3.4293  -3.4259  -3.4210  -3.4182  -3.4121  -3.4008
    -3.3937  -3.3877  -3.3863  -3.3824  -3.3698  -3.3649  -3.3624  -3.3609
    -3.3567  -3.3460  -3.3435  -3.3415  -3.3401  -3.3391  -3.3326  -3.3190
    -3.3174  -3.3152  -3.3141  -3.3105  -3.3085  -3.3069  -3.3056  -3.2959
    -3.2793  -3.2788  -3.2771  -3.2754  -3.2737  -3.2554  -3.2484  -3.2473
    -3.2442  -3.2289  -3.2268  -3.2218  -3.2158  -3.2108  -3.2087  -3.2063
    -3.1999  -3.1991  -3.1957  -3.1901  -3.1885  -3.1815  -3.1758  -3.1731
    -3.1707  -3.1593  -3.1479  -3.1425  -3.1404  -3.1376  -3.1190  -3.1169
    -3.1035  -3.0945  -3.0918  -3.0881  -3.0829  -3.0809  -3.0802  -3.0613
    -3.0606  -3.0418  -3.0358  -3.0286  -3.0098  -3.0078  -3.0038  -2.9933
    -2.9920  -2.9863  -2.9822  -2.9815  -2.9814  -2.9788  -2.9736  -2.9729
    -2.9656  -2.9644  -2.9460  -2.9311  -2.9207  -2.9073  -2.8967  -2.8924
    -2.8886  -2.8860  -2.8788  -2.8665  -2.8632  -2.8623  -2.8556  -2.8497
    -2.8266  -2.8153  -2.8107  -2.8095  -2.8031  -2.7996  -2.7977  -2.7872
    -2.7842  -2.7788  -2.7752  -2.7462  -2.7366  -2.6915  -2.6877  -2.6763
    -2.6660  -2.6451  -2.6391  -2.6164  -2.6111  -2.5872  -2.5802  -2.5646
    -2.5532  -2.5385  -2.5356  -2.5348  -2.5284  -2.5082  -2.5000  -2.4942
    -2.4919  -2.4768  -2.4634  -2.4539  -2.4397  -2.3895  -2.3795  -2.2625
    -2.2492  -2.1660  -2.1578  -2.1458  -2.1314  -2.0621  -2.0481  -2.0216
    -1.9939  -1.9898  -1.9732  -1.9266  -1.8769  -1.8674  -1.8654  -1.8576
    -1.8474  -1.8254  -1.8209  -1.8149  -1.8006  -1.5863  -1.5807  -1.5175
    -1.4840  -1.4784  -1.4447  -1.4147  -1.3648  -1.3178  -1.3046  -1.2795
    -1.2275  -1.2260  -1.1837  -1.1751  -1.1414  -1.1344  -1.0912  -1.0619
    -1.0092  -1.0049  -0.9916  -0.9720  -0.9616  -0.8991  -0.8963  -0.8563
    -0.8338  -0.8319  -0.7781  -0.7721  -0.7612  -0.7550  -0.7246  -0.7180
    -0.7087  -0.7013  -0.6650  -0.6571  -0.6330  -0.6322  -0.6100  -0.5858
    -0.5654  -0.4818  -0.4381  -0.4311  -0.4143  -0.4114  -0.3593  -0.2938
    -0.2709  -0.2571  -0.2302  -0.0621  -0.0485   0.3314   0.3780   1.3185
     1.3647   1.5828   1.6096   2.1822   2.2197   2.2476   2.3110   2.4512
     2.4667   2.6910   2.6977   2.8229   2.8714   2.9193   2.9289   2.9587
     2.9792   3.0016   3.0507   3.0603   3.0702   3.1465   3.1719   3.1864
     3.2150   3.2202   3.2261   3.3199   3.3586   3.3632   3.3719   3.3732
     3.4173   3.4458   3.5225   3.5544   3.5547   3.5653   3.5761   3.5966
     3.7070   3.7847   3.8174   3.8349   3.8593   3.8819   3.9248   3.9771
     3.9880   4.0043   4.0159   4.0537   4.0578   4.0735   4.0831   4.1158
     4.1457   4.1571   4.1761   4.2146   4.2393   4.2740   4.2896   4.2926
     4.3235   4.3418   4.3600   4.3836   4.4107   4.4262   4.4361   4.4464
     4.4772   4.4917   4.5096

          k = 0.2500-0.2928 0.0000 (297462 PWs)   bands (ev):

   -26.9724 -26.7488 -25.4909 -25.2943 -20.8240 -20.6785 -20.5974 -20.5860
   -20.4511 -20.4499 -20.4480 -20.3246 -20.3076 -20.2878 -20.2558 -20.2306
   -20.1969 -20.1757 -20.1049 -20.1035 -20.0773 -20.0461 -19.9985 -19.9922
   -19.9686 -19.9274 -19.9259 -19.8773 -19.8477 -19.8231 -19.8101 -19.7853
   -19.7790 -19.7256 -19.6879 -19.6683 -19.6653 -19.6514 -19.6456 -19.6330
   -19.6187 -19.6069 -19.5347 -19.5280 -19.5085 -19.5076 -19.5010 -19.4547
   -19.4350 -19.4109 -19.3924 -19.3735 -19.3661 -19.3358 -19.3155 -19.2678
   -19.2674 -19.1558 -19.0988 -18.9829 -18.7209 -18.6964 -18.6521 -18.6271
   -18.5471 -18.5251 -18.5080 -18.4862 -16.1497 -14.5500 -12.3009 -10.9657
    -9.3034  -9.2931  -8.9114  -8.8198  -8.7731  -8.6508  -8.6100  -8.3572
    -8.2490  -8.1623  -8.0965  -8.0673  -7.9601  -7.9078  -7.9038  -7.9007
    -7.8570  -7.8491  -7.8173  -7.8052  -7.7407  -7.7130  -7.6872  -7.6318
    -7.6085  -7.6069  -7.5854  -7.5827  -7.5668  -7.5414  -7.5334  -7.5079
    -7.5032  -7.4497  -7.4352  -7.3986  -7.3926  -7.3914  -7.3803  -7.3373
    -7.3190  -7.3032  -7.2991  -7.2576  -7.2286  -7.1959  -7.1711  -7.1668
    -7.1509  -7.0862  -7.0731  -7.0691  -7.0555  -7.0506  -7.0226  -6.9789
    -6.9711  -6.9701  -6.9557  -6.9329  -6.9269  -6.9064  -6.9047  -6.8677
    -6.8612  -6.8548  -6.8496  -6.8420  -6.8397  -6.8331  -6.8041  -6.7211
    -6.7098  -6.6806  -6.6783  -6.6527  -6.6475  -6.6380  -6.6319  -6.6156
    -6.6061  -6.6027  -6.5950  -6.5830  -6.5729  -6.5527  -6.5491  -6.5358
    -6.5297  -6.5215  -6.5196  -6.5079  -6.5035  -6.5010  -6.4739  -6.4726
    -6.4550  -6.4437  -6.4382  -6.4312  -6.4117  -6.4054  -6.4030  -6.3887
    -6.3675  -6.3654  -6.3538  -6.3512  -6.3502  -6.3257  -6.3227  -6.2924
    -6.2895  -6.2647  -6.2536  -6.2427  -6.2384  -6.2243  -6.2218  -6.2102
    -6.1688  -6.1477  -6.0977  -6.0938  -6.0791  -6.0771  -6.0458  -6.0196
    -6.0128  -5.9947  -5.9341  -5.9135  -5.8723  -5.8636  -5.8583  -5.8546
    -5.8331  -5.8231  -5.8044  -5.7815  -5.7411  -5.7297  -5.7183  -5.6423
    -5.6387  -5.6313  -5.6218  -5.6016  -5.5898  -5.5456  -5.5225  -5.5058
    -5.4947  -5.4826  -5.4083  -5.3868  -5.3760  -5.3602  -5.3014  -5.2939
    -5.2887  -5.2733  -5.2555  -5.2286  -5.1765  -5.1684  -5.1637  -5.1388
    -5.1362  -5.1045  -5.0920  -5.0668  -5.0626  -5.0544  -5.0424  -5.0336
    -5.0274  -4.9997  -4.9394  -4.9181  -4.8940  -4.8743  -4.8548  -4.7979
    -4.7907  -4.7766  -4.7607  -4.7354  -4.6928  -4.6813  -4.6735  -4.6708
    -4.6670  -4.6195  -4.5932  -4.5676  -4.4479  -4.4301  -4.4091  -4.4022
    -4.3853  -4.3807  -4.2722  -4.2703  -4.2541  -4.2271  -4.2174  -4.2158
    -4.2017  -4.1992  -4.1947  -4.1911  -4.1867  -4.1788  -4.1716  -4.1521
    -4.1370  -4.1238  -4.1218  -4.1054  -4.0940  -4.0281  -4.0059  -4.0033
    -3.9705  -3.9615  -3.9567  -3.9336  -3.9287  -3.9173  -3.9146  -3.9097
    -3.9031  -3.8963  -3.8915  -3.8782  -3.8777  -3.8746  -3.8657  -3.8634
    -3.8510  -3.8448  -3.8125  -3.8040  -3.7958  -3.7946  -3.7925  -3.7768
    -3.7722  -3.7628  -3.7611  -3.7595  -3.7537  -3.7495  -3.7464  -3.7398
    -3.7352  -3.7337  -3.7274  -3.7261  -3.7254  -3.7220  -3.7033  -3.6969
    -3.6948  -3.6866  -3.6851  -3.6793  -3.6765  -3.6678  -3.6667  -3.6521
    -3.6490  -3.6421  -3.6363  -3.6275  -3.6218  -3.6190  -3.6132  -3.6105
    -3.6080  -3.6016  -3.5914  -3.5899  -3.5834  -3.5792  -3.5773  -3.5762
    -3.5728  -3.5695  -3.5595  -3.5499  -3.5493  -3.5461  -3.5448  -3.5392
    -3.5380  -3.5354  -3.5346  -3.5272  -3.5260  -3.5158  -3.5118  -3.4980
    -3.4925  -3.4915  -3.4890  -3.4882  -3.4729  -3.4644  -3.4636  -3.4604
    -3.4572  -3.4546  -3.4538  -3.4524  -3.4516  -3.4400  -3.4340  -3.4328
    -3.4313  -3.4297  -3.4269  -3.4146  -3.3960  -3.3926  -3.3903  -3.3877
    -3.3698  -3.3687  -3.3658  -3.3634  -3.3513  -3.3492  -3.3465  -3.3408
    -3.3361  -3.3344  -3.3316  -3.3257  -3.3242  -3.3203  -3.3116  -3.3092
    -3.3075  -3.3059  -3.3000  -3.2673  -3.2662  -3.2588  -3.2541  -3.2448
    -3.2315  -3.2298  -3.2162  -3.2146  -3.2064  -3.2034  -3.2016  -3.1918
    -3.1913  -3.1809  -3.1793  -3.1701  -3.1607  -3.1592  -3.1529  -3.1517
    -3.1491  -3.1401  -3.1358  -3.1306  -3.1245  -3.1092  -3.1074  -3.1062
    -3.0979  -3.0901  -3.0899  -3.0816  -3.0756  -3.0727  -3.0674  -3.0447
    -3.0197  -3.0181  -3.0153  -3.0145  -3.0063  -3.0006  -2.9951  -2.9938
    -2.9897  -2.9884  -2.9855  -2.9813  -2.9784  -2.9682  -2.9670  -2.9571
    -2.9565  -2.9454  -2.9392  -2.9354  -2.9282  -2.9139  -2.9009  -2.8818
    -2.8785  -2.8744  -2.8709  -2.8502  -2.8286  -2.8203  -2.8183  -2.8169
    -2.8130  -2.7969  -2.7930  -2.7865  -2.7848  -2.7756  -2.7708  -2.7643
    -2.7435  -2.7268  -2.7215  -2.7180  -2.6965  -2.6677  -2.6651  -2.6536
    -2.6508  -2.6285  -2.6091  -2.6025  -2.5943  -2.5921  -2.5679  -2.5629
    -2.5530  -2.5436  -2.5277  -2.5262  -2.5200  -2.5177  -2.5113  -2.4960
    -2.4696  -2.4680  -2.4503  -2.4356  -2.4237  -2.4213  -2.3918  -2.3328
    -2.2611  -2.2095  -2.2013  -2.1737  -2.1005  -2.0570  -2.0481  -2.0270
    -2.0246  -1.9698  -1.9608  -1.9547  -1.9256  -1.9071  -1.8451  -1.8124
    -1.8038  -1.7573  -1.7416  -1.7204  -1.6555  -1.6434  -1.5977  -1.5730
    -1.5636  -1.5514  -1.5347  -1.4909  -1.4503  -1.4134  -1.3802  -1.3357
    -1.3115  -1.2672  -1.2606  -1.2494  -1.1115  -1.1066  -1.0881  -1.0563
    -1.0457  -1.0400  -1.0357  -1.0338  -0.9948  -0.9608  -0.9332  -0.9244
    -0.9223  -0.9136  -0.8898  -0.8497  -0.7981  -0.7796  -0.7434  -0.7165
    -0.6961  -0.6361  -0.6279  -0.6211  -0.5784  -0.5577  -0.5162  -0.4980
    -0.4805  -0.4259  -0.4237  -0.4056  -0.3980  -0.3957  -0.2351  -0.1513
    -0.1324  -0.1072  -0.0839   0.0119   0.0820   0.2151   0.4847   1.1538
     1.1584   1.5474   1.8706   1.9514   2.0119   2.1274   2.3848   2.5803
     2.6065   2.6327   2.6422   2.6766   2.7548   2.7981   2.9010   2.9696
     2.9781   3.0534   3.1163   3.1183   3.1397   3.1456   3.1975   3.2341
     3.2591   3.2851   3.3155   3.3255   3.3433   3.3449   3.3617   3.3717
     3.3900   3.4960   3.4997   3.5504   3.5901   3.6390   3.6615   3.7250
     3.7284   3.7328   3.7406   3.8221   3.8290   3.8645   3.9117   3.9281
     3.9309   3.9590   3.9702   4.0556   4.0589   4.0648   4.0759   4.1349
     4.1585   4.1972   4.2039   4.2211   4.2440   4.2502   4.3144   4.3278
     4.3352   4.3484   4.3600   4.4181   4.4359   4.4734   4.4791   4.5319
     4.5420   4.5877   4.6199

          k =-0.5000 0.0158 0.0000 (297332 PWs)   bands (ev):

   -26.9724 -26.7488 -25.4908 -25.2943 -20.8006 -20.7986 -20.5670 -20.5654
   -20.4581 -20.4532 -20.3825 -20.3797 -20.2851 -20.2830 -20.1657 -20.1655
   -20.1520 -20.1515 -20.0606 -20.0554 -20.0541 -20.0531 -20.0057 -20.0038
   -19.9873 -19.9868 -19.9297 -19.9280 -19.9039 -19.9034 -19.8541 -19.8520
   -19.7520 -19.7507 -19.6707 -19.6695 -19.6687 -19.6662 -19.6186 -19.6151
   -19.6147 -19.6067 -19.5938 -19.5889 -19.5665 -19.5656 -19.4410 -19.4363
   -19.4360 -19.4282 -19.3551 -19.3544 -19.3245 -19.3235 -19.2594 -19.2593
   -19.1916 -19.1814 -19.0230 -19.0123 -18.7578 -18.7480 -18.6834 -18.6740
   -18.5120 -18.5021 -18.4755 -18.4659 -16.1497 -14.5500 -12.3009 -10.9657
    -9.3034  -9.2931  -8.9358  -8.9355  -8.8198  -8.7731  -8.6304  -8.6281
    -8.1512  -8.1490  -8.1362  -8.1331  -7.8483  -7.8449  -7.8302  -7.8299
    -7.8266  -7.8190  -7.8157  -7.7605  -7.7521  -7.5878  -7.5838  -7.5771
    -7.5766  -7.5049  -7.4914  -7.4905  -7.4858  -7.4764  -7.4716  -7.4429
    -7.4409  -7.4043  -7.3942  -7.3929  -7.3915  -7.3712  -7.3646  -7.3469
    -7.3443  -7.2996  -7.2785  -7.2706  -7.2698  -7.2681  -7.2631  -7.2619
    -7.0829  -7.0805  -7.0773  -7.0768  -7.0433  -7.0410  -7.0049  -7.0039
    -6.9127  -6.9102  -6.9045  -6.9037  -6.8951  -6.8901  -6.8725  -6.8694
    -6.8692  -6.8603  -6.8538  -6.8518  -6.8447  -6.8336  -6.7864  -6.7817
    -6.7475  -6.7349  -6.7322  -6.7318  -6.7262  -6.7246  -6.6414  -6.6387
    -6.6155  -6.6081  -6.6004  -6.5995  -6.5978  -6.5505  -6.5474  -6.5299
    -6.5273  -6.5238  -6.5203  -6.5158  -6.5135  -6.4957  -6.4937  -6.4495
    -6.4491  -6.4474  -6.4452  -6.4112  -6.4092  -6.4037  -6.3958  -6.3905
    -6.3893  -6.3538  -6.3510  -6.3494  -6.3481  -6.3418  -6.3407  -6.3306
    -6.3296  -6.3053  -6.3013  -6.2346  -6.2336  -6.2245  -6.2117  -6.2094
    -6.1951  -6.1881  -6.1775  -6.1766  -6.0894  -6.0864  -6.0154  -6.0117
    -5.9816  -5.9812  -5.9504  -5.9448  -5.8814  -5.8768  -5.8462  -5.8401
    -5.8288  -5.8123  -5.8076  -5.7904  -5.7881  -5.7157  -5.7153  -5.7062
    -5.7030  -5.5954  -5.5897  -5.5818  -5.5813  -5.5660  -5.5585  -5.5028
    -5.4992  -5.4978  -5.4901  -5.4550  -5.4531  -5.4048  -5.3878  -5.3875
    -5.3610  -5.2830  -5.2820  -5.2084  -5.1974  -5.1456  -5.0678  -5.0545
    -5.0356  -5.0274  -5.0022  -4.9970  -4.9794  -4.9687  -4.9656  -4.9572
    -4.9355  -4.9263  -4.9260  -4.9230  -4.9182  -4.9013  -4.8884  -4.8664
    -4.8568  -4.8524  -4.7709  -4.7622  -4.7600  -4.7528  -4.7465  -4.7377
    -4.6798  -4.5762  -4.5735  -4.5369  -4.5337  -4.4920  -4.4852  -4.2652
    -4.2534  -4.2465  -4.2329  -4.2288  -4.2242  -4.2214  -4.2193  -4.2182
    -4.1786  -4.1736  -4.1725  -4.1680  -4.1535  -4.1482  -4.1386  -4.1351
    -4.1259  -4.1204  -4.0994  -4.0949  -4.0650  -4.0591  -4.0236  -4.0218
    -3.9552  -3.9498  -3.9184  -3.9164  -3.9131  -3.9097  -3.9084  -3.9065
    -3.9005  -3.8979  -3.8968  -3.8964  -3.8948  -3.8919  -3.8609  -3.8579
    -3.8341  -3.8318  -3.8166  -3.8147  -3.8072  -3.8012  -3.7937  -3.7899
    -3.7810  -3.7762  -3.7733  -3.7646  -3.7549  -3.7532  -3.7484  -3.7452
    -3.7384  -3.7366  -3.7270  -3.7218  -3.7126  -3.7122  -3.7107  -3.7066
    -3.7023  -3.6955  -3.6936  -3.6851  -3.6843  -3.6818  -3.6663  -3.6646
    -3.6630  -3.6623  -3.6616  -3.6593  -3.6519  -3.6492  -3.6410  -3.6401
    -3.6394  -3.6370  -3.6162  -3.6155  -3.6137  -3.6091  -3.6031  -3.6008
    -3.5936  -3.5919  -3.5872  -3.5838  -3.5829  -3.5822  -3.5785  -3.5757
    -3.5747  -3.5730  -3.5704  -3.5667  -3.5455  -3.5433  -3.5289  -3.5278
    -3.5244  -3.5223  -3.5116  -3.5070  -3.4875  -3.4859  -3.4763  -3.4736
    -3.4669  -3.4656  -3.4613  -3.4573  -3.4554  -3.4520  -3.4335  -3.4302
    -3.4283  -3.4266  -3.4222  -3.4214  -3.4146  -3.4136  -3.4053  -3.4015
    -3.3968  -3.3948  -3.3929  -3.3919  -3.3539  -3.3535  -3.3508  -3.3478
    -3.3441  -3.3366  -3.3355  -3.3342  -3.3336  -3.3229  -3.3180  -3.2893
    -3.2807  -3.2727  -3.2712  -3.2707  -3.2645  -3.2525  -3.2478  -3.2462
    -3.2432  -3.2368  -3.2329  -3.2096  -3.1977  -3.1854  -3.1797  -3.1773
    -3.1647  -3.1642  -3.1580  -3.1507  -3.1487  -3.1469  -3.1420  -3.1315
    -3.1312  -3.1263  -3.1240  -3.1096  -3.1085  -3.1067  -3.1049  -3.0900
    -3.0878  -3.0777  -3.0726  -3.0597  -3.0589  -3.0351  -3.0329  -3.0137
    -3.0058  -3.0004  -2.9934  -2.9922  -2.9889  -2.9837  -2.9822  -2.9735
    -2.9728  -2.9655  -2.9565  -2.9544  -2.9510  -2.9504  -2.9456  -2.9430
    -2.9415  -2.9401  -2.9356  -2.9230  -2.9194  -2.9126  -2.9059  -2.8503
    -2.8439  -2.8393  -2.8365  -2.8364  -2.8334  -2.8320  -2.8294  -2.7976
    -2.7949  -2.7940  -2.7900  -2.7758  -2.7639  -2.7546  -2.7493  -2.7338
    -2.7330  -2.6952  -2.6821  -2.6510  -2.6434  -2.6430  -2.6390  -2.6376
    -2.6358  -2.6335  -2.6321  -2.6060  -2.6012  -2.5867  -2.5842  -2.5641
    -2.5583  -2.5359  -2.5281  -2.5124  -2.5039  -2.4813  -2.4744  -2.4659
    -2.4484  -2.4372  -2.4309  -2.3942  -2.3889  -2.3865  -2.3846  -2.3699
    -2.3571  -2.3414  -2.3379  -2.2268  -2.2153  -2.1490  -2.1372  -2.0460
    -2.0421  -1.9164  -1.8942  -1.8767  -1.8588  -1.8276  -1.8012  -1.7623
    -1.7551  -1.6491  -1.6450  -1.6421  -1.6386  -1.6343  -1.6299  -1.5946
    -1.5842  -1.5436  -1.5429  -1.5173  -1.5163  -1.4684  -1.4665  -1.3921
    -1.3893  -1.3097  -1.3094  -1.2450  -1.2434  -1.1866  -1.1857  -1.0984
    -1.0963  -1.0951  -1.0920  -1.0485  -1.0444  -1.0358  -1.0353  -1.0036
    -1.0018  -0.9639  -0.9256  -0.8166  -0.8102  -0.7703  -0.7676  -0.6543
    -0.6430  -0.6121  -0.6091  -0.5153  -0.5110  -0.4821  -0.4739  -0.4397
    -0.4280  -0.4243  -0.4174  -0.3505  -0.3483  -0.3016  -0.2628  -0.1695
    -0.1683  -0.0422  -0.0367   0.1442   0.1537   0.5533   0.6257   0.9843
     1.0649   1.2808   1.2845   2.1613   2.1680   2.1825   2.1940   2.2282
     2.2397   2.7562   2.7624   2.8096   2.8155   2.9699   2.9778   3.0664
     3.0713   3.0732   3.0790   3.1663   3.1760   3.2093   3.2147   3.2311
     3.2534   3.2605   3.3311   3.3419   3.4162   3.4334   3.4392   3.4540
     3.4732   3.4769   3.4800   3.5711   3.6139   3.6515   3.6560   3.6905
     3.7134   3.7261   3.7615   3.7757   3.7817   3.8295   3.8333   3.9182
     3.9275   4.0484   4.0638   4.0696   4.0721   4.0782   4.0992   4.1746
     4.1853   4.2350   4.2520   4.2531   4.2666   4.3475   4.3550   4.3607
     4.4445   4.4532   4.4536   4.4841   4.5197   4.5211   4.5366   4.6017
     4.6044   4.6054   4.6563

          k =-0.5000 0.3007 0.0000 (297403 PWs)   bands (ev):

   -26.9724 -26.7488 -25.4909 -25.2943 -20.7682 -20.7640 -20.5437 -20.5357
   -20.5333 -20.5287 -20.3569 -20.3521 -20.2796 -20.2690 -20.2572 -20.2526
   -20.1680 -20.1583 -20.1424 -20.1377 -20.0613 -20.0539 -19.9768 -19.9758
   -19.9699 -19.9688 -19.8848 -19.8802 -19.8407 -19.8342 -19.8260 -19.8140
   -19.7170 -19.7136 -19.7083 -19.7075 -19.6528 -19.6424 -19.6252 -19.6190
   -19.5979 -19.5857 -19.5826 -19.5717 -19.4902 -19.4843 -19.4740 -19.4736
   -19.4621 -19.4604 -19.3962 -19.3910 -19.3610 -19.3553 -19.2888 -19.2837
   -19.1734 -19.1627 -19.0587 -19.0467 -18.7158 -18.7048 -18.6436 -18.6324
   -18.5437 -18.5330 -18.5001 -18.4897 -16.1497 -14.5500 -12.3009 -10.9657
    -9.3034  -9.2931  -8.8198  -8.8125  -8.8066  -8.7731  -8.5147  -8.5076
    -8.0741  -8.0643  -8.0568  -8.0397  -8.0211  -8.0106  -7.8181  -7.8133
    -7.8038  -7.7819  -7.7799  -7.7748  -7.7511  -7.7022  -7.6834  -7.6787
    -7.6508  -7.5805  -7.5484  -7.5472  -7.5438  -7.5404  -7.5324  -7.4983
    -7.4909  -7.4537  -7.4528  -7.4457  -7.4421  -7.4392  -7.4189  -7.3711
    -7.3549  -7.3374  -7.3201  -7.3126  -7.3078  -7.2944  -7.2368  -7.2319
    -7.1460  -7.1348  -7.1045  -7.1014  -7.0930  -7.0795  -7.0719  -7.0397
    -6.9330  -6.9215  -6.9194  -6.9089  -6.8982  -6.8962  -6.8938  -6.8926
    -6.8835  -6.8805  -6.8323  -6.8213  -6.8172  -6.8074  -6.7739  -6.7699
    -6.7528  -6.7333  -6.6861  -6.6829  -6.6379  -6.6374  -6.6296  -6.6254
    -6.6146  -6.6073  -6.6033  -6.5906  -6.5802  -6.5694  -6.5681  -6.5653
    -6.5551  -6.5524  -6.5313  -6.5269  -6.5223  -6.5216  -6.5180  -6.5099
    -6.4841  -6.4721  -6.4548  -6.4229  -6.4148  -6.4096  -6.4056  -6.3884
    -6.3823  -6.3589  -6.3502  -6.3372  -6.3272  -6.3213  -6.3191  -6.3024
    -6.2944  -6.2858  -6.2847  -6.2743  -6.2608  -6.2365  -6.2289  -6.2162
    -6.2142  -6.2008  -6.0422  -5.9897  -5.9793  -5.9720  -5.9685  -5.9258
    -5.9242  -5.9089  -5.8677  -5.8548  -5.8528  -5.8425  -5.8219  -5.7428
    -5.7342  -5.7036  -5.6688  -5.6656  -5.6550  -5.6518  -5.6431  -5.6174
    -5.5830  -5.5522  -5.5383  -5.5365  -5.5280  -5.5074  -5.5058  -5.5042
    -5.4616  -5.4453  -5.4425  -5.4263  -5.4091  -5.4050  -5.3876  -5.3679
    -5.3607  -5.3280  -5.2785  -5.1947  -5.1873  -5.1717  -5.1650  -5.1462
    -5.1367  -5.1208  -5.1122  -5.1013  -5.0955  -5.0573  -5.0399  -5.0055
    -5.0027  -4.9727  -4.9421  -4.9370  -4.9218  -4.9117  -4.8849  -4.8548
    -4.8143  -4.7904  -4.7777  -4.7685  -4.7437  -4.7398  -4.7272  -4.7234
    -4.6980  -4.6966  -4.6840  -4.6780  -4.6366  -4.4133  -4.4103  -4.3866
    -4.3805  -4.2922  -4.2877  -4.2644  -4.2487  -4.2283  -4.2216  -4.2069
    -4.2033  -4.2026  -4.1909  -4.1891  -4.1689  -4.1668  -4.1617  -4.1545
    -4.1492  -4.1418  -4.1034  -4.0960  -4.0844  -4.0785  -4.0483  -4.0318
    -3.9878  -3.9771  -3.9737  -3.9635  -3.9425  -3.9393  -3.9365  -3.9267
    -3.9202  -3.9093  -3.9035  -3.8902  -3.8806  -3.8746  -3.8253  -3.8234
    -3.8156  -3.8128  -3.8084  -3.8058  -3.8018  -3.7937  -3.7895  -3.7770
    -3.7724  -3.7671  -3.7651  -3.7580  -3.7562  -3.7492  -3.7473  -3.7396
    -3.7386  -3.7216  -3.7209  -3.7181  -3.7138  -3.7102  -3.7084  -3.6984
    -3.6953  -3.6924  -3.6878  -3.6856  -3.6815  -3.6785  -3.6770  -3.6639
    -3.6621  -3.6503  -3.6410  -3.6394  -3.6375  -3.6342  -3.6315  -3.6217
    -3.6012  -3.5996  -3.5971  -3.5905  -3.5868  -3.5852  -3.5807  -3.5763
    -3.5762  -3.5739  -3.5734  -3.5685  -3.5596  -3.5569  -3.5431  -3.5407
    -3.5389  -3.5338  -3.5295  -3.5216  -3.5125  -3.5052  -3.5036  -3.5015
    -3.4987  -3.4913  -3.4832  -3.4718  -3.4703  -3.4698  -3.4676  -3.4626
    -3.4613  -3.4606  -3.4493  -3.4384  -3.4361  -3.4330  -3.4305  -3.4244
    -3.4232  -3.4205  -3.4178  -3.4062  -3.4021  -3.3879  -3.3729  -3.3698
    -3.3687  -3.3672  -3.3664  -3.3648  -3.3633  -3.3560  -3.3388  -3.3378
    -3.3359  -3.3319  -3.3296  -3.3162  -3.3137  -3.3076  -3.3010  -3.2916
    -3.2903  -3.2878  -3.2796  -3.2714  -3.2645  -3.2611  -3.2595  -3.2574
    -3.2416  -3.2266  -3.2133  -3.2130  -3.2097  -3.2071  -3.2040  -3.1921
    -3.1911  -3.1869  -3.1809  -3.1786  -3.1693  -3.1643  -3.1633  -3.1456
    -3.1412  -3.1363  -3.1317  -3.1314  -3.1225  -3.1214  -3.1145  -3.1101
    -3.1034  -3.0948  -3.0870  -3.0794  -3.0645  -3.0632  -3.0617  -3.0459
    -3.0383  -3.0219  -3.0137  -3.0082  -3.0019  -2.9969  -2.9921  -2.9889
    -2.9860  -2.9814  -2.9802  -2.9747  -2.9711  -2.9661  -2.9622  -2.9583
    -2.9424  -2.9391  -2.9329  -2.9197  -2.9088  -2.8563  -2.8551  -2.8515
    -2.8443  -2.8430  -2.8363  -2.8299  -2.8286  -2.8160  -2.8124  -2.8050
    -2.7995  -2.7952  -2.7924  -2.7854  -2.7814  -2.7669  -2.7574  -2.7374
    -2.7311  -2.7188  -2.7002  -2.6986  -2.6897  -2.6709  -2.6643  -2.6632
    -2.6610  -2.6381  -2.6272  -2.6239  -2.6183  -2.6105  -2.6099  -2.6018
    -2.5897  -2.5485  -2.5413  -2.5305  -2.5250  -2.5243  -2.5182  -2.4873
    -2.4773  -2.4580  -2.4485  -2.4135  -2.4042  -2.3655  -2.3612  -2.3565
    -2.3349  -2.2435  -2.2270  -2.2192  -2.2058  -2.1246  -2.1027  -1.9748
    -1.9702  -1.9527  -1.9180  -1.9125  -1.9103  -1.8992  -1.8915  -1.8557
    -1.8284  -1.8084  -1.7725  -1.6629  -1.6521  -1.6081  -1.6056  -1.5546
    -1.5401  -1.5207  -1.5038  -1.4371  -1.3732  -1.3663  -1.3245  -1.2759
    -1.2274  -1.2078  -1.2065  -1.1991  -1.1859  -1.1279  -1.1094  -1.0786
    -1.0729  -1.0238  -1.0225  -1.0118  -0.9991  -0.9641  -0.9611  -0.9533
    -0.9278  -0.9191  -0.9166  -0.8878  -0.8540  -0.8155  -0.7821  -0.7275
    -0.7147  -0.6119  -0.5911  -0.5669  -0.5523  -0.5505  -0.5414  -0.4880
    -0.4652  -0.4577  -0.4452  -0.4005  -0.3795  -0.3577  -0.3230  -0.3221
    -0.2893  -0.1418  -0.1068  -0.0030   0.0298   0.6166   0.6991   0.9158
     1.0027   1.4470   1.4796   2.2346   2.2528   2.2637   2.2704   2.3627
     2.3850   2.5924   2.6093   2.8161   2.8289   2.8456   2.8740   2.8874
     2.9019   3.1323   3.1490   3.1538   3.1576   3.2402   3.2617   3.2706
     3.2776   3.2932   3.3149   3.3442   3.4610   3.4684   3.4761   3.5106
     3.5301   3.5450   3.5519   3.5547   3.6101   3.6359   3.6425   3.6457
     3.6563   3.7403   3.8261   3.8316   3.8568   3.8591   3.8836   3.9047
     3.9432   3.9839   4.0079   4.0244   4.0305   4.0493   4.0920   4.0945
     4.1103   4.1348   4.1650   4.1918   4.2033   4.2407   4.2584   4.2894
     4.3083   4.3319   4.3565   4.3703   4.3760   4.4235   4.4717   4.5346
     4.5489   4.5658   4.6257

          k =-0.5000-0.5540 0.0000 (297400 PWs)   bands (ev):

   -26.9724 -26.7488 -25.4909 -25.2943 -20.6763 -20.6747 -20.6684 -20.6668
   -20.4340 -20.4327 -20.4257 -20.4239 -20.2832 -20.2820 -20.2745 -20.2724
   -20.1768 -20.1750 -20.1690 -20.1672 -20.0732 -20.0714 -20.0639 -20.0631
   -19.8331 -19.8312 -19.8293 -19.8278 -19.8236 -19.8232 -19.8211 -19.8203
   -19.7099 -19.7069 -19.7009 -19.6989 -19.6330 -19.6323 -19.6222 -19.6217
   -19.5448 -19.5420 -19.5363 -19.5256 -19.5036 -19.5024 -19.4948 -19.4938
   -19.4574 -19.4566 -19.4465 -19.4461 -19.3658 -19.3657 -19.3565 -19.3555
   -19.1262 -19.1216 -19.1155 -19.1070 -18.6263 -18.6241 -18.6170 -18.6091
   -18.5671 -18.5638 -18.5573 -18.5491 -16.1497 -14.5500 -12.3009 -10.9657
    -9.3034  -9.2931  -8.8198  -8.7731  -8.4713  -8.4687  -8.4585  -8.4573
    -8.1837  -8.1825  -8.1704  -8.1685  -7.8886  -7.8881  -7.8286  -7.8284
    -7.8271  -7.8266  -7.8181  -7.8151  -7.8137  -7.7147  -7.7133  -7.7086
    -7.7057  -7.6604  -7.6580  -7.6553  -7.6543  -7.6232  -7.6222  -7.5726
    -7.5707  -7.4663  -7.4656  -7.4508  -7.4494  -7.3976  -7.3931  -7.3886
    -7.3842  -7.3133  -7.3095  -7.3004  -7.2969  -7.2918  -7.2619  -7.2585
    -7.2259  -7.2255  -7.1554  -7.1543  -7.1268  -7.1265  -6.9883  -6.9882
    -6.9694  -6.9685  -6.9330  -6.9315  -6.9184  -6.9175  -6.8681  -6.8664
    -6.8623  -6.8586  -6.8210  -6.8200  -6.8135  -6.8067  -6.8007  -6.7980
    -6.7881  -6.7873  -6.6580  -6.6557  -6.6504  -6.6490  -6.6152  -6.6092
    -6.6078  -6.6030  -6.6010  -6.5852  -6.5830  -6.5722  -6.5631  -6.5564
    -6.5557  -6.5403  -6.5381  -6.5345  -6.5330  -6.5172  -6.5169  -6.4834
    -6.4817  -6.4779  -6.4755  -6.4416  -6.4388  -6.4299  -6.4264  -6.3917
    -6.3896  -6.3869  -6.3854  -6.3551  -6.3503  -6.3477  -6.3445  -6.2780
    -6.2770  -6.2755  -6.2731  -6.2401  -6.2387  -6.2360  -6.2353  -6.2246
    -6.0926  -6.0914  -6.0853  -6.0851  -5.9458  -5.9446  -5.9092  -5.9085
    -5.8239  -5.7981  -5.7975  -5.7890  -5.7873  -5.7505  -5.7484  -5.6671
    -5.6660  -5.6396  -5.6383  -5.5670  -5.5661  -5.5090  -5.5054  -5.4959
    -5.4946  -5.4302  -5.4292  -5.4280  -5.4238  -5.4213  -5.4165  -5.3870
    -5.3694  -5.3685  -5.3611  -5.3538  -5.3517  -5.3417  -5.3339  -5.3268
    -5.3260  -5.2890  -5.2875  -5.2794  -5.2754  -5.2454  -5.2453  -5.2244
    -5.2239  -5.1898  -5.1891  -5.1308  -5.0447  -5.0439  -5.0358  -5.0314
    -5.0266  -5.0262  -4.9981  -4.9923  -4.9830  -4.9803  -4.9653  -4.9585
    -4.9140  -4.8546  -4.8473  -4.8416  -4.7919  -4.7853  -4.7670  -4.7589
    -4.7558  -4.7492  -4.7006  -4.6998  -4.6918  -4.6890  -4.6770  -4.3050
    -4.3044  -4.2871  -4.2854  -4.2831  -4.2809  -4.2752  -4.2713  -4.2517
    -4.2468  -4.2248  -4.2165  -4.2155  -4.1633  -4.1608  -4.1542  -4.1479
    -4.1441  -4.1423  -4.1202  -4.1179  -4.0445  -4.0435  -4.0253  -4.0207
    -3.9886  -3.9883  -3.9793  -3.9780  -3.9586  -3.9539  -3.9496  -3.9474
    -3.9350  -3.9344  -3.9287  -3.9248  -3.8738  -3.8716  -3.8528  -3.8444
    -3.8324  -3.8311  -3.8238  -3.8201  -3.7991  -3.7859  -3.7590  -3.7579
    -3.7520  -3.7495  -3.7448  -3.7434  -3.7391  -3.7386  -3.7382  -3.7377
    -3.7303  -3.7293  -3.7276  -3.7231  -3.7089  -3.7071  -3.7058  -3.7051
    -3.6975  -3.6968  -3.6889  -3.6883  -3.6722  -3.6719  -3.6673  -3.6654
    -3.6459  -3.6451  -3.6346  -3.6341  -3.6334  -3.6321  -3.6162  -3.6148
    -3.5801  -3.5798  -3.5764  -3.5760  -3.5754  -3.5751  -3.5633  -3.5622
    -3.5583  -3.5578  -3.5544  -3.5537  -3.5455  -3.5440  -3.5373  -3.5344
    -3.4954  -3.4951  -3.4875  -3.4867  -3.4858  -3.4847  -3.4747  -3.4735
    -3.4617  -3.4609  -3.4571  -3.4562  -3.4515  -3.4498  -3.4402  -3.4389
    -3.4292  -3.4283  -3.4225  -3.4215  -3.4118  -3.4089  -3.4080  -3.4043
    -3.4016  -3.3987  -3.3962  -3.3896  -3.3680  -3.3664  -3.3648  -3.3637
    -3.3505  -3.3500  -3.3482  -3.3466  -3.3457  -3.3443  -3.3337  -3.3181
    -3.3175  -3.3011  -3.2996  -3.2890  -3.2880  -3.2879  -3.2869  -3.2816
    -3.2799  -3.2593  -3.2583  -3.2559  -3.2546  -3.2502  -3.2494  -3.2458
    -3.2441  -3.2428  -3.2415  -3.2307  -3.2294  -3.2283  -3.2262  -3.2168
    -3.2164  -3.2124  -3.2105  -3.2095  -3.2088  -3.1945  -3.1933  -3.1752
    -3.1734  -3.1680  -3.1616  -3.1495  -3.1466  -3.1443  -3.1422  -3.1393
    -3.1389  -3.0958  -3.0942  -3.0876  -3.0864  -3.0808  -3.0792  -3.0639
    -3.0627  -3.0210  -3.0204  -3.0156  -3.0142  -3.0114  -3.0089  -3.0059
    -3.0043  -2.9771  -2.9763  -2.9760  -2.9753  -2.9681  -2.9633  -2.9572
    -2.9564  -2.8970  -2.8955  -2.8785  -2.8764  -2.8749  -2.8724  -2.8695
    -2.8672  -2.8453  -2.8443  -2.8228  -2.8211  -2.8207  -2.8180  -2.8146
    -2.8129  -2.8010  -2.7995  -2.7951  -2.7933  -2.7878  -2.7872  -2.7818
    -2.7799  -2.7490  -2.7473  -2.7325  -2.7283  -2.6832  -2.6819  -2.6805
    -2.6798  -2.6713  -2.6696  -2.6692  -2.6682  -2.6211  -2.6192  -2.6071
    -2.6043  -2.5632  -2.5573  -2.5569  -2.5525  -2.4946  -2.4927  -2.4874
    -2.4745  -2.4511  -2.4483  -2.4439  -2.4330  -2.3499  -2.3464  -2.3298
    -2.3256  -2.1484  -2.1476  -2.1347  -2.1334  -2.1033  -2.0980  -2.0897
    -2.0867  -1.9472  -1.9430  -1.9152  -1.9112  -1.9009  -1.8957  -1.8893
    -1.8613  -1.8152  -1.8108  -1.8049  -1.8038  -1.5480  -1.5453  -1.5385
    -1.5358  -1.3586  -1.3578  -1.3008  -1.2998  -1.2620  -1.2604  -1.2057
    -1.2039  -1.1986  -1.1974  -1.1183  -1.1163  -1.0894  -1.0884  -1.0426
    -1.0410  -1.0152  -1.0119  -0.9924  -0.9916  -0.8996  -0.8969  -0.8694
    -0.8679  -0.7733  -0.7729  -0.7676  -0.7658  -0.7509  -0.7500  -0.7304
    -0.7296  -0.7016  -0.7005  -0.6951  -0.6938  -0.6401  -0.6399  -0.6051
    -0.6050  -0.4527  -0.4506  -0.4376  -0.4287  -0.3330  -0.3307  -0.3052
    -0.3023  -0.2901  -0.2845  -0.2638  -0.2606   0.7599   0.7676   0.8408
     0.8670   1.8637   1.8656   1.9109   1.9130   2.4614   2.4648   2.5270
     2.5299   2.6777   2.6819   2.6973   2.7059   2.8687   2.8711   2.8849
     2.8898   3.0472   3.0479   3.0811   3.0827   3.2459   3.2489   3.2548
     3.2640   3.3331   3.3348   3.3414   3.3456   3.3938   3.4797   3.4814
     3.5102   3.5143   3.5206   3.5234   3.5460   3.5489   3.6790   3.7548
     3.7617   3.7863   3.7943   3.8469   3.8575   3.8658   3.8908   3.9289
     3.9389   3.9510   3.9550   3.9789   4.0287   4.1002   4.1068   4.1189
     4.1224   4.1615   4.1643   4.1707   4.1758   4.1773   4.1874   4.2228
     4.2533   4.4183   4.4488   4.4594   4.4617   4.4848   4.4860   4.5065
     4.5115   4.5327   4.5388

 ------ SPIN DOWN ----------


          k = 0.0000 0.0000 0.0000 (297339 PWs)   bands (ev):

   -26.9724 -26.7488 -25.4909 -25.2943 -20.8666 -20.6415 -20.5836 -20.5833
   -20.5178 -20.3712 -20.3696 -20.3525 -20.2725 -20.2472 -20.2467 -20.1795
   -20.1200 -20.0948 -20.0939 -20.0738 -20.0590 -20.0583 -20.0318 -19.9951
   -19.9576 -19.9372 -19.9279 -19.9266 -19.8619 -19.8612 -19.8161 -19.8134
   -19.7726 -19.7546 -19.7533 -19.6975 -19.6743 -19.6739 -19.6674 -19.6134
   -19.6130 -19.5819 -19.5740 -19.5589 -19.5181 -19.4869 -19.4565 -19.4111
   -19.4088 -19.3782 -19.3770 -19.3698 -19.3044 -19.3035 -19.2967 -19.2376
   -19.2367 -19.2349 -19.0937 -18.9271 -18.7722 -18.7200 -18.7179 -18.6666
   -18.5190 -18.4941 -18.4901 -18.4660 -16.1497 -14.5500 -12.3009 -10.9657
    -9.3034  -9.2931  -9.0754  -8.8198  -8.7735  -8.7720  -8.5467  -8.5466
    -8.2943  -8.2525  -8.2513  -8.1959  -7.9414  -7.9192  -7.9176  -7.8659
    -7.8577  -7.8176  -7.7699  -7.7692  -7.7228  -7.6198  -7.6164  -7.6141
    -7.5867  -7.5699  -7.5684  -7.5682  -7.5345  -7.4888  -7.4375  -7.4240
    -7.4196  -7.4192  -7.3728  -7.3719  -7.3208  -7.3018  -7.1887  -7.1885
    -7.1763  -7.1718  -7.1693  -7.1671  -7.1413  -7.1381  -7.1164  -7.1159
    -7.0727  -7.0700  -7.0672  -7.0592  -6.9965  -6.9706  -6.9463  -6.9346
    -6.9073  -6.9066  -6.8917  -6.8806  -6.8775  -6.8740  -6.8721  -6.8475
    -6.8391  -6.8237  -6.8123  -6.7552  -6.7518  -6.7486  -6.7450  -6.7354
    -6.6988  -6.6960  -6.6943  -6.6550  -6.6530  -6.6470  -6.6432  -6.6357
    -6.6355  -6.6162  -6.5975  -6.5920  -6.5901  -6.5685  -6.5661  -6.5653
    -6.5607  -6.5499  -6.5470  -6.5368  -6.5346  -6.5281  -6.5248  -6.5226
    -6.4993  -6.4981  -6.4634  -6.4463  -6.4443  -6.4322  -6.3957  -6.3715
    -6.3452  -6.3362  -6.3314  -6.3219  -6.3138  -6.3127  -6.3063  -6.3056
    -6.2917  -6.2779  -6.2754  -6.2508  -6.2363  -6.2244  -6.2242  -6.2190
    -6.1895  -6.1892  -6.1486  -6.1474  -6.1395  -6.1145  -6.1137  -6.1102
    -6.1093  -6.0150  -5.9988  -5.9973  -5.9628  -5.9600  -5.9548  -5.9529
    -5.9227  -5.9217  -5.8644  -5.8525  -5.8514  -5.8281  -5.8268  -5.8017
    -5.7976  -5.7853  -5.7822  -5.7340  -5.7130  -5.6471  -5.6053  -5.6042
    -5.5905  -5.5375  -5.5350  -5.3969  -5.3950  -5.3868  -5.3632  -5.3155
    -5.2861  -5.2770  -5.2699  -5.2068  -5.1837  -5.1442  -5.0971  -5.0850
    -5.0383  -5.0236  -5.0218  -5.0192  -4.9724  -4.9663  -4.9188  -4.9182
    -4.9136  -4.8881  -4.8864  -4.8755  -4.8663  -4.8587  -4.8479  -4.8050
    -4.7517  -4.6841  -4.6801  -4.6262  -4.6210  -4.6203  -4.5955  -4.5784
    -4.5243  -4.5235  -4.5024  -4.5014  -4.4990  -4.4143  -4.3946  -4.3827
    -4.3231  -4.3223  -4.2706  -4.2632  -4.2562  -4.2360  -4.2279  -4.2204
    -4.2067  -4.2042  -4.1781  -4.1643  -4.1361  -4.1147  -4.1118  -4.1064
    -4.0533  -4.0237  -4.0219  -4.0104  -3.9988  -3.9808  -3.9794  -3.9468
    -3.9463  -3.9443  -3.9356  -3.9239  -3.9165  -3.9145  -3.9115  -3.8868
    -3.8849  -3.8814  -3.8811  -3.8786  -3.8711  -3.8590  -3.8588  -3.8562
    -3.8559  -3.8539  -3.8286  -3.8279  -3.8107  -3.7976  -3.7835  -3.7828
    -3.7701  -3.7691  -3.7667  -3.7514  -3.7513  -3.7484  -3.7449  -3.7359
    -3.7353  -3.7250  -3.7131  -3.7050  -3.7046  -3.6922  -3.6916  -3.6892
    -3.6869  -3.6855  -3.6792  -3.6785  -3.6773  -3.6759  -3.6625  -3.6535
    -3.6531  -3.6485  -3.6478  -3.6449  -3.6414  -3.6282  -3.6264  -3.6256
    -3.6249  -3.6224  -3.6177  -3.6164  -3.6105  -3.6101  -3.5957  -3.5953
    -3.5888  -3.5824  -3.5804  -3.5797  -3.5764  -3.5753  -3.5744  -3.5688
    -3.5669  -3.5618  -3.5611  -3.5592  -3.5394  -3.5393  -3.5368  -3.5319
    -3.5279  -3.5067  -3.5064  -3.5050  -3.4933  -3.4923  -3.4900  -3.4879
    -3.4868  -3.4792  -3.4749  -3.4724  -3.4620  -3.4619  -3.4492  -3.4417
    -3.4337  -3.4330  -3.4251  -3.4193  -3.4190  -3.4124  -3.4086  -3.4034
    -3.4030  -3.3917  -3.3776  -3.3773  -3.3749  -3.3647  -3.3609  -3.3584
    -3.3581  -3.3528  -3.3425  -3.3394  -3.3338  -3.3259  -3.3230  -3.3221
    -3.2972  -3.2833  -3.2604  -3.2503  -3.2500  -3.2429  -3.2423  -3.2400
    -3.2275  -3.2153  -3.1950  -3.1914  -3.1877  -3.1821  -3.1820  -3.1733
    -3.1662  -3.1650  -3.1636  -3.1621  -3.1603  -3.1476  -3.1294  -3.1252
    -3.1239  -3.1214  -3.1131  -3.1107  -3.1083  -3.1052  -3.0939  -3.0902
    -3.0891  -3.0799  -3.0790  -3.0694  -3.0561  -3.0465  -3.0464  -3.0416
    -3.0411  -3.0377  -3.0179  -3.0096  -2.9895  -2.9874  -2.9827  -2.9819
    -2.9810  -2.9723  -2.9587  -2.9576  -2.9462  -2.9453  -2.9429  -2.9404
    -2.9364  -2.9317  -2.9281  -2.9263  -2.9193  -2.9033  -2.9028  -2.9016
    -2.8988  -2.8679  -2.8532  -2.8387  -2.8372  -2.8360  -2.8319  -2.8297
    -2.8057  -2.8045  -2.7845  -2.7825  -2.7661  -2.7553  -2.7526  -2.7220
    -2.7129  -2.7031  -2.7010  -2.6900  -2.6820  -2.6803  -2.6482  -2.6480
    -2.6449  -2.5935  -2.5821  -2.5794  -2.5549  -2.5358  -2.5346  -2.5325
    -2.5303  -2.5140  -2.5133  -2.5130  -2.4893  -2.4624  -2.4531  -2.4516
    -2.4281  -2.4081  -2.4058  -2.4027  -2.3735  -2.3180  -2.3056  -2.3021
    -2.2958  -2.2824  -2.2224  -2.2150  -2.1833  -2.1795  -2.1501  -2.1168
    -1.9265  -1.8932  -1.8917  -1.8849  -1.8839  -1.8265  -1.8244  -1.8220
    -1.8136  -1.8113  -1.7458  -1.7029  -1.6875  -1.6695  -1.6651  -1.5498
    -1.5344  -1.5332  -1.5142  -1.4571  -1.4382  -1.4375  -1.4158  -1.4150
    -1.3791  -1.3552  -1.3542  -1.3391  -1.2974  -1.2967  -1.2485  -1.1983
    -1.1784  -1.0458  -1.0436  -1.0174  -1.0083  -0.9281  -0.8950  -0.8941
    -0.8849  -0.8757  -0.8220  -0.8206  -0.7887  -0.7869  -0.7354  -0.7144
    -0.6289  -0.6171  -0.6031  -0.5160  -0.4960  -0.4321  -0.4315  -0.4091
    -0.3595  -0.3333  -0.3286  -0.3137  -0.2949  -0.2903  -0.2851  -0.0635
    -0.0140  -0.0104  -0.0071   0.1138   0.1999   0.2106   0.2214   0.8448
     1.2879   1.8799   1.9069   1.9927   2.1091   2.2146   2.2155   2.3969
     2.4877   2.6722   2.6926   2.7940   2.7951   2.8118   2.8156   2.8248
     2.8903   2.9383   2.9424   2.9937   3.0384   3.0740   3.1896   3.2124
     3.2383   3.2393   3.3003   3.3095   3.3408   3.3415   3.3480   3.4144
     3.4164   3.4606   3.5094   3.5174   3.5195   3.5572   3.5582   3.7085
     3.7090   3.7885   3.7894   3.8302   3.8464   3.9332   3.9342   3.9620
     3.9936   4.0329   4.0338   4.0658   4.0890   4.1491   4.1501   4.1893
     4.2403   4.2507   4.2526   4.2531   4.2558   4.2882   4.3219   4.3359
     4.3428   4.4449   4.4719   4.4910   4.5021   4.5393   4.5446   4.5494
     4.5685   4.5788   4.5837

          k = 0.0000 0.2849 0.0000 (297550 PWs)   bands (ev):

   -26.9724 -26.7488 -25.4909 -25.2943 -20.8320 -20.6049 -20.6005 -20.5553
   -20.5500 -20.3442 -20.3426 -20.3367 -20.3352 -20.3322 -20.3223 -20.2481
   -20.1257 -20.1145 -20.1114 -20.0717 -20.0712 -20.0654 -20.0513 -19.9959
   -19.9234 -19.9228 -19.9084 -19.8599 -19.8504 -19.8460 -19.7947 -19.7852
   -19.7157 -19.7129 -19.6988 -19.6761 -19.6728 -19.6536 -19.6476 -19.6461
   -19.5866 -19.5694 -19.5533 -19.5503 -19.5123 -19.5102 -19.4255 -19.4173
   -19.4157 -19.4105 -19.3929 -19.3881 -19.3404 -19.3331 -19.3263 -19.2730
   -19.2660 -19.2599 -19.0763 -18.9638 -18.7289 -18.6817 -18.6741 -18.6250
   -18.5515 -18.5231 -18.5169 -18.4886 -16.1497 -14.5500 -12.3009 -10.9657
    -9.3034  -9.2931  -8.9412  -8.8198  -8.7731  -8.6454  -8.4439  -8.4407
    -8.1975  -8.1640  -8.1587  -8.1530  -8.1081  -7.9264  -7.9031  -7.8702
    -7.8450  -7.8174  -7.8037  -7.7990  -7.7432  -7.7028  -7.7018  -7.6715
    -7.6474  -7.6299  -7.5853  -7.5812  -7.5767  -7.5718  -7.5673  -7.5607
    -7.5564  -7.4307  -7.4027  -7.3719  -7.3406  -7.3362  -7.3125  -7.3072
    -7.3014  -7.2995  -7.1961  -7.1728  -7.1704  -7.1588  -7.1541  -7.1429
    -7.0956  -7.0925  -7.0353  -7.0328  -7.0280  -7.0183  -7.0068  -6.9901
    -6.9430  -6.9408  -6.8963  -6.8816  -6.8780  -6.8717  -6.8449  -6.8399
    -6.8384  -6.8330  -6.7816  -6.7677  -6.7637  -6.7415  -6.7331  -6.7140
    -6.6915  -6.6885  -6.6645  -6.6572  -6.6495  -6.6228  -6.6214  -6.6149
    -6.6131  -6.5961  -6.5915  -6.5760  -6.5748  -6.5675  -6.5614  -6.5593
    -6.5525  -6.5432  -6.5279  -6.5243  -6.5014  -6.4978  -6.4746  -6.4587
    -6.4568  -6.4532  -6.4246  -6.4218  -6.4149  -6.4135  -6.4088  -6.4073
    -6.4038  -6.3870  -6.3753  -6.3480  -6.3462  -6.3175  -6.3166  -6.3045
    -6.2559  -6.2517  -6.2453  -6.2440  -6.2318  -6.2261  -6.2101  -6.2071
    -6.1928  -6.1860  -6.1823  -6.1469  -6.1454  -6.1193  -6.1043  -6.0585
    -6.0225  -6.0167  -5.9733  -5.9301  -5.9122  -5.8997  -5.8905  -5.8672
    -5.8546  -5.8240  -5.8114  -5.7495  -5.7398  -5.7360  -5.7268  -5.7163
    -5.6985  -5.6583  -5.6481  -5.6435  -5.6150  -5.6041  -5.5998  -5.5716
    -5.4988  -5.4722  -5.4522  -5.3900  -5.3850  -5.3714  -5.3614  -5.3161
    -5.3045  -5.3010  -5.2895  -5.2610  -5.2221  -5.1742  -5.1669  -5.1360
    -5.1146  -5.1098  -5.0898  -5.0564  -5.0367  -5.0071  -4.9721  -4.9574
    -4.9161  -4.8999  -4.8558  -4.8517  -4.8478  -4.8394  -4.8230  -4.7948
    -4.7673  -4.7430  -4.7013  -4.6805  -4.6603  -4.6491  -4.6439  -4.5991
    -4.5974  -4.5211  -4.5162  -4.4877  -4.4739  -4.4602  -4.4346  -4.4302
    -4.4110  -4.4074  -4.3290  -4.2866  -4.2602  -4.2285  -4.2135  -4.2106
    -4.2013  -4.1982  -4.1901  -4.1885  -4.1709  -4.1661  -4.1388  -4.1265
    -4.1221  -4.1162  -4.1150  -4.1107  -4.0911  -4.0474  -3.9852  -3.9449
    -3.9444  -3.9384  -3.9329  -3.9311  -3.9245  -3.9183  -3.9151  -3.9072
    -3.8907  -3.8873  -3.8833  -3.8798  -3.8742  -3.8558  -3.8509  -3.8488
    -3.8464  -3.8264  -3.8241  -3.8205  -3.7946  -3.7826  -3.7814  -3.7804
    -3.7782  -3.7739  -3.7672  -3.7657  -3.7500  -3.7456  -3.7373  -3.7336
    -3.7322  -3.7174  -3.7151  -3.7112  -3.7085  -3.7074  -3.7046  -3.7007
    -3.6937  -3.6873  -3.6747  -3.6737  -3.6728  -3.6586  -3.6575  -3.6549
    -3.6507  -3.6341  -3.6330  -3.6296  -3.6275  -3.6205  -3.6173  -3.6052
    -3.5992  -3.5938  -3.5929  -3.5911  -3.5860  -3.5808  -3.5785  -3.5759
    -3.5704  -3.5515  -3.5416  -3.5387  -3.5366  -3.5363  -3.5336  -3.5317
    -3.5210  -3.5200  -3.5172  -3.5162  -3.5084  -3.5041  -3.5032  -3.4963
    -3.4947  -3.4918  -3.4901  -3.4780  -3.4716  -3.4641  -3.4618  -3.4601
    -3.4564  -3.4553  -3.4531  -3.4434  -3.4414  -3.4354  -3.4324  -3.4287
    -3.4211  -3.4185  -3.4048  -3.4044  -3.3968  -3.3922  -3.3905  -3.3891
    -3.3842  -3.3814  -3.3750  -3.3727  -3.3705  -3.3634  -3.3597  -3.3504
    -3.3402  -3.3377  -3.3311  -3.3283  -3.3202  -3.3168  -3.3093  -3.3019
    -3.2951  -3.2622  -3.2575  -3.2547  -3.2502  -3.2474  -3.2466  -3.2382
    -3.2333  -3.2072  -3.2048  -3.2018  -3.2002  -3.1990  -3.1970  -3.1954
    -3.1796  -3.1785  -3.1727  -3.1654  -3.1556  -3.1436  -3.1364  -3.1325
    -3.1300  -3.1290  -3.1239  -3.1211  -3.1145  -3.1098  -3.1038  -3.0999
    -3.0913  -3.0906  -3.0848  -3.0814  -3.0777  -3.0723  -3.0657  -3.0613
    -3.0448  -3.0414  -3.0372  -3.0101  -3.0091  -2.9942  -2.9940  -2.9927
    -2.9916  -2.9876  -2.9856  -2.9837  -2.9771  -2.9664  -2.9631  -2.9510
    -2.9494  -2.9355  -2.9347  -2.9284  -2.9176  -2.9165  -2.9149  -2.9095
    -2.8988  -2.8689  -2.8584  -2.8450  -2.8359  -2.8327  -2.8307  -2.8250
    -2.8206  -2.8192  -2.8068  -2.8022  -2.7875  -2.7772  -2.7748  -2.7704
    -2.7626  -2.7600  -2.7471  -2.7363  -2.7154  -2.6793  -2.6598  -2.6574
    -2.6559  -2.6294  -2.6175  -2.5896  -2.5851  -2.5652  -2.5515  -2.5484
    -2.5306  -2.5218  -2.5188  -2.5048  -2.4951  -2.4938  -2.4898  -2.4853
    -2.4832  -2.4351  -2.3999  -2.3981  -2.3916  -2.3376  -2.3360  -2.3282
    -2.2214  -2.1767  -2.1559  -2.1524  -2.1476  -2.1385  -2.1307  -2.0268
    -1.9584  -1.9269  -1.9132  -1.8897  -1.8616  -1.8405  -1.8349  -1.8292
    -1.7983  -1.7962  -1.7707  -1.7267  -1.7005  -1.6574  -1.6534  -1.5935
    -1.5546  -1.5261  -1.5019  -1.5000  -1.4942  -1.4467  -1.4393  -1.3484
    -1.3229  -1.2777  -1.2720  -1.1445  -1.1371  -1.1026  -1.0643  -1.0577
    -1.0377  -1.0256  -0.9823  -0.9712  -0.9706  -0.9686  -0.9674  -0.9267
    -0.9057  -0.8860  -0.8560  -0.8091  -0.7921  -0.7858  -0.7471  -0.7108
    -0.6975  -0.6056  -0.5931  -0.5857  -0.5557  -0.5319  -0.4857  -0.4699
    -0.4671  -0.4443  -0.4077  -0.3777  -0.3414  -0.1972  -0.1908  -0.1719
    -0.1386  -0.1154  -0.0002   0.0907   0.0910   0.1298   0.1559   1.0344
     1.3898   1.9294   1.9789   2.0311   2.0538   2.3156   2.3322   2.3819
     2.4544   2.5405   2.5709   2.7277   2.7578   2.8810   2.8854   2.9087
     2.9158   2.9929   3.0259   3.0415   3.0610   3.1024   3.1415   3.1945
     3.2149   3.2624   3.2788   3.3025   3.3057   3.3149   3.3190   3.3343
     3.3441   3.4232   3.4552   3.5733   3.5808   3.6077   3.6779   3.6848
     3.7159   3.7659   3.8618   3.8748   3.8926   3.9127   3.9412   3.9966
     4.0016   4.0332   4.0399   4.0649   4.0811   4.0921   4.1077   4.1311
     4.1626   4.2061   4.2595   4.2866   4.2923   4.3009   4.3152   4.3379
     4.3508   4.3767   4.3830   4.3880   4.3921   4.4185   4.4719   4.4909
     4.5283   4.5395   4.5435

          k = 0.0000-0.5698 0.0000 (297598 PWs)   bands (ev):

   -26.9724 -26.7488 -25.4909 -25.2943 -20.7363 -20.7328 -20.4995 -20.4981
   -20.4708 -20.4698 -20.4601 -20.4593 -20.2564 -20.2549 -20.2442 -20.2427
   -20.2368 -20.2361 -20.1802 -20.1753 -20.0017 -20.0004 -19.9905 -19.9894
   -19.9890 -19.9876 -19.8381 -19.8347 -19.7584 -19.7571 -19.7479 -19.7468
   -19.7462 -19.7453 -19.6612 -19.6595 -19.6574 -19.6569 -19.6232 -19.6154
   -19.5494 -19.5479 -19.5348 -19.5330 -19.5226 -19.5205 -19.4377 -19.4367
   -19.4247 -19.4234 -19.4084 -19.4053 -19.3415 -19.3397 -19.3308 -19.3287
   -19.3256 -19.3233 -19.0316 -19.0242 -18.6378 -18.6327 -18.5990 -18.5979
   -18.5888 -18.5862 -18.5528 -18.5452 -16.1497 -14.5500 -12.3009 -10.9657
    -9.3034  -9.2931  -8.8198  -8.7731  -8.5769  -8.5709  -8.2822  -8.2808
    -8.1659  -8.1644  -8.1564  -8.1553  -8.0577  -8.0555  -7.9381  -7.9359
    -7.9046  -7.9038  -7.9031  -7.9004  -7.8180  -7.7929  -7.7914  -7.7466
    -7.7419  -7.6587  -7.6508  -7.5344  -7.5307  -7.5298  -7.5243  -7.5224
    -7.5186  -7.4993  -7.4967  -7.4474  -7.4446  -7.4376  -7.4358  -7.3985
    -7.3956  -7.3017  -7.2263  -7.2218  -7.1484  -7.1465  -7.1434  -7.1409
    -7.0798  -7.0779  -7.0733  -7.0716  -7.0654  -7.0572  -6.9458  -6.9445
    -6.9418  -6.9392  -6.9383  -6.9370  -6.9295  -6.9274  -6.8585  -6.8573
    -6.8224  -6.8202  -6.7598  -6.7584  -6.7148  -6.7132  -6.7079  -6.7045
    -6.6709  -6.6691  -6.6688  -6.6654  -6.6406  -6.6393  -6.6372  -6.6360
    -6.6313  -6.6300  -6.6154  -6.6017  -6.5996  -6.5783  -6.5778  -6.5575
    -6.5502  -6.5041  -6.5020  -6.4963  -6.4943  -6.4933  -6.4889  -6.4826
    -6.4782  -6.3932  -6.3913  -6.3887  -6.3881  -6.3800  -6.3785  -6.3765
    -6.3745  -6.3501  -6.3490  -6.3477  -6.3464  -6.3211  -6.3200  -6.3141
    -6.3112  -6.3089  -6.3039  -6.2659  -6.2613  -6.2252  -6.1899  -6.1893
    -6.1727  -6.1720  -6.1390  -6.1384  -6.1016  -6.1008  -6.0955  -6.0943
    -6.0872  -6.0830  -5.8653  -5.8583  -5.8553  -5.8540  -5.8253  -5.8179
    -5.8151  -5.7530  -5.7505  -5.6950  -5.6883  -5.6174  -5.6167  -5.6118
    -5.6116  -5.5274  -5.5244  -5.5235  -5.5177  -5.4709  -5.4673  -5.4159
    -5.4069  -5.3914  -5.3910  -5.3850  -5.3609  -5.3172  -5.3161  -5.3017
    -5.2986  -5.2965  -5.2918  -5.2541  -5.2473  -5.1854  -5.1819  -5.1325
    -5.1194  -5.1169  -5.0796  -5.0788  -5.0776  -5.0643  -4.9939  -4.9927
    -4.9651  -4.9643  -4.9250  -4.9208  -4.9077  -4.9073  -4.9056  -4.8546
    -4.7884  -4.7790  -4.7428  -4.7403  -4.7036  -4.7013  -4.6816  -4.6688
    -4.6659  -4.6609  -4.6598  -4.6406  -4.6389  -4.4497  -4.4472  -4.4064
    -4.4038  -4.2902  -4.2894  -4.2819  -4.2761  -4.2644  -4.2633  -4.2354
    -4.2343  -4.2261  -4.2036  -4.2033  -4.1996  -4.1948  -4.1894  -4.1871
    -4.1440  -4.1372  -4.1064  -4.1039  -4.0915  -4.0861  -3.9784  -3.9738
    -3.9695  -3.9686  -3.9371  -3.9351  -3.9186  -3.9183  -3.9115  -3.9100
    -3.8918  -3.8883  -3.8668  -3.8658  -3.8615  -3.8610  -3.8507  -3.8429
    -3.8417  -3.8403  -3.8373  -3.8368  -3.8016  -3.7988  -3.7805  -3.7798
    -3.7694  -3.7688  -3.7538  -3.7507  -3.7455  -3.7343  -3.7237  -3.7210
    -3.7194  -3.7190  -3.7109  -3.7076  -3.7067  -3.7060  -3.7050  -3.7046
    -3.7040  -3.7025  -3.6934  -3.6908  -3.6606  -3.6568  -3.6503  -3.6498
    -3.6456  -3.6452  -3.6248  -3.6234  -3.6120  -3.6056  -3.5993  -3.5988
    -3.5926  -3.5921  -3.5816  -3.5780  -3.5772  -3.5739  -3.5677  -3.5656
    -3.5573  -3.5564  -3.5478  -3.5468  -3.5223  -3.5219  -3.5011  -3.5007
    -3.4971  -3.4970  -3.4929  -3.4925  -3.4847  -3.4843  -3.4626  -3.4623
    -3.4595  -3.4583  -3.4507  -3.4505  -3.4415  -3.4383  -3.4214  -3.4209
    -3.4163  -3.4145  -3.4105  -3.4101  -3.4097  -3.4075  -3.4058  -3.4053
    -3.4037  -3.4027  -3.3745  -3.3725  -3.3630  -3.3621  -3.3608  -3.3591
    -3.3580  -3.3522  -3.3486  -3.3481  -3.3423  -3.3415  -3.3395  -3.3317
    -3.3307  -3.3306  -3.3286  -3.3250  -3.3209  -3.3069  -3.3063  -3.2893
    -3.2888  -3.2846  -3.2831  -3.2559  -3.2535  -3.2311  -3.2299  -3.2265
    -3.2258  -3.2002  -3.1962  -3.1941  -3.1917  -3.1866  -3.1850  -3.1831
    -3.1821  -3.1804  -3.1801  -3.1775  -3.1765  -3.1539  -3.1503  -3.1335
    -3.1325  -3.1278  -3.1271  -3.1202  -3.1200  -3.1156  -3.1104  -3.1033
    -3.1022  -3.1000  -3.0961  -3.0872  -3.0866  -3.0841  -3.0830  -3.0651
    -3.0625  -3.0591  -3.0570  -3.0392  -3.0384  -3.0147  -3.0138  -3.0102
    -3.0092  -3.0065  -3.0052  -2.9996  -2.9922  -2.9828  -2.9813  -2.9620
    -2.9576  -2.9345  -2.9337  -2.9313  -2.9306  -2.9186  -2.9178  -2.9169
    -2.9154  -2.9098  -2.9092  -2.9049  -2.9005  -2.8636  -2.8616  -2.8542
    -2.8526  -2.8150  -2.8110  -2.8053  -2.8037  -2.8016  -2.8011  -2.8005
    -2.7998  -2.7793  -2.7765  -2.7654  -2.7648  -2.7573  -2.7566  -2.6189
    -2.6174  -2.6163  -2.6151  -2.6043  -2.6016  -2.5971  -2.5895  -2.5737
    -2.5714  -2.5230  -2.5220  -2.5201  -2.5193  -2.5181  -2.5136  -2.4519
    -2.4434  -2.4139  -2.4121  -2.3795  -2.3781  -2.3703  -2.3650  -2.2500
    -2.2492  -2.1357  -2.1320  -2.1230  -2.1217  -2.1173  -2.1086  -2.0050
    -2.0007  -1.8975  -1.8970  -1.8657  -1.8640  -1.8626  -1.8582  -1.8244
    -1.8238  -1.8162  -1.8124  -1.7263  -1.7260  -1.6655  -1.6651  -1.5234
    -1.5230  -1.5123  -1.5115  -1.4327  -1.4278  -1.3336  -1.3322  -1.2585
    -1.2573  -1.1890  -1.1843  -1.1623  -1.1579  -1.0912  -1.0895  -1.0700
    -1.0681  -0.9770  -0.9685  -0.9519  -0.9493  -0.8991  -0.8978  -0.8198
    -0.8187  -0.7756  -0.7750  -0.7704  -0.7693  -0.7312  -0.7306  -0.7183
    -0.7168  -0.6568  -0.6555  -0.5877  -0.5839  -0.5734  -0.5729  -0.5446
    -0.5388  -0.4817  -0.4805  -0.4196  -0.4179  -0.3897  -0.3889  -0.2255
    -0.2171  -0.0247  -0.0165   0.0143   0.0184   0.0363   0.0451   1.4850
     1.4926   1.6592   1.6691   2.2276   2.2338   2.3692   2.3812   2.5955
     2.6021   2.6311   2.6359   2.6525   2.6531   2.7284   2.7289   2.8660
     2.8714   2.9960   3.0049   3.0714   3.0725   3.1012   3.1029   3.1642
     3.1673   3.2583   3.2604   3.2779   3.3158   3.3222   3.4771   3.4795
     3.4939   3.4952   3.5164   3.5329   3.5360   3.5379   3.6045   3.6056
     3.6498   3.7484   3.7878   3.8635   3.9289   3.9448   3.9462   3.9562
     3.9576   3.9987   4.0070   4.1037   4.1042   4.1109   4.1120   4.1934
     4.2292   4.2297   4.2714   4.2753   4.2846   4.2928   4.2955   4.3078
     4.3194   4.3364   4.3427   4.3433   4.3444   4.3535   4.4267   4.4296
     4.4361   4.5346   4.5464

          k = 0.2500-0.0079 0.0000 (297380 PWs)   bands (ev):

   -26.9724 -26.7488 -25.4909 -25.2943 -20.8459 -20.6947 -20.6216 -20.4979
   -20.4768 -20.4681 -20.3531 -20.3336 -20.2974 -20.2601 -20.1956 -20.1696
   -20.1374 -20.1039 -20.1019 -20.0973 -20.0234 -20.0138 -19.9899 -19.9782
   -19.9777 -19.9746 -19.9569 -19.9484 -19.8852 -19.8486 -19.8356 -19.8247
   -19.7653 -19.7568 -19.7125 -19.6766 -19.6634 -19.6604 -19.6338 -19.6313
   -19.6020 -19.5926 -19.5845 -19.5629 -19.5230 -19.5074 -19.4973 -19.4506
   -19.4081 -19.3649 -19.3470 -19.3467 -19.3293 -19.3030 -19.2928 -19.2784
   -19.2419 -19.1224 -19.1182 -18.9517 -18.7685 -18.7384 -18.6995 -18.6702
   -18.5176 -18.5009 -18.4834 -18.4674 -16.1497 -14.5500 -12.3009 -10.9657
    -9.3034  -9.2931  -9.0376  -8.8198  -8.7731  -8.7577  -8.7354  -8.4602
    -8.3237  -8.2566  -8.1122  -8.0294  -7.9771  -7.9694  -7.8921  -7.8521
    -7.8325  -7.8174  -7.7773  -7.7254  -7.6681  -7.6389  -7.5904  -7.5897
    -7.5894  -7.5576  -7.5081  -7.4946  -7.4828  -7.4742  -7.4623  -7.4379
    -7.4128  -7.4104  -7.4071  -7.3980  -7.3340  -7.3197  -7.3089  -7.3009
    -7.2840  -7.2442  -7.2154  -7.2065  -7.1734  -7.1331  -7.1249  -7.1217
    -7.1130  -7.0872  -7.0704  -7.0694  -7.0565  -7.0128  -6.9709  -6.9676
    -6.9626  -6.9405  -6.9371  -6.9200  -6.9048  -6.9007  -6.8987  -6.8692
    -6.8616  -6.8402  -6.8332  -6.8326  -6.8235  -6.8177  -6.7753  -6.7359
    -6.7338  -6.7311  -6.6963  -6.6909  -6.6589  -6.6522  -6.6325  -6.6152
    -6.6029  -6.5990  -6.5953  -6.5946  -6.5883  -6.5759  -6.5646  -6.5544
    -6.5483  -6.5462  -6.5393  -6.5367  -6.5329  -6.5094  -6.4632  -6.4332
    -6.4327  -6.4229  -6.4217  -6.4194  -6.4134  -6.4012  -6.3858  -6.3761
    -6.3724  -6.3655  -6.3424  -6.3147  -6.3145  -6.3003  -6.2897  -6.2756
    -6.2719  -6.2703  -6.2618  -6.2414  -6.2235  -6.2193  -6.2172  -6.1874
    -6.1707  -6.1531  -6.1457  -6.1413  -6.1383  -6.1140  -6.1044  -6.0810
    -6.0564  -6.0289  -6.0073  -5.9918  -5.9708  -5.9616  -5.9140  -5.8646
    -5.8529  -5.8308  -5.8255  -5.8159  -5.8050  -5.8034  -5.7994  -5.7840
    -5.7773  -5.7583  -5.7528  -5.7229  -5.6707  -5.6683  -5.5822  -5.5230
    -5.4460  -5.4359  -5.4097  -5.4010  -5.3979  -5.3951  -5.3837  -5.3583
    -5.2515  -5.2385  -5.2322  -5.1458  -5.1324  -5.1116  -5.1017  -5.0813
    -5.0769  -5.0732  -5.0485  -5.0314  -4.9878  -4.9775  -4.9552  -4.9535
    -4.9434  -4.9369  -4.9260  -4.9172  -4.9040  -4.8724  -4.8542  -4.8379
    -4.8056  -4.7906  -4.7494  -4.7306  -4.6808  -4.6797  -4.6617  -4.5792
    -4.5724  -4.5641  -4.5426  -4.5390  -4.4998  -4.4991  -4.3679  -4.3504
    -4.3049  -4.2627  -4.2543  -4.2351  -4.2306  -4.2206  -4.2108  -4.1969
    -4.1895  -4.1839  -4.1745  -4.1445  -4.1337  -4.1244  -4.1233  -4.1188
    -4.1096  -4.1031  -4.0425  -4.0338  -4.0324  -3.9941  -3.9878  -3.9820
    -3.9590  -3.9427  -3.9418  -3.9309  -3.9284  -3.9241  -3.9201  -3.9092
    -3.9028  -3.8973  -3.8961  -3.8892  -3.8842  -3.8748  -3.8633  -3.8583
    -3.8551  -3.8399  -3.8201  -3.8190  -3.7938  -3.7892  -3.7840  -3.7801
    -3.7743  -3.7651  -3.7604  -3.7576  -3.7547  -3.7531  -3.7459  -3.7415
    -3.7281  -3.7253  -3.7190  -3.7184  -3.7156  -3.7108  -3.7103  -3.6994
    -3.6909  -3.6813  -3.6787  -3.6750  -3.6738  -3.6690  -3.6671  -3.6651
    -3.6637  -3.6610  -3.6568  -3.6467  -3.6459  -3.6416  -3.6313  -3.6205
    -3.6189  -3.6180  -3.6137  -3.6116  -3.6083  -3.6075  -3.5992  -3.5923
    -3.5892  -3.5882  -3.5878  -3.5855  -3.5781  -3.5767  -3.5626  -3.5604
    -3.5575  -3.5508  -3.5378  -3.5371  -3.5255  -3.5210  -3.5198  -3.5135
    -3.5092  -3.5077  -3.5035  -3.4976  -3.4972  -3.4925  -3.4923  -3.4824
    -3.4815  -3.4770  -3.4746  -3.4709  -3.4673  -3.4647  -3.4614  -3.4548
    -3.4470  -3.4466  -3.4448  -3.4321  -3.4158  -3.4140  -3.4059  -3.3967
    -3.3911  -3.3770  -3.3746  -3.3653  -3.3642  -3.3570  -3.3538  -3.3461
    -3.3400  -3.3357  -3.3309  -3.3267  -3.3186  -3.3117  -3.3045  -3.3033
    -3.2988  -3.2830  -3.2713  -3.2669  -3.2663  -3.2630  -3.2539  -3.2502
    -3.2262  -3.2118  -3.2085  -3.1943  -3.1903  -3.1862  -3.1846  -3.1766
    -3.1752  -3.1650  -3.1636  -3.1571  -3.1512  -3.1319  -3.1304  -3.1264
    -3.1249  -3.1233  -3.1205  -3.1044  -3.1013  -3.1004  -3.0846  -3.0790
    -3.0699  -3.0607  -3.0558  -3.0462  -3.0452  -3.0439  -3.0413  -3.0277
    -3.0231  -3.0213  -3.0159  -3.0030  -2.9998  -2.9950  -2.9707  -2.9644
    -2.9617  -2.9579  -2.9575  -2.9540  -2.9494  -2.9472  -2.9436  -2.9435
    -2.9425  -2.9304  -2.9200  -2.9191  -2.9178  -2.9141  -2.8871  -2.8845
    -2.8567  -2.8496  -2.8442  -2.8414  -2.8288  -2.8245  -2.8156  -2.8114
    -2.8104  -2.7776  -2.7695  -2.7644  -2.7639  -2.7522  -2.7430  -2.7335
    -2.7061  -2.7045  -2.6988  -2.6682  -2.6601  -2.6492  -2.6377  -2.6274
    -2.6243  -2.6099  -2.6069  -2.6034  -2.5837  -2.5655  -2.5487  -2.5381
    -2.5259  -2.5130  -2.5066  -2.5050  -2.4903  -2.4881  -2.4850  -2.4638
    -2.4608  -2.4450  -2.4378  -2.4317  -2.3981  -2.3742  -2.3627  -2.3583
    -2.3275  -2.2998  -2.2555  -2.2014  -2.1592  -2.0868  -2.0498  -2.0330
    -2.0116  -2.0044  -1.9696  -1.9376  -1.8948  -1.8439  -1.7756  -1.7608
    -1.7401  -1.7114  -1.6678  -1.6515  -1.6400  -1.6329  -1.5836  -1.5544
    -1.5476  -1.5372  -1.5215  -1.4881  -1.4704  -1.4685  -1.4211  -1.3996
    -1.3955  -1.3767  -1.3627  -1.3464  -1.2323  -1.2244  -1.1510  -1.1486
    -1.1299  -1.0894  -1.0480  -1.0154  -1.0038  -0.9864  -0.9763  -0.9563
    -0.9503  -0.8069  -0.8039  -0.7949  -0.7859  -0.7692  -0.7303  -0.7027
    -0.6657  -0.6545  -0.6165  -0.5742  -0.5390  -0.5227  -0.4652  -0.4012
    -0.3995  -0.3892  -0.3863  -0.3423  -0.2999  -0.2252  -0.1309  -0.0844
    -0.0735  -0.0580   0.0528   0.0675   0.1053   0.2010   0.5644   0.9640
     1.0979   1.6096   1.7302   1.8544   1.9786   1.9811   2.5202   2.5571
     2.5629   2.5707   2.6833   2.6910   2.7798   2.8812   2.8870   2.9733
     2.9801   3.0535   3.0759   3.1290   3.1874   3.2005   3.2487   3.2523
     3.2576   3.2723   3.3098   3.3129   3.3233   3.3693   3.3716   3.3811
     3.4874   3.4939   3.5020   3.5225   3.5257   3.5703   3.5982   3.6386
     3.6617   3.6920   3.7713   3.7746   3.8647   3.8784   3.8933   3.9046
     3.9456   3.9944   4.0527   4.0572   4.0586   4.0612   4.1053   4.1839
     4.2052   4.2175   4.2777   4.3114   4.3261   4.3544   4.3743   4.3882
     4.3953   4.4128   4.4651   4.4819   4.5025   4.5486   4.5585   4.5631
     4.5827   4.5998   4.6284

          k = 0.2500 0.2770 0.0000 (297503 PWs)   bands (ev):

   -26.9724 -26.7488 -25.4909 -25.2943 -20.8125 -20.6599 -20.5865 -20.5792
   -20.4452 -20.4419 -20.4404 -20.3163 -20.3048 -20.2713 -20.2348 -20.2297
   -20.2079 -20.1651 -20.0960 -20.0935 -20.0728 -20.0313 -19.9915 -19.9886
   -19.9691 -19.9263 -19.9117 -19.8710 -19.8525 -19.8151 -19.7942 -19.7672
   -19.7618 -19.7070 -19.6773 -19.6678 -19.6637 -19.6561 -19.6459 -19.6240
   -19.5992 -19.5925 -19.5290 -19.5259 -19.5195 -19.5024 -19.5004 -19.4597
   -19.4259 -19.4037 -19.3823 -19.3820 -19.3689 -19.3353 -19.3058 -19.2750
   -19.2674 -19.1525 -19.1002 -18.9895 -18.7266 -18.6935 -18.6624 -18.6274
   -18.5489 -18.5328 -18.5072 -18.4912 -16.1497 -14.5500 -12.3009 -10.9657
    -9.3034  -9.2931  -8.9074  -8.8198  -8.7731  -8.6387  -8.6127  -8.3501
    -8.2256  -8.1638  -8.0872  -8.0771  -7.9440  -7.9036  -7.9030  -7.8939
    -7.8457  -7.8377  -7.8177  -7.8155  -7.7283  -7.7209  -7.6782  -7.6436
    -7.6148  -7.6027  -7.5921  -7.5657  -7.5583  -7.5376  -7.5334  -7.5188
    -7.4700  -7.4409  -7.4331  -7.3975  -7.3868  -7.3788  -7.3766  -7.3444
    -7.3119  -7.2978  -7.2584  -7.2476  -7.2336  -7.2054  -7.1669  -7.1616
    -7.1458  -7.0972  -7.0739  -7.0608  -7.0562  -7.0489  -7.0419  -6.9865
    -6.9610  -6.9402  -6.9335  -6.9307  -6.9092  -6.9027  -6.8933  -6.8641
    -6.8585  -6.8564  -6.8502  -6.8484  -6.8408  -6.8353  -6.7770  -6.7120
    -6.6973  -6.6938  -6.6836  -6.6536  -6.6437  -6.6431  -6.6327  -6.6156
    -6.6094  -6.5951  -6.5925  -6.5787  -6.5693  -6.5558  -6.5468  -6.5453
    -6.5395  -6.5331  -6.5033  -6.5003  -6.4930  -6.4898  -6.4709  -6.4693
    -6.4659  -6.4453  -6.4420  -6.4395  -6.4201  -6.3918  -6.3903  -6.3842
    -6.3697  -6.3527  -6.3466  -6.3401  -6.3372  -6.3238  -6.3173  -6.3079
    -6.2772  -6.2707  -6.2391  -6.2350  -6.2253  -6.2234  -6.2200  -6.2019
    -6.1667  -6.1574  -6.1054  -6.0854  -6.0638  -6.0598  -6.0404  -6.0372
    -6.0018  -5.9836  -5.9114  -5.8976  -5.8662  -5.8586  -5.8455  -5.8232
    -5.8019  -5.7994  -5.7775  -5.7572  -5.7444  -5.7405  -5.7020  -5.6501
    -5.6379  -5.6212  -5.5828  -5.5420  -5.5394  -5.5385  -5.5279  -5.5001
    -5.4779  -5.4581  -5.4530  -5.3886  -5.3672  -5.3552  -5.3510  -5.3282
    -5.3242  -5.2708  -5.2157  -5.1841  -5.1829  -5.1687  -5.1569  -5.1338
    -5.1241  -5.1130  -5.0985  -5.0594  -5.0475  -5.0454  -5.0347  -5.0137
    -4.9996  -4.9508  -4.9428  -4.9326  -4.9172  -4.8954  -4.8549  -4.8359
    -4.8052  -4.7819  -4.7536  -4.7341  -4.6984  -4.6808  -4.6636  -4.6588
    -4.6486  -4.6442  -4.6281  -4.5324  -4.4513  -4.4190  -4.4177  -4.4038
    -4.3942  -4.3389  -4.2981  -4.2682  -4.2469  -4.2295  -4.2230  -4.2221
    -4.2152  -4.2052  -4.2016  -4.1941  -4.1822  -4.1777  -4.1474  -4.1451
    -4.1380  -4.1235  -4.1080  -4.0968  -4.0940  -4.0177  -4.0165  -4.0004
    -3.9654  -3.9630  -3.9552  -3.9431  -3.9354  -3.9172  -3.9103  -3.9052
    -3.8990  -3.8978  -3.8899  -3.8725  -3.8680  -3.8629  -3.8574  -3.8468
    -3.8391  -3.8378  -3.8157  -3.8098  -3.8057  -3.8021  -3.7801  -3.7708
    -3.7627  -3.7616  -3.7567  -3.7548  -3.7485  -3.7399  -3.7322  -3.7275
    -3.7267  -3.7245  -3.7223  -3.7207  -3.7109  -3.7054  -3.7012  -3.7005
    -3.6950  -3.6873  -3.6826  -3.6819  -3.6790  -3.6656  -3.6560  -3.6486
    -3.6481  -3.6404  -3.6370  -3.6355  -3.6191  -3.6128  -3.6100  -3.6086
    -3.6069  -3.5975  -3.5945  -3.5867  -3.5791  -3.5779  -3.5775  -3.5731
    -3.5723  -3.5718  -3.5627  -3.5599  -3.5554  -3.5461  -3.5418  -3.5360
    -3.5278  -3.5252  -3.5234  -3.5174  -3.5109  -3.5105  -3.5082  -3.5049
    -3.4946  -3.4915  -3.4884  -3.4838  -3.4709  -3.4678  -3.4642  -3.4631
    -3.4568  -3.4505  -3.4492  -3.4453  -3.4347  -3.4339  -3.4312  -3.4216
    -3.4158  -3.4094  -3.3990  -3.3969  -3.3928  -3.3911  -3.3888  -3.3884
    -3.3840  -3.3659  -3.3626  -3.3546  -3.3422  -3.3394  -3.3352  -3.3326
    -3.3318  -3.3314  -3.3297  -3.3221  -3.3194  -3.3097  -3.3034  -3.2990
    -3.2931  -3.2918  -3.2792  -3.2674  -3.2618  -3.2570  -3.2462  -3.2321
    -3.2243  -3.2190  -3.2131  -3.2110  -3.2089  -3.2062  -3.2014  -3.1979
    -3.1819  -3.1716  -3.1636  -3.1567  -3.1546  -3.1536  -3.1531  -3.1499
    -3.1424  -3.1403  -3.1237  -3.1198  -3.1179  -3.1049  -3.1018  -3.0925
    -3.0900  -3.0848  -3.0783  -3.0762  -3.0736  -3.0566  -3.0525  -3.0456
    -3.0390  -3.0204  -3.0142  -3.0014  -2.9977  -2.9909  -2.9902  -2.9841
    -2.9829  -2.9764  -2.9727  -2.9705  -2.9638  -2.9589  -2.9579  -2.9547
    -2.9490  -2.9359  -2.9316  -2.9250  -2.9192  -2.9091  -2.8891  -2.8816
    -2.8685  -2.8642  -2.8451  -2.8317  -2.8276  -2.8203  -2.8151  -2.8119
    -2.8066  -2.7959  -2.7930  -2.7836  -2.7792  -2.7762  -2.7668  -2.7616
    -2.7434  -2.7293  -2.7251  -2.7014  -2.6826  -2.6594  -2.6547  -2.6519
    -2.6518  -2.6214  -2.6146  -2.6097  -2.5993  -2.5821  -2.5656  -2.5570
    -2.5412  -2.5391  -2.5218  -2.5195  -2.5097  -2.5084  -2.5036  -2.4909
    -2.4727  -2.4578  -2.4554  -2.4291  -2.4103  -2.4013  -2.3718  -2.3341
    -2.2819  -2.2087  -2.1997  -2.1778  -2.1011  -2.0573  -2.0286  -2.0237
    -2.0047  -1.9981  -1.9594  -1.9333  -1.9260  -1.9083  -1.8496  -1.8060
    -1.8038  -1.7601  -1.7025  -1.6976  -1.6688  -1.6471  -1.5670  -1.5410
    -1.5328  -1.5197  -1.4939  -1.4753  -1.4449  -1.4236  -1.3892  -1.3154
    -1.2794  -1.2520  -1.2078  -1.2047  -1.1162  -1.0948  -1.0578  -1.0467
    -1.0164  -0.9954  -0.9888  -0.9878  -0.9831  -0.9737  -0.9631  -0.9339
    -0.9114  -0.9087  -0.9005  -0.8417  -0.8117  -0.7787  -0.7471  -0.6646
    -0.6557  -0.6528  -0.6418  -0.6026  -0.5717  -0.5661  -0.4912  -0.4891
    -0.4880  -0.4246  -0.4095  -0.3916  -0.3807  -0.3489  -0.2313  -0.1976
    -0.1460  -0.1157  -0.0496   0.0208   0.0594   0.1762   0.5184   1.1434
     1.1809   1.5090   1.9160   1.9370   2.0234   2.1219   2.3979   2.6076
     2.6263   2.6352   2.6527   2.7033   2.7580   2.7739   2.8864   2.9717
     2.9932   3.0295   3.0894   3.1085   3.1194   3.1614   3.1927   3.2432
     3.3008   3.3032   3.3048   3.3227   3.3329   3.3615   3.3791   3.3905
     3.4150   3.4971   3.4975   3.5744   3.5781   3.5800   3.6339   3.7441
     3.7529   3.7562   3.7879   3.7967   3.8354   3.8717   3.8794   3.8960
     3.9111   3.9653   3.9872   4.0045   4.0414   4.0740   4.0889   4.1586
     4.1629   4.1989   4.2119   4.2246   4.2342   4.2398   4.2416   4.3202
     4.3355   4.3630   4.3669   4.4011   4.4358   4.4572   4.4786   4.4971
     4.5304   4.5540   4.5941

          k = 0.2500-0.5777 0.0000 (297509 PWs)   bands (ev):

   -26.9724 -26.7488 -25.4909 -25.2943 -20.7172 -20.7122 -20.5752 -20.5656
   -20.4826 -20.4779 -20.3621 -20.3521 -20.3518 -20.3409 -20.2207 -20.2166
   -20.2033 -20.1972 -20.1563 -20.1451 -20.0942 -20.0841 -20.0111 -20.0062
   -19.9055 -19.8951 -19.8328 -19.8275 -19.7901 -19.7798 -19.7670 -19.7630
   -19.7235 -19.7137 -19.6695 -19.6643 -19.6529 -19.6470 -19.6029 -19.5949
   -19.5944 -19.5808 -19.5173 -19.5121 -19.4992 -19.4858 -19.4747 -19.4651
   -19.4470 -19.4389 -19.4210 -19.4150 -19.3982 -19.3858 -19.3361 -19.3305
   -19.2263 -19.2158 -19.0563 -19.0481 -18.6353 -18.6298 -18.6132 -18.6030
   -18.5825 -18.5727 -18.5563 -18.5478 -16.1497 -14.5500 -12.3009 -10.9657
    -9.3034  -9.2931  -8.8198  -8.7731  -8.5476  -8.5385  -8.3257  -8.3161
    -8.2578  -8.2490  -8.0569  -8.0460  -8.0083  -7.9886  -7.9791  -7.9607
    -7.9103  -7.9026  -7.8178  -7.7554  -7.7463  -7.7335  -7.7222  -7.7173
    -7.7035  -7.6902  -7.6891  -7.6847  -7.6793  -7.5559  -7.5497  -7.4730
    -7.4715  -7.4679  -7.4538  -7.4488  -7.4354  -7.4194  -7.4132  -7.3526
    -7.3274  -7.3033  -7.2933  -7.2819  -7.2701  -7.2607  -7.2415  -7.2368
    -7.1389  -7.0973  -7.0588  -7.0499  -7.0442  -7.0336  -7.0275  -6.9986
    -6.9685  -6.9606  -6.9399  -6.9335  -6.9295  -6.9136  -6.9006  -6.8978
    -6.8864  -6.8756  -6.8606  -6.8451  -6.8335  -6.8279  -6.7402  -6.7363
    -6.7224  -6.7195  -6.6488  -6.6427  -6.6279  -6.6260  -6.6188  -6.6155
    -6.6130  -6.6065  -6.5982  -6.5743  -6.5655  -6.5599  -6.5552  -6.5533
    -6.5468  -6.5227  -6.5210  -6.5196  -6.5146  -6.4807  -6.4652  -6.4622
    -6.4586  -6.4455  -6.4306  -6.4240  -6.4186  -6.4145  -6.4084  -6.3751
    -6.3716  -6.3683  -6.3662  -6.3166  -6.3081  -6.3037  -6.2987  -6.2939
    -6.2869  -6.2766  -6.2707  -6.2262  -6.2011  -6.1880  -6.1763  -6.1480
    -6.1417  -6.1374  -6.1290  -6.1096  -6.0879  -6.0384  -6.0196  -6.0127
    -5.9504  -5.9296  -5.9192  -5.8936  -5.8373  -5.8318  -5.8232  -5.7326
    -5.7298  -5.7123  -5.6841  -5.6614  -5.6252  -5.5776  -5.5507  -5.5300
    -5.4946  -5.4933  -5.4872  -5.4679  -5.4604  -5.4350  -5.4283  -5.3972
    -5.3898  -5.3807  -5.3669  -5.3498  -5.3374  -5.3223  -5.3034  -5.3026
    -5.2830  -5.2747  -5.2614  -5.2577  -5.2371  -5.1917  -5.1700  -5.1517
    -5.1436  -5.1258  -5.1130  -5.0999  -5.0915  -5.0872  -5.0679  -5.0550
    -5.0264  -4.9833  -4.9715  -4.9609  -4.9440  -4.9378  -4.9274  -4.9110
    -4.8597  -4.8544  -4.8208  -4.7911  -4.7813  -4.7694  -4.7239  -4.7185
    -4.6897  -4.6832  -4.6805  -4.6748  -4.6699  -4.5136  -4.4517  -4.3734
    -4.3360  -4.3349  -4.3238  -4.3057  -4.2778  -4.2643  -4.2593  -4.2480
    -4.2267  -4.2220  -4.2084  -4.1917  -4.1877  -4.1834  -4.1773  -4.1744
    -4.1489  -4.1375  -4.1345  -4.1072  -4.0633  -4.0561  -3.9777  -3.9724
    -3.9712  -3.9582  -3.9561  -3.9517  -3.9416  -3.9330  -3.9268  -3.9202
    -3.9002  -3.8961  -3.8919  -3.8867  -3.8785  -3.8771  -3.8669  -3.8651
    -3.8624  -3.8417  -3.8090  -3.8042  -3.8001  -3.7872  -3.7679  -3.7655
    -3.7645  -3.7639  -3.7594  -3.7548  -3.7517  -3.7499  -3.7454  -3.7414
    -3.7307  -3.7290  -3.7130  -3.7084  -3.6993  -3.6971  -3.6969  -3.6949
    -3.6890  -3.6813  -3.6765  -3.6649  -3.6622  -3.6601  -3.6527  -3.6459
    -3.6454  -3.6400  -3.6294  -3.6221  -3.6157  -3.6089  -3.6000  -3.5969
    -3.5922  -3.5841  -3.5828  -3.5808  -3.5784  -3.5712  -3.5680  -3.5659
    -3.5582  -3.5535  -3.5483  -3.5349  -3.5331  -3.5315  -3.5256  -3.5249
    -3.5224  -3.5092  -3.4971  -3.4868  -3.4861  -3.4839  -3.4768  -3.4715
    -3.4683  -3.4565  -3.4498  -3.4452  -3.4440  -3.4381  -3.4372  -3.4346
    -3.4333  -3.4259  -3.4206  -3.4175  -3.4140  -3.4103  -3.4068  -3.3915
    -3.3905  -3.3848  -3.3805  -3.3773  -3.3646  -3.3611  -3.3585  -3.3576
    -3.3472  -3.3423  -3.3397  -3.3392  -3.3371  -3.3325  -3.3288  -3.3193
    -3.3165  -3.3128  -3.3087  -3.3076  -3.3026  -3.2967  -3.2882  -3.2833
    -3.2782  -3.2743  -3.2729  -3.2564  -3.2525  -3.2509  -3.2446  -3.2383
    -3.2249  -3.2209  -3.2171  -3.2144  -3.2099  -3.2039  -3.2028  -3.1948
    -3.1934  -3.1868  -3.1839  -3.1783  -3.1763  -3.1738  -3.1711  -3.1656
    -3.1591  -3.1443  -3.1360  -3.1342  -3.1296  -3.1279  -3.1188  -3.1127
    -3.0978  -3.0875  -3.0862  -3.0845  -3.0811  -3.0765  -3.0681  -3.0582
    -3.0554  -3.0403  -3.0343  -3.0265  -3.0054  -3.0035  -2.9986  -2.9892
    -2.9865  -2.9816  -2.9800  -2.9782  -2.9734  -2.9724  -2.9711  -2.9670
    -2.9646  -2.9608  -2.9449  -2.9321  -2.9226  -2.9004  -2.8921  -2.8885
    -2.8859  -2.8840  -2.8769  -2.8573  -2.8545  -2.8485  -2.8455  -2.8435
    -2.8192  -2.8120  -2.8071  -2.8030  -2.7996  -2.7913  -2.7899  -2.7804
    -2.7796  -2.7704  -2.7682  -2.7416  -2.7317  -2.6827  -2.6793  -2.6764
    -2.6664  -2.6399  -2.6339  -2.6055  -2.6022  -2.5809  -2.5740  -2.5668
    -2.5550  -2.5328  -2.5318  -2.5288  -2.5262  -2.5015  -2.4936  -2.4927
    -2.4801  -2.4718  -2.4594  -2.4510  -2.4366  -2.3919  -2.3820  -2.2447
    -2.2328  -2.1537  -2.1495  -2.1456  -2.1346  -2.0587  -2.0431  -2.0129
    -1.9936  -1.9865  -1.9770  -1.9183  -1.8681  -1.8669  -1.8634  -1.8510
    -1.8472  -1.8184  -1.8152  -1.8103  -1.7907  -1.5711  -1.5589  -1.4882
    -1.4617  -1.4538  -1.4143  -1.3895  -1.3458  -1.3059  -1.2215  -1.2171
    -1.2057  -1.1865  -1.1807  -1.1739  -1.1561  -1.1385  -1.0948  -1.0521
    -1.0086  -0.9970  -0.9806  -0.9766  -0.9601  -0.8953  -0.8925  -0.8306
    -0.7954  -0.7710  -0.7660  -0.7601  -0.7548  -0.7388  -0.7189  -0.7173
    -0.7148  -0.7119  -0.6679  -0.6460  -0.6234  -0.6170  -0.5991  -0.5852
    -0.5546  -0.4849  -0.4358  -0.4259  -0.4172  -0.4147  -0.3622  -0.2847
    -0.2643  -0.2610  -0.2341  -0.0662  -0.0525   0.3360   0.3819   1.3201
     1.3660   1.5868   1.6135   2.1813   2.2187   2.2513   2.3144   2.4566
     2.4720   2.6939   2.7004   2.8272   2.8772   2.9168   2.9265   2.9648
     2.9853   3.0023   3.0523   3.0632   3.0729   3.1499   3.1719   3.1889
     3.2165   3.2218   3.2264   3.3202   3.3587   3.3650   3.3720   3.3750
     3.4178   3.4467   3.5213   3.5536   3.5571   3.5678   3.5768   3.5973
     3.7092   3.7894   3.8186   3.8403   3.8604   3.8832   3.9262   3.9800
     3.9887   4.0079   4.0211   4.0554   4.0578   4.0737   4.0848   4.1173
     4.1465   4.1582   4.1769   4.2160   4.2392   4.2738   4.2893   4.2922
     4.3235   4.3417   4.3597   4.3837   4.4111   4.4262   4.4361   4.4467
     4.4767   4.4939   4.5090

          k = 0.2500-0.2928 0.0000 (297462 PWs)   bands (ev):

   -26.9724 -26.7488 -25.4909 -25.2943 -20.8105 -20.6647 -20.5842 -20.5829
   -20.4462 -20.4369 -20.4351 -20.3221 -20.3026 -20.2734 -20.2409 -20.2287
   -20.1942 -20.1706 -20.1004 -20.0886 -20.0754 -20.0432 -19.9852 -19.9845
   -19.9633 -19.9222 -19.9156 -19.8659 -19.8461 -19.8176 -19.7974 -19.7777
   -19.7769 -19.7094 -19.6716 -19.6624 -19.6585 -19.6546 -19.6310 -19.6292
   -19.6133 -19.5905 -19.5316 -19.5310 -19.5056 -19.5043 -19.5039 -19.4522
   -19.4320 -19.4065 -19.3895 -19.3767 -19.3621 -19.3323 -19.3123 -19.2710
   -19.2647 -19.1591 -19.1021 -18.9863 -18.7242 -18.6998 -18.6555 -18.6305
   -18.5505 -18.5285 -18.5115 -18.4896 -16.1497 -14.5500 -12.3009 -10.9657
    -9.3034  -9.2931  -8.9033  -8.8198  -8.7731  -8.6427  -8.6082  -8.3552
    -8.2409  -8.1594  -8.0832  -8.0631  -7.9577  -7.9005  -7.8964  -7.8938
    -7.8519  -7.8446  -7.8172  -7.8048  -7.7325  -7.7077  -7.6804  -7.6259
    -7.6081  -7.6054  -7.5852  -7.5823  -7.5614  -7.5387  -7.5304  -7.5058
    -7.5002  -7.4425  -7.4337  -7.3930  -7.3870  -7.3857  -7.3814  -7.3281
    -7.3173  -7.3005  -7.2989  -7.2571  -7.2297  -7.1933  -7.1708  -7.1639
    -7.1456  -7.0804  -7.0676  -7.0630  -7.0560  -7.0436  -7.0264  -6.9787
    -6.9695  -6.9680  -6.9514  -6.9292  -6.9255  -6.9050  -6.9002  -6.8655
    -6.8642  -6.8506  -6.8480  -6.8377  -6.8334  -6.8315  -6.7896  -6.7117
    -6.7039  -6.6799  -6.6773  -6.6518  -6.6401  -6.6308  -6.6222  -6.6152
    -6.6095  -6.5941  -6.5903  -6.5856  -6.5731  -6.5563  -6.5523  -6.5443
    -6.5206  -6.5194  -6.5056  -6.5025  -6.5001  -6.4852  -6.4803  -6.4727
    -6.4535  -6.4462  -6.4327  -6.4278  -6.4108  -6.4008  -6.3927  -6.3785
    -6.3741  -6.3651  -6.3503  -6.3459  -6.3452  -6.3109  -6.3091  -6.2760
    -6.2590  -6.2489  -6.2456  -6.2249  -6.2208  -6.2140  -6.2131  -6.2102
    -6.1666  -6.1476  -6.0890  -6.0865  -6.0715  -6.0521  -6.0336  -6.0178
    -6.0124  -5.9854  -5.9134  -5.9074  -5.8637  -5.8615  -5.8558  -5.8490
    -5.8235  -5.8221  -5.8016  -5.7766  -5.7347  -5.7230  -5.7088  -5.6371
    -5.6312  -5.6248  -5.6235  -5.5972  -5.5849  -5.5348  -5.5134  -5.5043
    -5.4869  -5.4807  -5.4107  -5.3869  -5.3774  -5.3604  -5.3017  -5.2872
    -5.2831  -5.2625  -5.2504  -5.2161  -5.1790  -5.1689  -5.1411  -5.1383
    -5.1369  -5.1056  -5.0707  -5.0617  -5.0570  -5.0500  -5.0437  -5.0342
    -5.0272  -4.9977  -4.9403  -4.9178  -4.8927  -4.8752  -4.8548  -4.7983
    -4.7848  -4.7778  -4.7609  -4.7302  -4.6923  -4.6814  -4.6730  -4.6693
    -4.6611  -4.6210  -4.5922  -4.5694  -4.4508  -4.4324  -4.4093  -4.4039
    -4.3886  -4.3849  -4.2752  -4.2716  -4.2564  -4.2277  -4.2195  -4.2162
    -4.2033  -4.1945  -4.1900  -4.1871  -4.1813  -4.1746  -4.1612  -4.1539
    -4.1397  -4.1261  -4.1225  -4.1038  -4.0757  -4.0299  -4.0119  -4.0021
    -3.9657  -3.9644  -3.9548  -3.9349  -3.9293  -3.9164  -3.9128  -3.9050
    -3.8967  -3.8887  -3.8872  -3.8780  -3.8747  -3.8739  -3.8634  -3.8451
    -3.8438  -3.8323  -3.8116  -3.8045  -3.7967  -3.7953  -3.7890  -3.7766
    -3.7695  -3.7634  -3.7584  -3.7580  -3.7547  -3.7506  -3.7396  -3.7357
    -3.7333  -3.7324  -3.7222  -3.7162  -3.7137  -3.7133  -3.6994  -3.6980
    -3.6939  -3.6833  -3.6821  -3.6795  -3.6787  -3.6624  -3.6503  -3.6484
    -3.6470  -3.6409  -3.6393  -3.6239  -3.6217  -3.6206  -3.6107  -3.6056
    -3.6050  -3.6035  -3.5890  -3.5839  -3.5775  -3.5770  -3.5747  -3.5735
    -3.5713  -3.5686  -3.5592  -3.5506  -3.5480  -3.5431  -3.5420  -3.5346
    -3.5334  -3.5262  -3.5238  -3.5222  -3.5111  -3.5097  -3.5068  -3.4925
    -3.4912  -3.4895  -3.4869  -3.4853  -3.4675  -3.4650  -3.4591  -3.4571
    -3.4554  -3.4534  -3.4439  -3.4426  -3.4356  -3.4329  -3.4299  -3.4227
    -3.4181  -3.4162  -3.4135  -3.4104  -3.3961  -3.3911  -3.3882  -3.3832
    -3.3680  -3.3631  -3.3623  -3.3580  -3.3497  -3.3417  -3.3389  -3.3382
    -3.3342  -3.3292  -3.3263  -3.3181  -3.3097  -3.3001  -3.2991  -3.2969
    -3.2921  -3.2894  -3.2777  -3.2650  -3.2584  -3.2561  -3.2423  -3.2329
    -3.2262  -3.2249  -3.2111  -3.2095  -3.2053  -3.2013  -3.1967  -3.1858
    -3.1785  -3.1763  -3.1708  -3.1599  -3.1571  -3.1502  -3.1475  -3.1463
    -3.1384  -3.1312  -3.1235  -3.1230  -3.1191  -3.1081  -3.1044  -3.1018
    -3.0913  -3.0894  -3.0830  -3.0807  -3.0704  -3.0689  -3.0671  -3.0430
    -3.0172  -3.0143  -3.0127  -3.0093  -3.0032  -2.9940  -2.9879  -2.9870
    -2.9817  -2.9807  -2.9767  -2.9741  -2.9702  -2.9647  -2.9639  -2.9545
    -2.9504  -2.9457  -2.9300  -2.9269  -2.9211  -2.9062  -2.8930  -2.8803
    -2.8699  -2.8680  -2.8649  -2.8419  -2.8267  -2.8157  -2.8148  -2.8072
    -2.8062  -2.7909  -2.7880  -2.7789  -2.7765  -2.7704  -2.7643  -2.7549
    -2.7435  -2.7268  -2.7194  -2.7124  -2.6885  -2.6617  -2.6580  -2.6490
    -2.6461  -2.6316  -2.6092  -2.6041  -2.5974  -2.5839  -2.5634  -2.5591
    -2.5346  -2.5323  -2.5215  -2.5201  -2.5127  -2.5102  -2.5080  -2.4974
    -2.4698  -2.4631  -2.4525  -2.4235  -2.4199  -2.4074  -2.3851  -2.3352
    -2.2642  -2.2027  -2.1997  -2.1729  -2.0936  -2.0507  -2.0369  -2.0287
    -2.0041  -1.9704  -1.9594  -1.9583  -1.9024  -1.8924  -1.8496  -1.8108
    -1.8066  -1.7424  -1.7400  -1.7137  -1.6489  -1.6456  -1.5679  -1.5426
    -1.5363  -1.5345  -1.4909  -1.4720  -1.4062  -1.3949  -1.3604  -1.3320
    -1.2758  -1.2657  -1.2547  -1.2478  -1.1138  -1.0556  -1.0548  -1.0464
    -1.0230  -1.0199  -1.0108  -1.0097  -0.9809  -0.9664  -0.9348  -0.9306
    -0.9142  -0.8839  -0.8829  -0.8312  -0.7981  -0.7782  -0.7480  -0.7197
    -0.6680  -0.6368  -0.6338  -0.6261  -0.5891  -0.5306  -0.5259  -0.4966
    -0.4825  -0.4225  -0.3960  -0.3925  -0.3885  -0.3865  -0.2099  -0.1548
    -0.1288  -0.1112  -0.0880   0.0079   0.0777   0.2199   0.4880   1.1552
     1.1618   1.5487   1.8739   1.9507   2.0156   2.1327   2.3914   2.5786
     2.6102   2.6378   2.6435   2.6824   2.7524   2.7989   2.9067   2.9758
     2.9789   3.0532   3.1136   3.1199   3.1407   3.1511   3.1977   3.2343
     3.2602   3.2928   3.3175   3.3270   3.3434   3.3445   3.3627   3.3747
     3.3932   3.4992   3.4998   3.5510   3.5906   3.6393   3.6657   3.7245
     3.7291   3.7369   3.7413   3.8238   3.8307   3.8652   3.9132   3.9288
     3.9320   3.9595   3.9708   4.0564   4.0595   4.0656   4.0765   4.1353
     4.1615   4.1973   4.2047   4.2213   4.2439   4.2518   4.3147   4.3274
     4.3361   4.3489   4.3593   4.4172   4.4368   4.4737   4.4804   4.5324
     4.5422   4.5882   4.6208

          k =-0.5000 0.0158 0.0000 (297332 PWs)   bands (ev):

   -26.9724 -26.7488 -25.4909 -25.2943 -20.7874 -20.7849 -20.5653 -20.5634
   -20.4434 -20.4379 -20.3686 -20.3652 -20.2802 -20.2777 -20.1639 -20.1634
   -20.1427 -20.1426 -20.0498 -20.0489 -20.0448 -20.0387 -20.0007 -19.9985
   -19.9760 -19.9752 -19.9278 -19.9259 -19.8984 -19.8981 -19.8504 -19.8479
   -19.7451 -19.7434 -19.6654 -19.6640 -19.6534 -19.6495 -19.6218 -19.6100
   -19.6091 -19.6084 -19.5777 -19.5721 -19.5648 -19.5638 -19.4442 -19.4340
   -19.4333 -19.4314 -19.3511 -19.3503 -19.3209 -19.3204 -19.2566 -19.2564
   -19.1949 -19.1847 -19.0264 -19.0156 -18.7611 -18.7513 -18.6868 -18.6774
   -18.5154 -18.5055 -18.4790 -18.4694 -16.1497 -14.5500 -12.3009 -10.9657
    -9.3034  -9.2931  -8.9281  -8.9276  -8.8198  -8.7731  -8.6289  -8.6266
    -8.1484  -8.1461  -8.1280  -8.1253  -7.8449  -7.8414  -7.8266  -7.8258
    -7.8212  -7.8151  -7.8145  -7.7411  -7.7312  -7.5832  -7.5791  -7.5767
    -7.5762  -7.5007  -7.4872  -7.4867  -7.4827  -7.4733  -7.4685  -7.4383
    -7.4364  -7.4037  -7.3935  -7.3923  -7.3909  -7.3709  -7.3642  -7.3456
    -7.3433  -7.2995  -7.2776  -7.2681  -7.2643  -7.2627  -7.2597  -7.2589
    -7.0844  -7.0820  -7.0786  -7.0783  -7.0378  -7.0349  -7.0025  -6.9962
    -6.9084  -6.9056  -6.9028  -6.9020  -6.8913  -6.8862  -6.8667  -6.8617
    -6.8594  -6.8577  -6.8473  -6.8467  -6.8439  -6.8347  -6.7839  -6.7789
    -6.7400  -6.7248  -6.7229  -6.7218  -6.7174  -6.7160  -6.6433  -6.6401
    -6.6154  -6.6149  -6.6079  -6.5841  -6.5834  -6.5561  -6.5518  -6.5280
    -6.5250  -6.5222  -6.5191  -6.5069  -6.5046  -6.4935  -6.4906  -6.4593
    -6.4549  -6.4440  -6.4420  -6.4106  -6.4087  -6.3998  -6.3967  -6.3952
    -6.3927  -6.3587  -6.3558  -6.3464  -6.3386  -6.3246  -6.3219  -6.3028
    -6.3008  -6.2982  -6.2954  -6.2345  -6.2335  -6.2237  -6.1919  -6.1916
    -6.1729  -6.1723  -6.1711  -6.1665  -6.0871  -6.0844  -6.0132  -6.0092
    -5.9448  -5.9431  -5.9416  -5.9382  -5.8732  -5.8691  -5.8381  -5.8313
    -5.8259  -5.7981  -5.7960  -5.7835  -5.7820  -5.7076  -5.7069  -5.7020
    -5.6990  -5.5876  -5.5823  -5.5817  -5.5814  -5.5686  -5.5611  -5.4972
    -5.4948  -5.4909  -5.4895  -5.4545  -5.4526  -5.3969  -5.3877  -5.3793
    -5.3610  -5.2834  -5.2824  -5.2045  -5.1936  -5.1458  -5.0643  -5.0504
    -5.0073  -5.0033  -4.9984  -4.9979  -4.9760  -4.9673  -4.9655  -4.9581
    -4.9371  -4.9285  -4.9281  -4.9244  -4.9185  -4.9030  -4.8903  -4.8690
    -4.8587  -4.8530  -4.7718  -4.7628  -4.7606  -4.7531  -4.7469  -4.7382
    -4.6798  -4.5780  -4.5753  -4.5348  -4.5315  -4.4943  -4.4875  -4.2671
    -4.2554  -4.2490  -4.2353  -4.2304  -4.2276  -4.2253  -4.2211  -4.2204
    -4.1810  -4.1758  -4.1745  -4.1700  -4.1561  -4.1506  -4.1413  -4.1375
    -4.1279  -4.1215  -4.0900  -4.0858  -4.0239  -4.0182  -4.0118  -4.0106
    -3.9560  -3.9507  -3.9194  -3.9156  -3.9119  -3.9095  -3.9080  -3.9054
    -3.8957  -3.8948  -3.8932  -3.8904  -3.8846  -3.8816  -3.8591  -3.8564
    -3.8239  -3.8199  -3.8145  -3.8114  -3.8067  -3.7947  -3.7935  -3.7899
    -3.7766  -3.7741  -3.7722  -3.7616  -3.7533  -3.7510  -3.7503  -3.7471
    -3.7405  -3.7387  -3.7274  -3.7222  -3.7118  -3.7104  -3.7082  -3.7050
    -3.7007  -3.6983  -3.6965  -3.6879  -3.6845  -3.6822  -3.6695  -3.6677
    -3.6669  -3.6648  -3.6637  -3.6623  -3.6491  -3.6467  -3.6408  -3.6379
    -3.6212  -3.6207  -3.6192  -3.6181  -3.6076  -3.6052  -3.5972  -3.5942
    -3.5929  -3.5901  -3.5827  -3.5778  -3.5751  -3.5745  -3.5673  -3.5670
    -3.5634  -3.5631  -3.5566  -3.5523  -3.5491  -3.5467  -3.5274  -3.5259
    -3.5173  -3.5153  -3.5024  -3.4990  -3.4769  -3.4755  -3.4742  -3.4730
    -3.4620  -3.4575  -3.4554  -3.4535  -3.4340  -3.4323  -3.4276  -3.4261
    -3.4203  -3.4191  -3.4140  -3.4137  -3.4049  -3.4043  -3.3963  -3.3935
    -3.3929  -3.3913  -3.3785  -3.3731  -3.3535  -3.3531  -3.3466  -3.3442
    -3.3426  -3.3329  -3.3325  -3.3316  -3.3291  -3.3184  -3.3152  -3.2817
    -3.2727  -3.2720  -3.2702  -3.2564  -3.2524  -3.2455  -3.2397  -3.2371
    -3.2330  -3.2298  -3.2236  -3.2073  -3.1963  -3.1775  -3.1731  -3.1716
    -3.1591  -3.1532  -3.1495  -3.1467  -3.1432  -3.1418  -3.1408  -3.1253
    -3.1240  -3.1218  -3.1192  -3.1066  -3.1053  -3.1044  -3.1032  -3.0884
    -3.0856  -3.0713  -3.0669  -3.0543  -3.0523  -3.0307  -3.0285  -3.0123
    -3.0047  -2.9943  -2.9905  -2.9823  -2.9783  -2.9769  -2.9746  -2.9651
    -2.9635  -2.9589  -2.9571  -2.9530  -2.9467  -2.9460  -2.9415  -2.9397
    -2.9390  -2.9381  -2.9336  -2.9197  -2.9165  -2.9010  -2.8929  -2.8490
    -2.8344  -2.8317  -2.8299  -2.8294  -2.8260  -2.8041  -2.8004  -2.7982
    -2.7963  -2.7903  -2.7886  -2.7691  -2.7576  -2.7520  -2.7479  -2.7297
    -2.7289  -2.6915  -2.6775  -2.6451  -2.6445  -2.6380  -2.6356  -2.6343
    -2.6305  -2.6298  -2.6177  -2.5886  -2.5840  -2.5778  -2.5748  -2.5664
    -2.5605  -2.5300  -2.5219  -2.5137  -2.5051  -2.4744  -2.4690  -2.4676
    -2.4515  -2.4352  -2.4280  -2.3962  -2.3884  -2.3699  -2.3648  -2.3615
    -2.3586  -2.3417  -2.3324  -2.2192  -2.2087  -2.1495  -2.1376  -2.0182
    -2.0149  -1.9211  -1.8988  -1.8800  -1.8621  -1.8316  -1.8051  -1.7562
    -1.7485  -1.6450  -1.6423  -1.6133  -1.6086  -1.5869  -1.5769  -1.5670
    -1.5632  -1.5322  -1.5303  -1.5156  -1.5138  -1.4557  -1.4535  -1.3795
    -1.3777  -1.3199  -1.3187  -1.2265  -1.2233  -1.1335  -1.1317  -1.0968
    -1.0942  -1.0876  -1.0855  -1.0410  -1.0388  -0.9935  -0.9906  -0.9889
    -0.9867  -0.9594  -0.9217  -0.8233  -0.8172  -0.7711  -0.7678  -0.6445
    -0.6348  -0.6057  -0.6033  -0.5238  -0.5207  -0.4873  -0.4771  -0.4286
    -0.4219  -0.4130  -0.3994  -0.3386  -0.3374  -0.2981  -0.2597  -0.1426
    -0.1420  -0.0464  -0.0409   0.1398   0.1494   0.5559   0.6283   0.9863
     1.0668   1.2839   1.2875   2.1624   2.1692   2.1876   2.1986   2.2337
     2.2449   2.7574   2.7635   2.8093   2.8152   2.9783   2.9865   3.0669
     3.0728   3.0780   3.0839   3.1658   3.1752   3.2107   3.2160   3.2312
     3.2529   3.2601   3.3328   3.3436   3.4166   3.4377   3.4430   3.4548
     3.4731   3.4779   3.4800   3.5732   3.6153   3.6561   3.6609   3.6900
     3.7116   3.7241   3.7619   3.7753   3.7820   3.8290   3.8328   3.9209
     3.9303   4.0488   4.0641   4.0699   4.0741   4.0798   4.0995   4.1762
     4.1869   4.2354   4.2536   4.2546   4.2671   4.3471   4.3550   4.3603
     4.4438   4.4524   4.4545   4.4842   4.5203   4.5216   4.5367   4.6028
     4.6053   4.6539   4.6743

          k =-0.5000 0.3007 0.0000 (297403 PWs)   bands (ev):

   -26.9724 -26.7488 -25.4909 -25.2943 -20.7548 -20.7503 -20.5315 -20.5293
   -20.5268 -20.5209 -20.3428 -20.3376 -20.2771 -20.2664 -20.2523 -20.2475
   -20.1532 -20.1433 -20.1404 -20.1357 -20.0564 -20.0487 -19.9735 -19.9653
   -19.9625 -19.9560 -19.8794 -19.8748 -19.8287 -19.8243 -19.8218 -19.8124
   -19.7097 -19.7005 -19.6976 -19.6918 -19.6472 -19.6368 -19.6091 -19.6024
   -19.6010 -19.5888 -19.5799 -19.5691 -19.4878 -19.4820 -19.4771 -19.4703
   -19.4636 -19.4585 -19.3919 -19.3867 -19.3577 -19.3521 -19.2859 -19.2807
   -19.1767 -19.1660 -19.0621 -19.0500 -18.7192 -18.7081 -18.6470 -18.6358
   -18.5471 -18.5363 -18.5036 -18.4931 -16.1497 -14.5500 -12.3009 -10.9657
    -9.3034  -9.2931  -8.8198  -8.8044  -8.7984  -8.7731  -8.5129  -8.5058
    -8.0664  -8.0615  -8.0539  -8.0318  -8.0087  -7.9975  -7.8180  -7.8095
    -7.7994  -7.7766  -7.7743  -7.7711  -7.7480  -7.6948  -7.6762  -7.6726
    -7.6463  -7.5769  -7.5478  -7.5436  -7.5429  -7.5409  -7.5323  -7.4924
    -7.4859  -7.4504  -7.4494  -7.4432  -7.4393  -7.4347  -7.4174  -7.3702
    -7.3544  -7.3369  -7.3213  -7.3139  -7.3034  -7.2948  -7.2311  -7.2253
    -7.1464  -7.1355  -7.1019  -7.0992  -7.0908  -7.0743  -7.0637  -7.0347
    -6.9306  -6.9190  -6.9165  -6.9057  -6.8948  -6.8916  -6.8888  -6.8866
    -6.8783  -6.8774  -6.8334  -6.8226  -6.8184  -6.8087  -6.7633  -6.7588
    -6.7435  -6.7270  -6.6773  -6.6738  -6.6363  -6.6313  -6.6250  -6.6235
    -6.6145  -6.6077  -6.6054  -6.5953  -6.5862  -6.5690  -6.5665  -6.5585
    -6.5576  -6.5540  -6.5235  -6.5199  -6.5189  -6.5156  -6.5151  -6.5093
    -6.4835  -6.4601  -6.4513  -6.4270  -6.4193  -6.4174  -6.4138  -6.3868
    -6.3803  -6.3318  -6.3247  -6.3195  -6.3164  -6.3039  -6.3019  -6.2974
    -6.2858  -6.2797  -6.2782  -6.2728  -6.2621  -6.2276  -6.2115  -6.2100
    -6.1953  -6.1866  -6.0352  -5.9709  -5.9619  -5.9556  -5.9472  -5.9195
    -5.9181  -5.9002  -5.8597  -5.8472  -5.8454  -5.8355  -5.8215  -5.7347
    -5.7263  -5.6953  -5.6596  -5.6555  -5.6539  -5.6439  -5.6426  -5.6084
    -5.5732  -5.5440  -5.5399  -5.5378  -5.5303  -5.5084  -5.4969  -5.4960
    -5.4597  -5.4357  -5.4328  -5.4167  -5.4091  -5.4040  -5.3875  -5.3687
    -5.3607  -5.3282  -5.2785  -5.1931  -5.1808  -5.1685  -5.1610  -5.1464
    -5.1365  -5.1222  -5.0982  -5.0877  -5.0759  -5.0585  -5.0389  -5.0050
    -4.9999  -4.9723  -4.9422  -4.9378  -4.9234  -4.9117  -4.8865  -4.8548
    -4.8157  -4.7916  -4.7781  -4.7690  -4.7443  -4.7408  -4.7285  -4.7238
    -4.6996  -4.6898  -4.6805  -4.6748  -4.6384  -4.4164  -4.4113  -4.3871
    -4.3837  -4.2937  -4.2889  -4.2672  -4.2511  -4.2293  -4.2226  -4.2095
    -4.2061  -4.2048  -4.1968  -4.1916  -4.1745  -4.1706  -4.1644  -4.1570
    -4.1512  -4.1443  -4.1035  -4.0957  -4.0775  -4.0735  -4.0188  -3.9946
    -3.9796  -3.9667  -3.9598  -3.9490  -3.9377  -3.9360  -3.9306  -3.9209
    -3.9179  -3.9095  -3.9034  -3.8892  -3.8786  -3.8743  -3.8251  -3.8157
    -3.8150  -3.8107  -3.8040  -3.8033  -3.7964  -3.7938  -3.7847  -3.7748
    -3.7730  -3.7677  -3.7585  -3.7581  -3.7534  -3.7456  -3.7416  -3.7406
    -3.7356  -3.7227  -3.7187  -3.7170  -3.7139  -3.7085  -3.7062  -3.6977
    -3.6960  -3.6892  -3.6864  -3.6839  -3.6767  -3.6718  -3.6670  -3.6638
    -3.6601  -3.6510  -3.6405  -3.6384  -3.6373  -3.6310  -3.6298  -3.6197
    -3.6041  -3.6019  -3.5981  -3.5841  -3.5827  -3.5820  -3.5776  -3.5752
    -3.5727  -3.5677  -3.5674  -3.5641  -3.5545  -3.5520  -3.5456  -3.5426
    -3.5286  -3.5234  -3.5172  -3.5114  -3.5022  -3.5012  -3.5003  -3.4933
    -3.4919  -3.4842  -3.4812  -3.4733  -3.4697  -3.4688  -3.4621  -3.4613
    -3.4574  -3.4521  -3.4452  -3.4357  -3.4319  -3.4272  -3.4236  -3.4190
    -3.4175  -3.4135  -3.4061  -3.3986  -3.3794  -3.3761  -3.3703  -3.3684
    -3.3668  -3.3640  -3.3615  -3.3567  -3.3526  -3.3482  -3.3403  -3.3349
    -3.3286  -3.3250  -3.3235  -3.3049  -3.2989  -3.2984  -3.2967  -3.2768
    -3.2751  -3.2737  -3.2711  -3.2695  -3.2569  -3.2541  -3.2535  -3.2445
    -3.2294  -3.2139  -3.2115  -3.2094  -3.2023  -3.2002  -3.1954  -3.1895
    -3.1884  -3.1846  -3.1766  -3.1757  -3.1679  -3.1628  -3.1585  -3.1391
    -3.1314  -3.1281  -3.1265  -3.1223  -3.1217  -3.1175  -3.1080  -3.1012
    -3.0931  -3.0896  -3.0843  -3.0757  -3.0628  -3.0603  -3.0579  -3.0382
    -3.0300  -3.0175  -3.0095  -3.0031  -3.0012  -2.9937  -2.9895  -2.9807
    -2.9801  -2.9771  -2.9740  -2.9685  -2.9629  -2.9609  -2.9550  -2.9501
    -2.9339  -2.9321  -2.9244  -2.9120  -2.8997  -2.8549  -2.8526  -2.8480
    -2.8432  -2.8394  -2.8344  -2.8298  -2.8207  -2.7997  -2.7976  -2.7933
    -2.7916  -2.7884  -2.7854  -2.7810  -2.7760  -2.7647  -2.7562  -2.7366
    -2.7287  -2.7181  -2.6998  -2.6921  -2.6824  -2.6682  -2.6642  -2.6619
    -2.6601  -2.6195  -2.6166  -2.6139  -2.6104  -2.6030  -2.5930  -2.5919
    -2.5839  -2.5431  -2.5357  -2.5267  -2.5233  -2.5195  -2.5170  -2.4885
    -2.4788  -2.4578  -2.4470  -2.4157  -2.4063  -2.3508  -2.3466  -2.3372
    -2.3255  -2.2471  -2.2305  -2.2088  -2.1961  -2.1269  -2.1051  -1.9551
    -1.9501  -1.9390  -1.9201  -1.9163  -1.9005  -1.8976  -1.8958  -1.8595
    -1.8322  -1.8025  -1.7664  -1.6537  -1.6423  -1.5773  -1.5736  -1.5599
    -1.5210  -1.4677  -1.4280  -1.4250  -1.3605  -1.3594  -1.3180  -1.2508
    -1.2143  -1.2124  -1.2047  -1.1999  -1.1889  -1.0719  -1.0667  -1.0306
    -1.0277  -1.0227  -1.0116  -1.0106  -0.9862  -0.9530  -0.9505  -0.9492
    -0.9208  -0.9145  -0.9132  -0.8778  -0.8544  -0.8239  -0.7893  -0.7146
    -0.7029  -0.6202  -0.5957  -0.5643  -0.5617  -0.5548  -0.5500  -0.4656
    -0.4457  -0.4319  -0.4302  -0.4045  -0.3832  -0.3534  -0.3192  -0.3020
    -0.2658  -0.1458  -0.1108  -0.0072   0.0257   0.6196   0.7021   0.9182
     1.0049   1.4504   1.4828   2.2357   2.2566   2.2673   2.2717   2.3682
     2.3902   2.5986   2.6154   2.8168   2.8301   2.8467   2.8738   2.8883
     2.9016   3.1391   3.1498   3.1571   3.1623   3.2397   3.2612   3.2720
     3.2788   3.2934   3.3144   3.3437   3.4625   3.4699   3.4777   3.5122
     3.5316   3.5464   3.5562   3.5589   3.6107   3.6393   3.6445   3.6452
     3.6558   3.7399   3.8263   3.8315   3.8579   3.8594   3.8843   3.9050
     3.9436   3.9857   4.0095   4.0260   4.0317   4.0499   4.0923   4.0949
     4.1110   4.1351   4.1681   4.1945   4.2039   4.2412   4.2592   4.2926
     4.3104   4.3313   4.3571   4.3701   4.3758   4.4227   4.4720   4.5351
     4.5495   4.5670   4.5994

          k =-0.5000-0.5540 0.0000 (297400 PWs)   bands (ev):

   -26.9724 -26.7488 -25.4909 -25.2943 -20.6623 -20.6608 -20.6545 -20.6526
   -20.4321 -20.4306 -20.4239 -20.4219 -20.2686 -20.2675 -20.2602 -20.2577
   -20.1721 -20.1702 -20.1642 -20.1623 -20.0712 -20.0692 -20.0619 -20.0611
   -19.8239 -19.8221 -19.8175 -19.8158 -19.8156 -19.8145 -19.8080 -19.8074
   -19.6942 -19.6914 -19.6851 -19.6829 -19.6310 -19.6303 -19.6204 -19.6199
   -19.5478 -19.5449 -19.5390 -19.5280 -19.4992 -19.4982 -19.4903 -19.4895
   -19.4543 -19.4535 -19.4440 -19.4431 -19.3625 -19.3624 -19.3534 -19.3522
   -19.1295 -19.1249 -19.1187 -19.1103 -18.6297 -18.6275 -18.6203 -18.6124
   -18.5706 -18.5672 -18.5607 -18.5525 -16.1497 -14.5500 -12.3009 -10.9657
    -9.3034  -9.2931  -8.8198  -8.7731  -8.4620  -8.4595  -8.4493  -8.4479
    -8.1806  -8.1793  -8.1673  -8.1654  -7.8815  -7.8811  -7.8254  -7.8249
    -7.8215  -7.8210  -7.8177  -7.8130  -7.8116  -7.7103  -7.7090  -7.7039
    -7.7012  -7.6550  -7.6518  -7.6486  -7.6478  -7.6199  -7.6189  -7.5692
    -7.5674  -7.4664  -7.4655  -7.4497  -7.4481  -7.3966  -7.3923  -7.3876
    -7.3835  -7.3092  -7.3058  -7.2998  -7.2927  -7.2874  -7.2610  -7.2575
    -7.2246  -7.2242  -7.1505  -7.1491  -7.1209  -7.1206  -6.9855  -6.9849
    -6.9669  -6.9661  -6.9297  -6.9282  -6.9151  -6.9142  -6.8681  -6.8663
    -6.8615  -6.8582  -6.8210  -6.8198  -6.8136  -6.8064  -6.7898  -6.7868
    -6.7742  -6.7721  -6.6602  -6.6578  -6.6526  -6.6511  -6.6152  -6.6016
    -6.5999  -6.5969  -6.5949  -6.5871  -6.5848  -6.5741  -6.5646  -6.5488
    -6.5483  -6.5442  -6.5423  -6.5382  -6.5369  -6.5073  -6.5068  -6.4819
    -6.4796  -6.4765  -6.4732  -6.4405  -6.4372  -6.4333  -6.4294  -6.3904
    -6.3871  -6.3853  -6.3828  -6.3224  -6.3197  -6.3163  -6.3140  -6.2735
    -6.2714  -6.2649  -6.2633  -6.2337  -6.2328  -6.2252  -6.2173  -6.2166
    -6.0830  -6.0820  -6.0757  -6.0752  -5.9319  -5.9306  -5.8974  -5.8965
    -5.8237  -5.7922  -5.7915  -5.7830  -5.7814  -5.7429  -5.7409  -5.6592
    -5.6582  -5.6312  -5.6298  -5.5586  -5.5576  -5.5019  -5.4982  -5.4876
    -5.4863  -5.4321  -5.4281  -5.4248  -5.4233  -5.4217  -5.4172  -5.3870
    -5.3615  -5.3537  -5.3530  -5.3425  -5.3412  -5.3399  -5.3332  -5.3257
    -5.3249  -5.2846  -5.2815  -5.2788  -5.2765  -5.2418  -5.2417  -5.2171
    -5.2168  -5.1861  -5.1854  -5.1307  -5.0350  -5.0349  -5.0341  -5.0304
    -5.0167  -5.0162  -4.9972  -4.9917  -4.9849  -4.9822  -4.9672  -4.9604
    -4.9141  -4.8546  -4.8491  -4.8434  -4.7937  -4.7871  -4.7670  -4.7589
    -4.7559  -4.7494  -4.7025  -4.7017  -4.6935  -4.6905  -4.6774  -4.3082
    -4.3077  -4.2902  -4.2885  -4.2867  -4.2843  -4.2787  -4.2747  -4.2541
    -4.2493  -4.2260  -4.2184  -4.2178  -4.1660  -4.1634  -4.1570  -4.1520
    -4.1506  -4.1474  -4.1269  -4.1245  -4.0074  -4.0061  -3.9990  -3.9953
    -3.9873  -3.9867  -3.9804  -3.9793  -3.9564  -3.9529  -3.9412  -3.9402
    -3.9304  -3.9296  -3.9257  -3.9213  -3.8709  -3.8682  -3.8484  -3.8406
    -3.8304  -3.8289  -3.8220  -3.8182  -3.7934  -3.7801  -3.7600  -3.7590
    -3.7523  -3.7464  -3.7425  -3.7394  -3.7393  -3.7377  -3.7335  -3.7330
    -3.7316  -3.7297  -3.7284  -3.7217  -3.7076  -3.7058  -3.7042  -3.7037
    -3.6900  -3.6895  -3.6824  -3.6815  -3.6715  -3.6709  -3.6646  -3.6630
    -3.6444  -3.6437  -3.6355  -3.6341  -3.6323  -3.6308  -3.6171  -3.6157
    -3.5755  -3.5752  -3.5698  -3.5692  -3.5683  -3.5675  -3.5590  -3.5576
    -3.5544  -3.5538  -3.5491  -3.5483  -3.5458  -3.5444  -3.5384  -3.5354
    -3.4875  -3.4870  -3.4868  -3.4850  -3.4811  -3.4790  -3.4730  -3.4715
    -3.4664  -3.4659  -3.4512  -3.4494  -3.4419  -3.4409  -3.4278  -3.4269
    -3.4263  -3.4257  -3.4172  -3.4157  -3.4061  -3.4051  -3.4034  -3.3991
    -3.3955  -3.3937  -3.3902  -3.3878  -3.3610  -3.3594  -3.3576  -3.3566
    -3.3477  -3.3469  -3.3396  -3.3390  -3.3357  -3.3348  -3.3329  -3.3165
    -3.3159  -3.2942  -3.2927  -3.2831  -3.2819  -3.2790  -3.2777  -3.2721
    -3.2706  -3.2520  -3.2510  -3.2499  -3.2468  -3.2465  -3.2439  -3.2371
    -3.2360  -3.2274  -3.2262  -3.2246  -3.2234  -3.2219  -3.2209  -3.2119
    -3.2117  -3.2090  -3.2082  -3.2010  -3.1996  -3.1848  -3.1837  -3.1657
    -3.1588  -3.1580  -3.1568  -3.1411  -3.1387  -3.1363  -3.1337  -3.1274
    -3.1261  -3.0911  -3.0892  -3.0825  -3.0812  -3.0684  -3.0667  -3.0518
    -3.0509  -3.0206  -3.0201  -3.0139  -3.0126  -3.0089  -3.0055  -3.0049
    -3.0025  -2.9716  -2.9703  -2.9691  -2.9687  -2.9632  -2.9580  -2.9513
    -2.9505  -2.8925  -2.8911  -2.8755  -2.8736  -2.8704  -2.8686  -2.8672
    -2.8653  -2.8479  -2.8469  -2.8247  -2.8214  -2.8135  -2.8117  -2.8051
    -2.8035  -2.7867  -2.7855  -2.7851  -2.7847  -2.7797  -2.7781  -2.7769
    -2.7752  -2.7465  -2.7444  -2.7280  -2.7242  -2.6836  -2.6817  -2.6785
    -2.6771  -2.6712  -2.6694  -2.6662  -2.6648  -2.6013  -2.5986  -2.5871
    -2.5838  -2.5569  -2.5511  -2.5507  -2.5461  -2.4954  -2.4932  -2.4874
    -2.4746  -2.4531  -2.4505  -2.4461  -2.4352  -2.3366  -2.3334  -2.3170
    -2.3128  -2.1394  -2.1380  -2.1310  -2.1284  -2.1019  -2.0957  -2.0812
    -2.0796  -1.9461  -1.9421  -1.9140  -1.9099  -1.9041  -1.8989  -1.8926
    -1.8635  -1.8042  -1.7995  -1.7928  -1.7926  -1.5297  -1.5275  -1.5149
    -1.5125  -1.2960  -1.2955  -1.2472  -1.2469  -1.2248  -1.2238  -1.1962
    -1.1943  -1.1919  -1.1909  -1.1094  -1.1079  -1.0926  -1.0920  -1.0446
    -1.0434  -1.0145  -1.0113  -0.9921  -0.9918  -0.8965  -0.8942  -0.8634
    -0.8622  -0.7724  -0.7708  -0.7660  -0.7651  -0.7315  -0.7303  -0.7089
    -0.7081  -0.6830  -0.6822  -0.6539  -0.6536  -0.6505  -0.6500  -0.6081
    -0.6077  -0.4433  -0.4408  -0.4302  -0.4208  -0.3363  -0.3340  -0.3091
    -0.3062  -0.2936  -0.2879  -0.2676  -0.2643   0.7628   0.7707   0.8437
     0.8696   1.8675   1.8696   1.9144   1.9167   2.4624   2.4657   2.5282
     2.5311   2.6834   2.6874   2.7027   2.7113   2.8719   2.8743   2.8874
     2.8923   3.0468   3.0476   3.0806   3.0822   3.2485   3.2516   3.2571
     3.2663   3.3351   3.3369   3.3430   3.3473   3.3942   3.4791   3.4808
     3.5096   3.5137   3.5220   3.5248   3.5471   3.5500   3.6793   3.7554
     3.7624   3.7872   3.7952   3.8493   3.8576   3.8659   3.8957   3.9351
     3.9452   3.9511   3.9595   3.9789   4.0311   4.1010   4.1076   4.1193
     4.1228   4.1620   4.1647   4.1711   4.1758   4.1772   4.1871   4.2224
     4.2530   4.4177   4.4483   4.4593   4.4612   4.4851   4.4864   4.5065
     4.5116   4.5354   4.5415

     the Fermi energy is    -1.0586 ev

!    total energy              =  -16575.12927324 Ry
     estimated scf accuracy    <          9.9E-09 Ry
     smearing contrib. (-TS)   =      -0.02116364 Ry
     internal energy E=F+TS    =  -16575.10810961 Ry

     The total energy is F=E-TS. E is the sum of the following terms:
     one-electron contribution = -292172.68869515 Ry
     hartree contribution      =  146965.53132603 Ry
     xc contribution           =   -3383.27914084 Ry
     ewald contribution        =  138399.91649271 Ry
     one-center paw contrib.   =   -6384.58809236 Ry

     total magnetization       =     0.55 Bohr mag/cell
     absolute magnetization    =     1.41 Bohr mag/cell

     convergence has been achieved in 379 iterations

     negative rho (up, down):  3.140E-03 3.131E-03

     Forces acting on atoms (cartesian axes, Ry/au):

     atom    1 type  1   force =    -0.00140837    0.00042773    0.00066465
     atom    2 type  1   force =     0.00007099    0.00014667    0.00021564
     atom    3 type  1   force =    -0.00091210    0.00029353    0.00146851
     atom    4 type  1   force =     0.00016607    0.00022207   -0.00006125
     atom    5 type  2   force =     0.00023272    0.00111610    0.00081492
     atom    6 type  2   force =     0.00013642   -0.00084746    0.00083897
     atom    7 type  2   force =     0.00020496    0.00121836    0.00033171
     atom    8 type  2   force =     0.00015732   -0.00104163    0.00058953
     atom    9 type  1   force =     0.00011262   -0.00012622   -0.00057532
     atom   10 type  1   force =     0.00004208   -0.00008761   -0.00143453
     atom   11 type  1   force =     0.00004909   -0.00015966   -0.00091188
     atom   12 type  1   force =     0.00006324   -0.00018825   -0.00138954
     atom   13 type  2   force =    -0.00020315   -0.00057569    0.00004198
     atom   14 type  2   force =     0.00004900    0.00008365    0.00040384
     atom   15 type  2   force =    -0.00008463   -0.00050033    0.00023299
     atom   16 type  2   force =     0.00006009    0.00016332    0.00030996
     atom   17 type  1   force =    -0.00019855   -0.00057774   -0.00042301
     atom   18 type  1   force =    -0.00009129   -0.00032576   -0.00045070
     atom   19 type  1   force =    -0.00007521   -0.00028591   -0.00030211
     atom   20 type  1   force =    -0.00017859   -0.00037133   -0.00028335
     atom   21 type  2   force =    -0.00000402    0.00001753    0.00060728
     atom   22 type  2   force =    -0.00018284   -0.00019405    0.00046196
     atom   23 type  2   force =    -0.00009794   -0.00025364    0.00059249
     atom   24 type  2   force =    -0.00026052   -0.00059423    0.00033741
     atom   25 type  1   force =    -0.00005134    0.00009005    0.00019114
     atom   26 type  1   force =    -0.00007628    0.00041653   -0.00028445
     atom   27 type  1   force =    -0.00005370    0.00002569    0.00014242
     atom   28 type  1   force =    -0.00010110    0.00045943   -0.00073860
     atom   29 type  2   force =    -0.00003916    0.00029842    0.00002540
     atom   30 type  2   force =     0.00000206    0.00056747   -0.00054856
     atom   31 type  2   force =     0.00002761    0.00021340   -0.00034426
     atom   32 type  2   force =     0.00001933    0.00057453    0.00065693
     atom   33 type  1   force =    -0.00089115    0.00046965    0.00055178
     atom   34 type  1   force =     0.00009775    0.00016742    0.00020675
     atom   35 type  1   force =    -0.00098447    0.00035617    0.00114176
     atom   36 type  1   force =     0.00018610   -0.00002660   -0.00002373
     atom   37 type  2   force =     0.00022779    0.00110543    0.00062769
     atom   38 type  2   force =     0.00012765   -0.00084728    0.00065811
     atom   39 type  2   force =     0.00015288    0.00110286    0.00016519
     atom   40 type  2   force =     0.00003948   -0.00091580    0.00041938
     atom   41 type  1   force =     0.00018928   -0.00009898   -0.00073368
     atom   42 type  1   force =     0.00015250   -0.00008923   -0.00154920
     atom   43 type  1   force =     0.00000908   -0.00014164   -0.00107303
     atom   44 type  1   force =     0.00002694   -0.00008720   -0.00142096
     atom   45 type  2   force =    -0.00014681   -0.00037961    0.00008029
     atom   46 type  2   force =    -0.00009646    0.00018814    0.00029344
     atom   47 type  2   force =    -0.00010698   -0.00045887    0.00021511
     atom   48 type  2   force =     0.00006572    0.00004151    0.00053761
     atom   49 type  1   force =    -0.00027567   -0.00038044   -0.00036944
     atom   50 type  1   force =    -0.00027867   -0.00036154   -0.00036840
     atom   51 type  1   force =    -0.00016958   -0.00052559   -0.00027021
     atom   52 type  1   force =    -0.00015096   -0.00036377   -0.00047568
     atom   53 type  2   force =    -0.00007441   -0.00038689    0.00064665
     atom   54 type  2   force =    -0.00027006   -0.00048334    0.00032512
     atom   55 type  2   force =    -0.00014821   -0.00019745    0.00071586
     atom   56 type  2   force =    -0.00025573   -0.00054700    0.00046347
     atom   57 type  1   force =    -0.00012530   -0.00021477    0.00018860
     atom   58 type  1   force =     0.00004650    0.00041228   -0.00062548
     atom   59 type  1   force =    -0.00009439   -0.00010400    0.00017293
     atom   60 type  1   force =    -0.00003190    0.00040233   -0.00021062
     atom   61 type  2   force =     0.00016440    0.00025093    0.00003476
     atom   62 type  2   force =    -0.00011030    0.00054485   -0.00045914
     atom   63 type  2   force =     0.00003556    0.00030110    0.00085500
     atom   64 type  2   force =    -0.00012624    0.00058917   -0.00080168
     atom   65 type  1   force =     0.00123444    0.00030097    0.00099683
     atom   66 type  1   force =     0.00031428    0.00020132    0.00000566
     atom   67 type  1   force =     0.00019220    0.00042786    0.00025313
     atom   68 type  1   force =     0.00026448    0.00013071    0.00025148
     atom   69 type  2   force =     0.00031353    0.00127041    0.00017584
     atom   70 type  2   force =     0.00007909   -0.00111606    0.00049217
     atom   71 type  2   force =     0.00034031    0.00117313    0.00047984
     atom   72 type  2   force =     0.00006337   -0.00089848    0.00069293
     atom   73 type  1   force =     0.00020369   -0.00016244   -0.00100878
     atom   74 type  1   force =     0.00019123   -0.00022502   -0.00133264
     atom   75 type  1   force =     0.00031733   -0.00013962   -0.00079264
     atom   76 type  1   force =     0.00020996   -0.00013423   -0.00141007
     atom   77 type  2   force =     0.00008481   -0.00055185    0.00014106
     atom   78 type  2   force =     0.00018791    0.00010911    0.00044316
     atom   79 type  2   force =    -0.00005129   -0.00043396    0.00008147
     atom   80 type  2   force =     0.00016485    0.00023161    0.00019825
     atom   81 type  1   force =     0.00008179   -0.00059427   -0.00036866
     atom   82 type  1   force =    -0.00013609   -0.00037501   -0.00028113
     atom   83 type  1   force =    -0.00000140   -0.00035772   -0.00042686
     atom   84 type  1   force =    -0.00022478   -0.00032012   -0.00044324
     atom   85 type  2   force =    -0.00013125   -0.00018155    0.00061906
     atom   86 type  2   force =    -0.00024380   -0.00043977    0.00041330
     atom   87 type  2   force =    -0.00009735   -0.00031574    0.00059710
     atom   88 type  2   force =    -0.00021161   -0.00053328    0.00022398
     atom   89 type  1   force =    -0.00012308   -0.00003376    0.00015670
     atom   90 type  1   force =    -0.00002771    0.00039228   -0.00079554
     atom   91 type  1   force =    -0.00022065   -0.00010666    0.00012349
     atom   92 type  1   force =    -0.00007122    0.00037299   -0.00033737
     atom   93 type  2   force =    -0.00003640    0.00025372    0.00007291
     atom   94 type  2   force =    -0.00023088    0.00061186   -0.00020843
     atom   95 type  2   force =    -0.00009661    0.00020862    0.00006075
     atom   96 type  2   force =    -0.00015217    0.00062534   -0.00056905
     atom   97 type  1   force =     0.00110259    0.00040467    0.00068540
     atom   98 type  1   force =     0.00021258    0.00006676    0.00005470
     atom   99 type  1   force =    -0.00012984    0.00039764    0.00065433
     atom  100 type  1   force =     0.00021715    0.00024141    0.00027309
     atom  101 type  2   force =     0.00031102    0.00096257    0.00019229
     atom  102 type  2   force =     0.00015807   -0.00091816    0.00048747
     atom  103 type  2   force =     0.00035029    0.00117625    0.00025452
     atom  104 type  2   force =     0.00022826   -0.00085869    0.00043454
     atom  105 type  1   force =     0.00022632   -0.00019317   -0.00108511
     atom  106 type  1   force =     0.00017841   -0.00006799   -0.00139770
     atom  107 type  1   force =     0.00038899   -0.00011324   -0.00099559
     atom  108 type  1   force =     0.00014785   -0.00008170   -0.00150320
     atom  109 type  2   force =     0.00005796   -0.00039485    0.00013130
     atom  110 type  2   force =     0.00032973    0.00009088    0.00042611
     atom  111 type  2   force =    -0.00000324   -0.00045089    0.00003730
     atom  112 type  2   force =     0.00016957    0.00022886    0.00031189
     atom  113 type  1   force =     0.00022502   -0.00041753   -0.00034718
     atom  114 type  1   force =    -0.00009648   -0.00036130   -0.00049351
     atom  115 type  1   force =     0.00005461   -0.00041317   -0.00042907
     atom  116 type  1   force =     0.00001727   -0.00032799   -0.00050219
     atom  117 type  2   force =    -0.00006934   -0.00018836    0.00062670
     atom  118 type  2   force =    -0.00025505   -0.00048306    0.00050138
     atom  119 type  2   force =     0.00001507   -0.00026098    0.00054733
     atom  120 type  2   force =    -0.00025831   -0.00046622    0.00048882
     atom  121 type  1   force =    -0.00006962    0.00001379    0.00012945
     atom  122 type  1   force =    -0.00009117    0.00043769   -0.00031240
     atom  123 type  1   force =    -0.00013534   -0.00002292    0.00015456
     atom  124 type  1   force =    -0.00006948    0.00044808   -0.00069906
     atom  125 type  2   force =    -0.00019855    0.00023369    0.00029556
     atom  126 type  2   force =    -0.00013246    0.00050857   -0.00032712
     atom  127 type  2   force =    -0.00002485    0.00018656   -0.00014073
     atom  128 type  2   force =    -0.00014437    0.00049950   -0.00031599
     atom  129 type  3   force =     0.00006523   -0.00052993    0.00028998
     atom  130 type  3   force =     0.00011203    0.00015035   -0.00009770
     atom  131 type  4   force =     0.00007692    0.00050032    0.00000493
     atom  132 type  4   force =    -0.00035952    0.00009722   -0.00021765
     atom  133 type  4   force =     0.00023677   -0.00000820    0.00026881
     atom  134 type  3   force =    -0.00002150   -0.00025415    0.00040830
     atom  135 type  5   force =    -0.00008859    0.00054194   -0.00006549
     atom  136 type  4   force =     0.00029115   -0.00016043    0.00027064
     atom  137 type  3   force =    -0.00002798    0.00016625   -0.00012742
     atom  138 type  5   force =     0.00019805    0.00026999    0.00062688
     atom  139 type  4   force =    -0.00011316   -0.00017349    0.00016450
     atom  140 type  5   force =    -0.00015422    0.00016765    0.00051773
     atom  141 type  5   force =     0.00020745    0.00034448    0.00004887
     atom  142 type  4   force =     0.00011858    0.00009410    0.00016655

     Total force =     0.009595     Total SCF correction =     0.000163


     Computing stress (Cartesian axis) and pressure


     negative rho (up, down):  3.140E-03 3.131E-03
          total   stress  (Ry/bohr**3)                   (kbar)     P=       -1.48
  -0.00004552  -0.00000597  -0.00000133           -6.70       -0.88       -0.20
  -0.00000597   0.00002282   0.00000085           -0.88        3.36        0.13
  -0.00000133   0.00000085  -0.00000746           -0.20        0.13       -1.10


     Writing all to output data dir ./tmp/CuO_PVDF/CuO_PVDF.save/ :
     XML data file, charge density, pseudopotentials
===================================================================================
=   BAD TERMINATION OF ONE OF YOUR APPLICATION PROCESSES
=   RANK 1 PID 3289947 RUNNING AT rpcn133
=   KILLED BY SIGNAL: 9 (Killed)
===================================================================================
