
     Program PWSCF v.7.5 starts on 19Jun2026 at 21:23:39 

     This program is part of the open-source Quantum ESPRESSO suite
     for quantum simulation of materials; please cite
         "P. Giannozzi et al., J. Phys.:Condens. Matter 21 395502 (2009);
         "P. Giannozzi et al., J. Phys.:Condens. Matter 29 465901 (2017);
         "P. Giannozzi et al., J. Chem. Phys. 152 154105 (2020);
          URL http://www.quantum-espresso.org", 
     in publications or presentations arising from this work. More details at
     http://www.quantum-espresso.org/quote

     Parallel version (MPI), running on    12 processors

     MPI processes distributed on     1 nodes
     103528 MiB available memory on the printing compute node when the environment starts

     Waiting for input...
     Reading input from standard input

     Current dimensions of program PWSCF are:
     Max number of different atomic species (ntypx) = 10
     Max number of k-points (npk) =  40000
     Max angular momentum in pseudopotentials (lmaxx) =  4
     file Cu.paw.z_11.ld1.psl.v1.0.0-low.upf: wavefunction(s)  4S 3D renormalized
     Found identity + (  0.2500  0.0000  0.0000) symmetry
     This is a supercell, fractional translations are disabled
     Message from routine setup:
     using ibrav=0 with symmetry is DISCOURAGED, use correct ibrav instead

     R & G space division:  proc/nbgrp/npool/nimage =      12
     Subspace diagonalization in iterative solution of the eigenvalue problem:
     one sub-group per band group will be used
     custom distributed-memory algorithm (size of sub-group:  3*  3 procs)


     Parallelization info
     --------------------
     sticks:   dense  smooth     PW     G-vecs:    dense   smooth      PW
     Min        1026     513    136               345690   122243   16806
     Max        1027     514    137               345707   122262   16823
     Sum       12319    6157   1639              4148395  1466949  201767

     Using Slab Decomposition



     bravais-lattice index     =            0
     lattice parameter (alat)  =      19.2953  a.u.
     unit-cell volume          =   23358.7195 (a.u.)^3
     number of atoms/cell      =           80
     number of atomic types    =            1
     number of electrons       =       880.00
     number of Kohn-Sham states=          528
     kinetic-energy cutoff     =      60.0000  Ry
     charge density cutoff     =     480.0000  Ry
     scf convergence threshold =      1.0E-08
     mixing beta               =       0.3000
     number of iterations used =            8  plain     mixing
     energy convergence thresh.=      1.0E-04
     force convergence thresh. =      1.0E-03
     Exchange-correlation= SLA  PW   PBX  PBC
                           (   1   4   3   4   0   0   0)
     nstep                     =           50


     celldm(1)=  19.295279  celldm(2)=   0.000000  celldm(3)=   0.000000
     celldm(4)=   0.000000  celldm(5)=   0.000000  celldm(6)=   0.000000

     crystal axes: (cart. coord. in units of alat)
               a(1) = (   1.000000   0.000000   0.000000 )  
               a(2) = (   0.500000   0.866025   0.000000 )  
               a(3) = (   0.000000   0.000000   3.754613 )  

     reciprocal axes: (cart. coord. in units 2 pi/alat)
               b(1) = (  1.000000 -0.577350  0.000000 )  
               b(2) = (  0.000000  1.154701  0.000000 )  
               b(3) = (  0.000000  0.000000  0.266339 )  


     PseudoPot. # 1 for Cu read from file:
     ./Cu.paw.z_11.ld1.psl.v1.0.0-low.upf
     MD5 check sum: 619f40885d92a09a85a8b37550532d0c
     Pseudo is Projector augmented-wave + core cor, Zval = 11.0
     Generated using &quot;atomic&quot; code by A. Dal Corso  v.6.3MaX
     Shape of augmentation charge: PSQ
     Using radial grid of 1199 points,  6 beta functions with: 
                l(1) =   0
                l(2) =   0
                l(3) =   1
                l(4) =   1
                l(5) =   2
                l(6) =   2
     Q(r) pseudized with 0 coefficients 


     atomic species   valence    mass     pseudopotential
     Cu               11.00    63.54600     Cu( 1.00)

      6 Sym. Ops. (no inversion) found



   Cartesian axes

     site n.     atom                  positions (alat units)
         1        Cu     tau(   1) = (   1.0000000   0.1443376   1.4690584  )
         2        Cu     tau(   2) = (   0.2500000   0.1443376   1.4690584  )
         3        Cu     tau(   3) = (   0.5000000   0.1443376   1.4690584  )
         4        Cu     tau(   4) = (   0.7500000   0.1443376   1.4690584  )
         5        Cu     tau(   5) = (   1.1250000   0.3608439   1.4690584  )
         6        Cu     tau(   6) = (   0.3750000   0.3608439   1.4690584  )
         7        Cu     tau(   7) = (   0.6250000   0.3608439   1.4690584  )
         8        Cu     tau(   8) = (   0.8750000   0.3608439   1.4690584  )
         9        Cu     tau(   9) = (   1.2500000   0.5773503   1.4690584  )
        10        Cu     tau(  10) = (   0.5000000   0.5773503   1.4690584  )
        11        Cu     tau(  11) = (   0.7500000   0.5773503   1.4690584  )
        12        Cu     tau(  12) = (   1.0000000   0.5773503   1.4690584  )
        13        Cu     tau(  13) = (   1.3750000   0.7938566   1.4690584  )
        14        Cu     tau(  14) = (   0.6250000   0.7938566   1.4690584  )
        15        Cu     tau(  15) = (   0.8750000   0.7938566   1.4690584  )
        16        Cu     tau(  16) = (   1.1250000   0.7938566   1.4690584  )
        17        Cu     tau(  17) = (   0.0000000   0.0000000   1.6731825  )
        18        Cu     tau(  18) = (   0.2500000   0.0000000   1.6731825  )
        19        Cu     tau(  19) = (   0.5000000   0.0000000   1.6731825  )
        20        Cu     tau(  20) = (   0.7500000   0.0000000   1.6731825  )
        21        Cu     tau(  21) = (   0.1250000   0.2165064   1.6731825  )
        22        Cu     tau(  22) = (   0.3750000   0.2165064   1.6731825  )
        23        Cu     tau(  23) = (   0.6250000   0.2165064   1.6731825  )
        24        Cu     tau(  24) = (   0.8750000   0.2165064   1.6731825  )
        25        Cu     tau(  25) = (   0.2500000   0.4330127   1.6731825  )
        26        Cu     tau(  26) = (   0.5000000   0.4330127   1.6731825  )
        27        Cu     tau(  27) = (   0.7500000   0.4330127   1.6731825  )
        28        Cu     tau(  28) = (   1.0000000   0.4330127   1.6731825  )
        29        Cu     tau(  29) = (   0.3750000   0.6495191   1.6731825  )
        30        Cu     tau(  30) = (   0.6250000   0.6495191   1.6731825  )
        31        Cu     tau(  31) = (   0.8750000   0.6495191   1.6731825  )
        32        Cu     tau(  32) = (   1.1250000   0.6495191   1.6731825  )
        33        Cu     tau(  33) = (   0.1250000   0.0721688   1.8773067  )
        34        Cu     tau(  34) = (   0.3750000   0.0721688   1.8773067  )
        35        Cu     tau(  35) = (   0.6250000   0.0721688   1.8773067  )
        36        Cu     tau(  36) = (   0.8750000   0.0721688   1.8773067  )
        37        Cu     tau(  37) = (   0.2500000   0.2886751   1.8773067  )
        38        Cu     tau(  38) = (   0.5000000   0.2886751   1.8773067  )
        39        Cu     tau(  39) = (   0.7500000   0.2886751   1.8773067  )
        40        Cu     tau(  40) = (   1.0000000   0.2886751   1.8773067  )
        41        Cu     tau(  41) = (   0.3750000   0.5051815   1.8773067  )
        42        Cu     tau(  42) = (   0.6250000   0.5051815   1.8773067  )
        43        Cu     tau(  43) = (   0.8750000   0.5051815   1.8773067  )
        44        Cu     tau(  44) = (   1.1250000   0.5051815   1.8773067  )
        45        Cu     tau(  45) = (   0.5000000   0.7216878   1.8773067  )
        46        Cu     tau(  46) = (   0.7500000   0.7216878   1.8773067  )
        47        Cu     tau(  47) = (   1.0000000   0.7216878   1.8773067  )
        48        Cu     tau(  48) = (   1.2500000   0.7216878   1.8773067  )
        49        Cu     tau(  49) = (   1.0000000   0.1443376   2.0814308  )
        50        Cu     tau(  50) = (   0.2500000   0.1443376   2.0814308  )
        51        Cu     tau(  51) = (   0.5000000   0.1443376   2.0814308  )
        52        Cu     tau(  52) = (   0.7500000   0.1443376   2.0814308  )
        53        Cu     tau(  53) = (   1.1250000   0.3608439   2.0814308  )
        54        Cu     tau(  54) = (   0.3750000   0.3608439   2.0814308  )
        55        Cu     tau(  55) = (   0.6250000   0.3608439   2.0814308  )
        56        Cu     tau(  56) = (   0.8750000   0.3608439   2.0814308  )
        57        Cu     tau(  57) = (   1.2500000   0.5773503   2.0814308  )
        58        Cu     tau(  58) = (   0.5000000   0.5773503   2.0814308  )
        59        Cu     tau(  59) = (   0.7500000   0.5773503   2.0814308  )
        60        Cu     tau(  60) = (   1.0000000   0.5773503   2.0814308  )
        61        Cu     tau(  61) = (   1.3750000   0.7938566   2.0814308  )
        62        Cu     tau(  62) = (   0.6250000   0.7938566   2.0814308  )
        63        Cu     tau(  63) = (   0.8750000   0.7938566   2.0814308  )
        64        Cu     tau(  64) = (   1.1250000   0.7938566   2.0814308  )
        65        Cu     tau(  65) = (   0.0000000   0.0000000   2.2855550  )
        66        Cu     tau(  66) = (   0.2500000   0.0000000   2.2855550  )
        67        Cu     tau(  67) = (   0.5000000   0.0000000   2.2855550  )
        68        Cu     tau(  68) = (   0.7500000   0.0000000   2.2855550  )
        69        Cu     tau(  69) = (   0.1250000   0.2165064   2.2855550  )
        70        Cu     tau(  70) = (   0.3750000   0.2165064   2.2855550  )
        71        Cu     tau(  71) = (   0.6250000   0.2165064   2.2855550  )
        72        Cu     tau(  72) = (   0.8750000   0.2165064   2.2855550  )
        73        Cu     tau(  73) = (   0.2500000   0.4330127   2.2855550  )
        74        Cu     tau(  74) = (   0.5000000   0.4330127   2.2855550  )
        75        Cu     tau(  75) = (   0.7500000   0.4330127   2.2855550  )
        76        Cu     tau(  76) = (   1.0000000   0.4330127   2.2855550  )
        77        Cu     tau(  77) = (   0.3750000   0.6495191   2.2855550  )
        78        Cu     tau(  78) = (   0.6250000   0.6495191   2.2855550  )
        79        Cu     tau(  79) = (   0.8750000   0.6495191   2.2855550  )
        80        Cu     tau(  80) = (   1.1250000   0.6495191   2.2855550  )

     number of k points=     4  Marzari-Vanderbilt smearing, width (Ry)=  0.0200
                       cart. coord. in units 2pi/alat
        k(    1) = (   0.0000000   0.0000000   0.0000000), wk =   0.1250000
        k(    2) = (   0.0000000   0.2886751   0.0000000), wk =   0.7500000
        k(    3) = (   0.0000000  -0.5773503   0.0000000), wk =   0.3750000
        k(    4) = (   0.2500000  -0.7216878   0.0000000), wk =   0.7500000

     Dense  grid:  4148395 G-vectors     FFT dimensions: ( 135, 135, 512)

     Smooth grid:  1466949 G-vectors     FFT dimensions: (  96,  96, 360)

     Estimated max dynamical RAM per process >       3.31 GB

     Estimated total dynamical RAM >      39.71 GB

     Initial potential from superposition of free atoms

     starting charge     879.9818, renormalised to     880.0000

     negative rho (up, down):  2.936E-03 0.000E+00
     Starting wfcs are  720 randomized atomic wfcs
     Checking if some PAW data can be deallocated... 

     total cpu time spent up to now is      217.6 secs

     Self-consistent Calculation

     iteration #  1     ecut=    60.00 Ry     beta= 0.30
     Davidson diagonalization with overlap
     ethr =  1.00E-02,  avg # of iterations =  3.8

     Threshold (ethr) on eigenvalues was too large:
     Diagonalizing with lowered threshold

     Davidson diagonalization with overlap
     c_bands:  1 eigenvalues not converged
     ethr =  3.75E-04,  avg # of iterations = 10.0

     negative rho (up, down):  2.836E-03 0.000E+00

     total cpu time spent up to now is     1830.8 secs

     total energy              =  -17045.46262108 Ry
     estimated scf accuracy    <       4.64926318 Ry

     iteration #  2     ecut=    60.00 Ry     beta= 0.30
     Davidson diagonalization with overlap
     ethr =  5.28E-04,  avg # of iterations = 14.0

     negative rho (up, down):  2.863E-03 0.000E+00

     total cpu time spent up to now is     3202.7 secs

     total energy              =  -17044.72006510 Ry
     estimated scf accuracy    <      16.97990681 Ry

     iteration #  3     ecut=    60.00 Ry     beta= 0.30
     Davidson diagonalization with overlap
     ethr =  5.28E-04,  avg # of iterations =  5.0

     negative rho (up, down):  2.898E-03 0.000E+00

     total cpu time spent up to now is     3839.2 secs

     total energy              =  -17046.36456485 Ry
     estimated scf accuracy    <       6.17639713 Ry

     iteration #  4     ecut=    60.00 Ry     beta= 0.30
     Davidson diagonalization with overlap
     ethr =  5.28E-04,  avg # of iterations =  1.0

     negative rho (up, down):  2.928E-03 0.000E+00

     total cpu time spent up to now is     4250.8 secs

     total energy              =  -17046.60088667 Ry
     estimated scf accuracy    <       0.62853582 Ry

     iteration #  5     ecut=    60.00 Ry     beta= 0.30
     Davidson diagonalization with overlap
     ethr =  7.14E-05,  avg # of iterations = 10.5

     negative rho (up, down):  2.981E-03 0.000E+00

     total cpu time spent up to now is     5048.1 secs

     total energy              =  -17046.59747800 Ry
     estimated scf accuracy    <       0.86768885 Ry

     iteration #  6     ecut=    60.00 Ry     beta= 0.30
     Davidson diagonalization with overlap
     ethr =  7.14E-05,  avg # of iterations =  2.0

     negative rho (up, down):  3.018E-03 0.000E+00

     total cpu time spent up to now is     5528.9 secs

     total energy              =  -17046.62465938 Ry
     estimated scf accuracy    <       0.08219785 Ry

     iteration #  7     ecut=    60.00 Ry     beta= 0.30
     Davidson diagonalization with overlap
     c_bands:  2 eigenvalues not converged
     c_bands:  1 eigenvalues not converged
     ethr =  9.34E-06,  avg # of iterations = 21.8

     negative rho (up, down):  3.035E-03 0.000E+00

     total cpu time spent up to now is     6974.1 secs

     total energy              =  -17046.62294683 Ry
     estimated scf accuracy    <       0.05435938 Ry

     iteration #  8     ecut=    60.00 Ry     beta= 0.30
     Davidson diagonalization with overlap
     ethr =  6.18E-06,  avg # of iterations =  2.0

     negative rho (up, down):  3.048E-03 0.000E+00

     total cpu time spent up to now is     7452.7 secs

     total energy              =  -17046.62377838 Ry
     estimated scf accuracy    <       0.01143758 Ry

     iteration #  9     ecut=    60.00 Ry     beta= 0.30
     Davidson diagonalization with overlap
     c_bands:  1 eigenvalues not converged
     ethr =  1.30E-06,  avg # of iterations = 11.0

     negative rho (up, down):  3.057E-03 0.000E+00

     total cpu time spent up to now is     8253.6 secs

     total energy              =  -17046.62474349 Ry
     estimated scf accuracy    <       0.00158767 Ry

     iteration # 10     ecut=    60.00 Ry     beta= 0.30
     Davidson diagonalization with overlap
     ethr =  1.80E-07,  avg # of iterations =  2.0

     negative rho (up, down):  3.061E-03 0.000E+00

     total cpu time spent up to now is     8734.8 secs

     total energy              =  -17046.62483017 Ry
     estimated scf accuracy    <       0.00050207 Ry

     iteration # 11     ecut=    60.00 Ry     beta= 0.30
     Davidson diagonalization with overlap
     ethr =  5.71E-08,  avg # of iterations =  2.0

     negative rho (up, down):  3.064E-03 0.000E+00

     total cpu time spent up to now is     9221.3 secs

     total energy              =  -17046.62487524 Ry
     estimated scf accuracy    <       0.00024892 Ry

     iteration # 12     ecut=    60.00 Ry     beta= 0.30
     Davidson diagonalization with overlap
     ethr =  2.83E-08,  avg # of iterations =  1.5

     negative rho (up, down):  3.066E-03 0.000E+00

     total cpu time spent up to now is     9667.1 secs

     total energy              =  -17046.62489571 Ry
     estimated scf accuracy    <       0.00005043 Ry

     iteration # 13     ecut=    60.00 Ry     beta= 0.30
     Davidson diagonalization with overlap
     ethr =  5.73E-09,  avg # of iterations =  2.0

     negative rho (up, down):  3.068E-03 0.000E+00

     total cpu time spent up to now is    10155.8 secs

     total energy              =  -17046.62489945 Ry
     estimated scf accuracy    <       0.00001057 Ry

     iteration # 14     ecut=    60.00 Ry     beta= 0.30
     Davidson diagonalization with overlap
     ethr =  1.20E-09,  avg # of iterations =  3.0

     negative rho (up, down):  3.069E-03 0.000E+00

     total cpu time spent up to now is    10682.1 secs

     total energy              =  -17046.62489989 Ry
     estimated scf accuracy    <       0.00001076 Ry

     iteration # 15     ecut=    60.00 Ry     beta= 0.30
     Davidson diagonalization with overlap
     ethr =  1.20E-09,  avg # of iterations =  2.0

     negative rho (up, down):  3.069E-03 0.000E+00

     total cpu time spent up to now is    11155.3 secs

     total energy              =  -17046.62489875 Ry
     estimated scf accuracy    <       0.00013016 Ry

     iteration # 16     ecut=    60.00 Ry     beta= 0.30
     Davidson diagonalization with overlap
     ethr =  1.20E-09,  avg # of iterations =  1.0

     negative rho (up, down):  3.070E-03 0.000E+00

     total cpu time spent up to now is    11577.1 secs

     total energy              =  -17046.62490117 Ry
     estimated scf accuracy    <       0.00000033 Ry

     iteration # 17     ecut=    60.00 Ry     beta= 0.30
     Davidson diagonalization with overlap
     ethr =  3.73E-11,  avg # of iterations =  4.0

     negative rho (up, down):  3.070E-03 0.000E+00

     total cpu time spent up to now is    12283.9 secs

     total energy              =  -17046.62490127 Ry
     estimated scf accuracy    <       0.00000035 Ry

     iteration # 18     ecut=    60.00 Ry     beta= 0.30
     Davidson diagonalization with overlap
     ethr =  3.73E-11,  avg # of iterations =  2.0

     negative rho (up, down):  3.070E-03 0.000E+00

     total cpu time spent up to now is    12766.8 secs

     total energy              =  -17046.62490130 Ry
     estimated scf accuracy    <       0.00000014 Ry

     iteration # 19     ecut=    60.00 Ry     beta= 0.30
     Davidson diagonalization with overlap
     ethr =  1.60E-11,  avg # of iterations =  1.2

     negative rho (up, down):  3.071E-03 0.000E+00

     total cpu time spent up to now is    13203.3 secs

     total energy              =  -17046.62490133 Ry
     estimated scf accuracy    <       0.00000006 Ry

     iteration # 20     ecut=    60.00 Ry     beta= 0.30
     Davidson diagonalization with overlap
     ethr =  6.79E-12,  avg # of iterations =  2.0

     negative rho (up, down):  3.071E-03 0.000E+00

     total cpu time spent up to now is    13693.0 secs

     total energy              =  -17046.62490133 Ry
     estimated scf accuracy    <       0.00000005 Ry

     iteration # 21     ecut=    60.00 Ry     beta= 0.30
     Davidson diagonalization with overlap
     ethr =  5.25E-12,  avg # of iterations =  1.0

     negative rho (up, down):  3.071E-03 0.000E+00

     total cpu time spent up to now is    14120.8 secs

     total energy              =  -17046.62490133 Ry
     estimated scf accuracy    <       0.00000001 Ry

     iteration # 22     ecut=    60.00 Ry     beta= 0.30
     Davidson diagonalization with overlap
     ethr =  1.33E-12,  avg # of iterations =  2.0

     negative rho (up, down):  3.071E-03 0.000E+00

     total cpu time spent up to now is    14602.8 secs

     End of self-consistent calculation

          k = 0.0000 0.0000 0.0000 (183353 PWs)   bands (ev):

    -9.1273  -8.2514  -7.2367  -7.2367  -7.2367  -7.2367  -7.2367  -7.2367
    -6.9248  -6.4689  -6.4689  -6.4689  -6.4689  -6.4689  -6.4689  -5.6557
    -5.3817  -5.3817  -5.3817  -5.3817  -5.3817  -5.3817  -5.1488  -4.9476
    -4.9476  -4.9476  -4.7881  -4.7881  -4.7881  -4.6546  -4.6546  -4.6546
    -4.6546  -4.6546  -4.6546  -4.6144  -4.6144  -4.6144  -4.4623  -4.4623
    -4.4623  -4.4623  -4.4623  -4.4623  -4.4570  -4.4570  -4.4570  -4.4570
    -4.4570  -4.4570  -4.3743  -4.3743  -4.3743  -4.3387  -4.3387  -4.3387
    -4.2483  -4.2483  -4.2483  -4.2483  -4.2483  -4.2483  -4.1850  -4.1850
    -4.1850  -4.1850  -4.1850  -4.1850  -4.1811  -4.1811  -4.1811  -4.1459
    -4.1459  -4.1459  -4.1459  -4.1459  -4.1459  -4.0281  -4.0281  -4.0281
    -3.8760  -3.8760  -3.8760  -3.8760  -3.8760  -3.8760  -3.8222  -3.8222
    -3.8222  -3.8222  -3.8222  -3.8222  -3.8099  -3.8099  -3.8099  -3.8099
    -3.8099  -3.8099  -3.6690  -3.6690  -3.6690  -3.6690  -3.6690  -3.6690
    -3.5911  -3.5911  -3.5911  -3.5546  -3.5546  -3.5546  -3.5546  -3.5546
    -3.5546  -3.5408  -3.5408  -3.5408  -3.5408  -3.5408  -3.5408  -3.4238
    -3.4238  -3.4238  -3.4238  -3.4238  -3.4238  -3.3639  -3.3639  -3.3639
    -3.3639  -3.3639  -3.3639  -3.3574  -3.3574  -3.3574  -3.3574  -3.3574
    -3.3574  -3.3532  -3.3532  -3.3532  -3.3532  -3.3532  -3.3532  -3.1871
    -3.1871  -3.1871  -3.1549  -3.1549  -3.1549  -3.1549  -3.1549  -3.1549
    -3.1374  -3.1342  -3.1342  -3.1342  -3.1341  -3.1341  -3.1341  -3.1311
    -3.1311  -3.1311  -3.1311  -3.1311  -3.1311  -3.1123  -3.0749  -3.0749
    -3.0749  -3.0063  -3.0063  -2.9425  -2.9425  -2.9425  -2.9425  -2.9425
    -2.9425  -2.9405  -2.9365  -2.9365  -2.9282  -2.9282  -2.9282  -2.9129
    -2.9129  -2.8969  -2.8969  -2.8969  -2.8969  -2.8969  -2.8969  -2.7995
    -2.7995  -2.7995  -2.7995  -2.7995  -2.7995  -2.7739  -2.7739  -2.7739
    -2.7739  -2.7739  -2.7739  -2.7652  -2.7652  -2.7652  -2.7652  -2.7652
    -2.7652  -2.7555  -2.7555  -2.7555  -2.7555  -2.7555  -2.7555  -2.7275
    -2.7275  -2.7275  -2.7200  -2.7200  -2.7200  -2.7200  -2.7200  -2.7200
    -2.6930  -2.6930  -2.6734  -2.6734  -2.6734  -2.6734  -2.6734  -2.6734
    -2.6728  -2.6728  -2.6390  -2.6390  -2.6390  -2.6371  -2.6371  -2.6371
    -2.6371  -2.6371  -2.6371  -2.6043  -2.6043  -2.6043  -2.6014  -2.6014
    -2.6014  -2.6014  -2.6014  -2.6014  -2.5772  -2.5132  -2.5132  -2.5132
    -2.5132  -2.5132  -2.5132  -2.4272  -2.4272  -2.4272  -2.4272  -2.4272
    -2.4272  -2.4109  -2.4109  -2.4109  -2.4109  -2.4109  -2.4109  -2.3093
    -2.3093  -2.3093  -2.3093  -2.3093  -2.3093  -2.2870  -2.2870  -2.2870
    -2.2870  -2.2870  -2.2870  -2.2852  -2.2852  -2.2852  -2.2852  -2.2852
    -2.2852  -2.1720  -2.1720  -2.1591  -2.1591  -2.1591  -2.1384  -2.1384
    -2.1384  -2.1384  -2.1384  -2.1384  -2.1317  -2.1317  -2.1317  -2.1317
    -2.1317  -2.1317  -2.1118  -2.1118  -2.0942  -2.0942  -2.0942  -2.0942
    -2.0942  -2.0942  -2.0582  -2.0582  -2.0582  -2.0334  -2.0334  -2.0334
    -2.0334  -2.0334  -2.0334  -2.0329  -2.0329  -2.0329  -2.0329  -2.0329
    -2.0329  -1.9971  -1.9971  -1.9971  -1.9971  -1.9971  -1.9971  -1.9582
    -1.9582  -1.9582  -1.9582  -1.9582  -1.9582  -1.9037  -1.9037  -1.8847
    -1.8847  -1.8847  -1.8847  -1.8847  -1.8847  -1.8689  -1.8689  -1.8689
    -1.7893  -1.7893  -1.7893  -1.7607  -1.7607  -1.7607  -1.7607  -1.7607
    -1.7607  -1.6813  -1.6813  -1.6813  -1.6813  -1.6813  -1.6813  -1.6717
    -1.6717  -1.6362  -1.6362  -1.6362  -1.6069  -1.6069  -1.6069  -1.6069
    -1.6069  -1.6069  -1.5850  -1.5850  -1.5819  -1.5819  -1.5819  -1.5722
    -1.5722  -1.5722  -1.5722  -1.5722  -1.5722  -1.5721  -1.5721  -1.5721
    -1.5621  -1.5621  -1.5621  -1.5621  -1.5621  -1.5621  -1.5454  -1.5454
    -1.5454  -1.5454  -1.5454  -1.5454  -1.5429  -1.5429  -1.5429  -1.4910
    -1.4910  -1.4910  -1.4771  -1.4771  -1.4771  -1.4771  -1.4771  -1.4771
    -1.3401  -1.3401  -1.3401  -1.3371  -1.3371  -1.3371  -1.0122  -0.5495
    -0.5495  -0.5495  -0.5495  -0.5495  -0.5495  -0.4054  -0.4054  -0.4054
    -0.3315  -0.1858  -0.1858  -0.1858  -0.1858  -0.1858  -0.1858   0.1918
     0.1918   0.1918   0.1918   0.1918   0.1918   0.4725   0.4725   0.4725
     1.0457   1.0457   1.0457   1.0775   1.0775   1.0775   1.0775   1.0775
     1.0775   1.2215   1.2215   1.2215   1.2215   1.2215   1.2215   1.4020
     1.4020   1.4020   1.5192   1.5192   1.5192   2.5608   2.5608   2.5608
     2.5608   2.5608   2.5608   2.8309   2.8309   2.8309   2.8309   2.8309
     2.8309   4.1225   4.1274   4.1274   4.1274   4.3230   4.4427   4.5247
     4.5247   4.5247   4.5247   4.5247   4.5247   4.8102   4.9398   4.9398
     4.9398   4.9855   5.6319   5.6319   5.6319   5.6836   5.6936   5.6936
     5.6936   5.6936   5.6936   5.6936   5.7337   6.2350   6.2351   6.2352
     6.2352   6.2352   6.2352   6.3304   6.3306   6.3306   6.3308   6.3308
     6.3308   6.3605   6.3605   6.3605   6.3605   6.3605   6.3605   6.6837

          k = 0.0000 0.2887 0.0000 (183317 PWs)   bands (ev):

    -9.0016  -8.1292  -8.0282  -7.5656  -7.5656  -7.1968  -6.8092  -6.7649
    -6.7649  -6.7117  -6.7117  -6.3408  -6.0084  -6.0084  -5.9612  -5.7151
    -5.5985  -5.5985  -5.5509  -5.2992  -5.2992  -5.0694  -5.0694  -5.0629
    -5.0590  -4.9411  -4.9146  -4.9146  -4.8834  -4.8834  -4.8399  -4.8314
    -4.7507  -4.7507  -4.7130  -4.7130  -4.6885  -4.5846  -4.5846  -4.5651
    -4.5651  -4.5181  -4.5181  -4.4868  -4.4524  -4.4524  -4.3707  -4.3562
    -4.3562  -4.3405  -4.3327  -4.3327  -4.3252  -4.3252  -4.3049  -4.3049
    -4.3019  -4.2994  -4.2994  -4.2687  -4.2687  -4.2489  -4.2489  -4.1668
    -4.1668  -4.1541  -4.1372  -4.1372  -4.1257  -4.1257  -4.1132  -4.1132
    -4.1020  -4.0571  -4.0571  -4.0352  -4.0352  -4.0311  -4.0311  -3.9880
    -3.9880  -3.9794  -3.9791  -3.9344  -3.9344  -3.9249  -3.9249  -3.8826
    -3.8826  -3.8374  -3.8374  -3.7868  -3.7868  -3.7560  -3.7560  -3.7110
    -3.7110  -3.7003  -3.6897  -3.6897  -3.6897  -3.6897  -3.6859  -3.6859
    -3.5996  -3.5996  -3.5827  -3.5827  -3.5814  -3.5814  -3.5785  -3.5775
    -3.5125  -3.5125  -3.5062  -3.5062  -3.4949  -3.4949  -3.4926  -3.4926
    -3.4849  -3.4849  -3.4685  -3.4324  -3.4324  -3.4240  -3.4240  -3.4062
    -3.4062  -3.4045  -3.3738  -3.3738  -3.3493  -3.3493  -3.3358  -3.3358
    -3.3210  -3.2986  -3.2986  -3.2768  -3.2768  -3.2587  -3.2512  -3.2157
    -3.2157  -3.2067  -3.2067  -3.1935  -3.1858  -3.1800  -3.1654  -3.1654
    -3.1647  -3.1389  -3.1389  -3.1384  -3.1384  -3.1345  -3.1345  -3.0899
    -3.0899  -3.0649  -3.0649  -3.0577  -3.0577  -3.0545  -3.0516  -3.0422
    -2.9953  -2.9953  -2.9848  -2.9848  -2.9637  -2.9623  -2.9623  -2.9575
    -2.9546  -2.9502  -2.9367  -2.9367  -2.9362  -2.9186  -2.9186  -2.9127
    -2.9126  -2.9047  -2.8830  -2.8830  -2.8824  -2.8693  -2.8580  -2.8580
    -2.8571  -2.8571  -2.8473  -2.8473  -2.8338  -2.8338  -2.8314  -2.8235
    -2.8235  -2.8111  -2.8082  -2.7784  -2.7784  -2.7736  -2.7656  -2.7656
    -2.7631  -2.7623  -2.7623  -2.7542  -2.7542  -2.7466  -2.7466  -2.7296
    -2.7245  -2.7245  -2.7183  -2.7183  -2.7127  -2.7019  -2.6979  -2.6979
    -2.6816  -2.6816  -2.6746  -2.6746  -2.6685  -2.6685  -2.6580  -2.6550
    -2.6546  -2.6546  -2.6456  -2.6355  -2.6330  -2.6330  -2.6307  -2.6285
    -2.6285  -2.6144  -2.5942  -2.5867  -2.5867  -2.5640  -2.5640  -2.5559
    -2.5541  -2.5541  -2.5335  -2.5098  -2.5098  -2.4997  -2.4840  -2.4840
    -2.4729  -2.4679  -2.4428  -2.4428  -2.4417  -2.4417  -2.4349  -2.4349
    -2.4340  -2.4340  -2.4216  -2.4216  -2.4017  -2.3867  -2.3867  -2.3477
    -2.3477  -2.3319  -2.3215  -2.3108  -2.3108  -2.2716  -2.2716  -2.2580
    -2.2580  -2.2569  -2.2569  -2.2377  -2.2377  -2.2354  -2.2198  -2.2198
    -2.2140  -2.2077  -2.2020  -2.1961  -2.1961  -2.1867  -2.1867  -2.1588
    -2.1504  -2.1430  -2.1307  -2.1307  -2.1187  -2.1187  -2.1119  -2.1119
    -2.0990  -2.0852  -2.0848  -2.0848  -2.0832  -2.0832  -2.0775  -2.0775
    -2.0695  -2.0643  -2.0548  -2.0548  -2.0398  -2.0398  -2.0257  -2.0257
    -2.0248  -1.9697  -1.9697  -1.9608  -1.9608  -1.9591  -1.9591  -1.9531
    -1.9528  -1.9473  -1.9473  -1.9419  -1.9419  -1.9393  -1.9393  -1.9094
    -1.9057  -1.9037  -1.8923  -1.8923  -1.8918  -1.8918  -1.8879  -1.8879
    -1.8832  -1.8687  -1.8236  -1.8064  -1.8064  -1.8028  -1.8028  -1.8025
    -1.8025  -1.8020  -1.7883  -1.7719  -1.7677  -1.7677  -1.7619  -1.7590
    -1.7590  -1.7522  -1.7522  -1.7282  -1.7282  -1.7237  -1.7237  -1.7149
    -1.7149  -1.6775  -1.6721  -1.6683  -1.6659  -1.6659  -1.6653  -1.6630
    -1.6290  -1.6248  -1.6248  -1.6215  -1.6215  -1.6176  -1.6171  -1.6171
    -1.6055  -1.5987  -1.5987  -1.5907  -1.5907  -1.5876  -1.5876  -1.5870
    -1.5870  -1.5831  -1.5823  -1.5823  -1.5758  -1.5758  -1.5739  -1.5739
    -1.5707  -1.5487  -1.5464  -1.5464  -1.5372  -1.5372  -1.5241  -1.5204
    -1.5204  -1.5140  -1.5140  -1.4743  -1.4743  -1.4639  -1.4639  -1.4151
    -1.4151  -1.3998  -1.3998  -1.3929  -1.3865  -1.3491  -1.0451  -1.0119
    -0.9556  -0.9556  -0.7570  -0.7570  -0.7292  -0.7292  -0.7264  -0.4401
    -0.3212  -0.3212  -0.1967  -0.1967  -0.1868  -0.1868  -0.0772  -0.0772
     0.0172   0.0596   0.1803   0.1803   0.2134   0.3130   0.3130   0.4714
     0.9199   0.9199   0.9220   0.9220   0.9234   0.9234   1.0497   1.0497
     1.3605   1.3605   1.4516   1.4516   1.5463   1.7060   1.7060   1.7262
     1.7262   1.7281   2.0800   2.1481   2.1481   2.3834   2.3834   2.4383
     2.4383   2.4983   2.4983   2.6620   3.3975   3.3975   3.5390   3.5390
     3.7494   3.7494   4.0516   4.2179   4.2179   4.2240   4.2332   4.2332
     4.4074   4.4427   4.5151   4.5151   4.5592   4.9295   5.0154   5.0357
     5.0357   5.0947   5.1853   5.2594   5.2594   5.2981   5.2981   5.3998
     5.4070   5.4070   5.4998   5.5570   5.5570   5.8015   5.8348   5.8348
     5.8414   5.8477   5.8782   5.8782   5.8835   5.9742   5.9743   5.9867
     6.0489   6.0489   6.0639   6.0639   6.1743   6.1743   6.2628   6.2630

          k = 0.0000-0.5774 0.0000 (183406 PWs)   bands (ev):

    -8.6294  -8.6294  -7.7696  -7.7696  -7.6773  -7.6773  -6.8665  -6.8665
    -6.4736  -6.4736  -6.0361  -6.0361  -6.0361  -6.0361  -5.6755  -5.6755
    -5.5258  -5.5258  -5.4448  -5.4448  -5.4448  -5.4448  -5.2534  -5.2534
    -5.1401  -5.1401  -4.8250  -4.8250  -4.8250  -4.8250  -4.8221  -4.8221
    -4.7578  -4.7578  -4.7345  -4.7345  -4.7345  -4.7345  -4.6475  -4.6475
    -4.6475  -4.6475  -4.6025  -4.6025  -4.4935  -4.4935  -4.4935  -4.4935
    -4.3526  -4.3526  -4.2958  -4.2958  -4.2303  -4.2303  -4.2303  -4.2303
    -4.2279  -4.2279  -4.2255  -4.2255  -4.2126  -4.2126  -4.2126  -4.2126
    -4.2083  -4.2083  -4.1874  -4.1874  -4.1874  -4.1874  -4.0789  -4.0789
    -4.0288  -4.0288  -3.9875  -3.9875  -3.9875  -3.9875  -3.9789  -3.9789
    -3.9776  -3.9776  -3.9776  -3.9776  -3.9131  -3.9131  -3.8654  -3.8654
    -3.8654  -3.8654  -3.8586  -3.8586  -3.8233  -3.8233  -3.8233  -3.8233
    -3.7703  -3.7703  -3.7106  -3.7106  -3.6394  -3.6394  -3.6197  -3.6197
    -3.6197  -3.6197  -3.5891  -3.5891  -3.5624  -3.5624  -3.5624  -3.5624
    -3.5432  -3.5432  -3.5432  -3.5432  -3.5427  -3.5427  -3.5342  -3.5342
    -3.5321  -3.5321  -3.4272  -3.4272  -3.4272  -3.4272  -3.3790  -3.3790
    -3.3521  -3.3521  -3.3489  -3.3489  -3.3255  -3.3255  -3.2980  -3.2980
    -3.2980  -3.2980  -3.2776  -3.2776  -3.2776  -3.2776  -3.2750  -3.2750
    -3.1828  -3.1828  -3.1765  -3.1765  -3.1575  -3.1575  -3.1390  -3.1390
    -3.1273  -3.1273  -3.1273  -3.1273  -3.0985  -3.0985  -3.0790  -3.0790
    -3.0233  -3.0233  -3.0233  -3.0233  -3.0211  -3.0211  -2.9860  -2.9860
    -2.9817  -2.9817  -2.9620  -2.9620  -2.9534  -2.9534  -2.9534  -2.9534
    -2.9477  -2.9477  -2.9477  -2.9477  -2.9458  -2.9458  -2.9281  -2.9281
    -2.9039  -2.9039  -2.9039  -2.9039  -2.8818  -2.8818  -2.8695  -2.8695
    -2.8695  -2.8695  -2.8692  -2.8692  -2.8599  -2.8599  -2.8599  -2.8599
    -2.8526  -2.8526  -2.8430  -2.8430  -2.8173  -2.8173  -2.8173  -2.8173
    -2.8118  -2.8118  -2.7979  -2.7979  -2.7884  -2.7884  -2.7850  -2.7850
    -2.7486  -2.7486  -2.7437  -2.7437  -2.7394  -2.7394  -2.7286  -2.7286
    -2.7286  -2.7286  -2.7029  -2.7029  -2.6961  -2.6961  -2.6299  -2.6299
    -2.6299  -2.6299  -2.5896  -2.5896  -2.5732  -2.5732  -2.5732  -2.5732
    -2.5706  -2.5706  -2.5681  -2.5681  -2.5671  -2.5671  -2.5324  -2.5324
    -2.5106  -2.5106  -2.5017  -2.5017  -2.4973  -2.4973  -2.4973  -2.4973
    -2.4463  -2.4463  -2.4459  -2.4459  -2.4053  -2.4053  -2.4053  -2.4053
    -2.3878  -2.3878  -2.3758  -2.3758  -2.3583  -2.3583  -2.3074  -2.3074
    -2.2692  -2.2692  -2.2692  -2.2692  -2.2515  -2.2515  -2.2414  -2.2414
    -2.2264  -2.2264  -2.2264  -2.2264  -2.2142  -2.2142  -2.2142  -2.2142
    -2.1683  -2.1683  -2.1679  -2.1679  -2.1614  -2.1614  -2.1422  -2.1422
    -2.1422  -2.1422  -2.1236  -2.1236  -2.1196  -2.1196  -2.0919  -2.0919
    -2.0908  -2.0908  -2.0862  -2.0862  -2.0739  -2.0739  -2.0739  -2.0739
    -2.0585  -2.0585  -2.0338  -2.0338  -2.0338  -2.0338  -2.0164  -2.0164
    -1.9523  -1.9523  -1.9511  -1.9511  -1.9415  -1.9415  -1.9415  -1.9415
    -1.9289  -1.9289  -1.9142  -1.9142  -1.9045  -1.9045  -1.8805  -1.8805
    -1.8727  -1.8727  -1.8727  -1.8727  -1.8227  -1.8227  -1.8227  -1.8227
    -1.8016  -1.8016  -1.8016  -1.8016  -1.7931  -1.7931  -1.7931  -1.7931
    -1.7861  -1.7861  -1.7625  -1.7625  -1.7610  -1.7610  -1.7385  -1.7385
    -1.7385  -1.7385  -1.7384  -1.7384  -1.7131  -1.7131  -1.7078  -1.7078
    -1.7032  -1.7032  -1.7032  -1.7032  -1.6916  -1.6916  -1.6764  -1.6764
    -1.6738  -1.6738  -1.6706  -1.6706  -1.6706  -1.6706  -1.6502  -1.6502
    -1.6049  -1.6049  -1.5963  -1.5963  -1.5961  -1.5961  -1.5961  -1.5961
    -1.5941  -1.5941  -1.5902  -1.5902  -1.5863  -1.5863  -1.5863  -1.5863
    -1.5779  -1.5779  -1.5437  -1.5437  -1.5437  -1.5437  -1.5344  -1.5344
    -1.4993  -1.4993  -1.4667  -1.4667  -1.4666  -1.4666  -1.4622  -1.4622
    -1.4622  -1.4622  -1.4272  -1.4272  -1.3947  -1.3947  -1.3947  -1.3947
    -1.3916  -1.3916  -0.9244  -0.9244  -0.9244  -0.9244  -0.7946  -0.7946
    -0.7802  -0.7802  -0.2330  -0.2330  -0.2330  -0.2330  -0.1812  -0.1812
     0.1826   0.1826   0.1826   0.1826   0.4330   0.4330   0.4330   0.4330
     0.7731   0.7731   0.8191   0.8191   0.8620   0.8620   0.9728   0.9728
     0.9728   0.9728   2.1835   2.1835   2.2244   2.2244   2.2244   2.2244
     2.2298   2.2298   2.4173   2.4173   2.4474   2.4474   2.4474   2.4474
     2.8515   2.8515   2.9346   2.9346   3.2011   3.2011   3.2011   3.2011
     3.3412   3.3412   3.9282   3.9282   4.4671   4.4671   4.4671   4.4671
     4.5242   4.5242   4.5920   4.5920   4.5920   4.5920   4.8017   4.8017
     4.8788   4.8788   4.9101   4.9103   5.1451   5.1451   5.2872   5.2874
     5.3119   5.3119   5.4254   5.4255   5.4382   5.4382   5.4382   5.4382
     5.7412   5.7412   5.7592   5.7592   5.8557   5.8557   5.9744   5.9744
     5.9968   5.9968   6.1281   6.1281   6.1281   6.1281   6.1552   6.1554

          k = 0.2500-0.7217 0.0000 (183316 PWs)   bands (ev):

    -8.7526  -8.2652  -8.2652  -7.8882  -7.4207  -7.4207  -6.9054  -6.9054
    -6.5833  -6.1654  -6.1654  -6.1564  -6.1564  -6.1077  -5.8316  -5.8316
    -5.4851  -5.3491  -5.3271  -5.3271  -5.2542  -5.2542  -5.1712  -5.1712
    -5.1377  -5.1377  -4.9831  -4.9831  -4.9037  -4.9037  -4.8989  -4.8976
    -4.8976  -4.7691  -4.7691  -4.7290  -4.7093  -4.6755  -4.6755  -4.6192
    -4.6054  -4.6054  -4.5733  -4.5733  -4.5095  -4.5095  -4.4382  -4.4382
    -4.4130  -4.3254  -4.3254  -4.3042  -4.3042  -4.2838  -4.2838  -4.2329
    -4.2329  -4.2318  -4.2318  -4.2290  -4.2290  -4.2283  -4.2175  -4.1628
    -4.1190  -4.1190  -4.1046  -4.1046  -4.1000  -4.1000  -4.0771  -4.0771
    -4.0689  -4.0660  -4.0660  -4.0492  -4.0023  -4.0023  -3.9937  -3.9888
    -3.9888  -3.9599  -3.9448  -3.9230  -3.9208  -3.9208  -3.8975  -3.8975
    -3.8732  -3.8492  -3.8492  -3.8330  -3.7973  -3.7829  -3.7829  -3.7564
    -3.7564  -3.7564  -3.7525  -3.7499  -3.7499  -3.7491  -3.7491  -3.6651
    -3.6336  -3.5995  -3.5976  -3.5976  -3.5888  -3.5660  -3.5602  -3.5602
    -3.5371  -3.5371  -3.5211  -3.5211  -3.5100  -3.5100  -3.4768  -3.4768
    -3.4621  -3.4621  -3.4621  -3.4621  -3.4433  -3.4433  -3.3999  -3.3887
    -3.3887  -3.3300  -3.3300  -3.3111  -3.3040  -3.3040  -3.2866  -3.2816
    -3.2630  -3.2630  -3.2585  -3.2565  -3.2389  -3.2389  -3.2382  -3.2382
    -3.2111  -3.2111  -3.2089  -3.2089  -3.1907  -3.1587  -3.1587  -3.1562
    -3.1562  -3.1196  -3.1190  -3.1128  -3.0952  -3.0821  -3.0821  -3.0798
    -3.0798  -3.0726  -3.0584  -3.0584  -3.0458  -3.0402  -3.0402  -3.0336
    -3.0210  -3.0210  -3.0179  -3.0179  -2.9965  -2.9703  -2.9602  -2.9602
    -2.9509  -2.9509  -2.9475  -2.9475  -2.9379  -2.9379  -2.9355  -2.9312
    -2.9312  -2.9225  -2.9225  -2.9169  -2.9169  -2.9111  -2.9048  -2.8823
    -2.8764  -2.8764  -2.8677  -2.8677  -2.8468  -2.8451  -2.8451  -2.8405
    -2.8393  -2.8393  -2.8287  -2.8287  -2.8160  -2.8160  -2.7962  -2.7953
    -2.7952  -2.7932  -2.7932  -2.7866  -2.7866  -2.7659  -2.7597  -2.7572
    -2.7269  -2.7240  -2.7240  -2.7191  -2.7134  -2.7134  -2.7050  -2.7025
    -2.6987  -2.6987  -2.6985  -2.6985  -2.6787  -2.6787  -2.6504  -2.6423
    -2.6423  -2.6251  -2.6134  -2.6134  -2.5833  -2.5640  -2.5640  -2.5520
    -2.5520  -2.5492  -2.5285  -2.5156  -2.5156  -2.5135  -2.5135  -2.5015
    -2.5015  -2.4994  -2.4994  -2.4884  -2.4806  -2.4567  -2.4567  -2.4149
    -2.4149  -2.4029  -2.4029  -2.4023  -2.4023  -2.3902  -2.3902  -2.3897
    -2.3897  -2.3836  -2.3836  -2.3707  -2.3707  -2.3412  -2.3412  -2.3394
    -2.3249  -2.3249  -2.3224  -2.3224  -2.3177  -2.2850  -2.2850  -2.2732
    -2.2720  -2.2720  -2.2677  -2.2467  -2.2467  -2.2397  -2.2314  -2.1928
    -2.1928  -2.1786  -2.1786  -2.1779  -2.1779  -2.1617  -2.1617  -2.1526
    -2.1526  -2.1510  -2.1340  -2.1340  -2.1299  -2.1265  -2.1255  -2.1255
    -2.1186  -2.0924  -2.0761  -2.0631  -2.0594  -2.0501  -2.0501  -2.0346
    -2.0346  -2.0251  -2.0251  -1.9959  -1.9959  -1.9748  -1.9748  -1.9746
    -1.9703  -1.9662  -1.9537  -1.9537  -1.9472  -1.9472  -1.9385  -1.9385
    -1.9364  -1.9364  -1.9312  -1.9312  -1.9036  -1.9036  -1.8934  -1.8934
    -1.8888  -1.8888  -1.8708  -1.8707  -1.8665  -1.8591  -1.8340  -1.8340
    -1.8079  -1.7995  -1.7968  -1.7968  -1.7958  -1.7958  -1.7912  -1.7912
    -1.7859  -1.7859  -1.7627  -1.7627  -1.7607  -1.7607  -1.7581  -1.7581
    -1.7494  -1.7479  -1.7479  -1.7275  -1.7275  -1.7238  -1.7206  -1.7114
    -1.7076  -1.7076  -1.6992  -1.6992  -1.6840  -1.6840  -1.6840  -1.6698
    -1.6697  -1.6687  -1.6687  -1.6658  -1.6658  -1.6615  -1.6402  -1.6402
    -1.6375  -1.6366  -1.6366  -1.6246  -1.6246  -1.6130  -1.6130  -1.6102
    -1.6102  -1.6082  -1.6028  -1.6006  -1.5964  -1.5922  -1.5922  -1.5767
    -1.5767  -1.5672  -1.5672  -1.5547  -1.5272  -1.5272  -1.5132  -1.5132
    -1.5100  -1.5100  -1.5096  -1.5096  -1.4934  -1.4934  -1.4829  -1.4593
    -1.4485  -1.4485  -1.4387  -1.3825  -1.3825  -1.3741  -1.1411  -1.1411
    -1.1072  -1.1072  -1.0089  -1.0089  -0.9538  -0.9538  -0.9046  -0.7931
    -0.7931  -0.7789  -0.7789  -0.3392  -0.2808  -0.2808  -0.1083  -0.1083
    -0.0931  -0.0931   0.2319   0.2319   0.4010   0.5401   0.5474   0.5581
     0.5581   0.9058   0.9058   1.1001   1.3727   1.3727   1.3809   1.3809
     1.3829   1.3829   1.4360   1.4360   1.5558   1.5558   1.5710   1.9976
     2.1381   2.1381   2.2907   2.3579   2.3842   2.6371   2.6371   2.8086
     2.8086   2.9550   3.2078   3.2078   3.2654   3.2654   3.2764   3.2764
     3.3972   3.3972   3.7958   4.0872   4.2847   4.3586   4.4134   4.4248
     4.5981   4.5981   4.6820   4.7104   4.7781   4.7781   4.7930   4.8203
     4.8204   4.8470   4.8470   5.1607   5.1608   5.1680   5.1796   5.1989
     5.2634   5.2636   5.3147   5.5042   5.5042   5.5106   5.5106   5.5191
     5.5191   5.5713   5.6450   5.6452   5.7611   5.7611   5.8993   6.0013
     6.0014   6.0317   6.0317   6.0374   6.0598   6.1974   6.1974   6.3043

     the Fermi energy is    -0.0167 ev

!    total energy              =  -17046.62490131 Ry
     total all-electron energy =   -264797.006188 Ry
     estimated scf accuracy    <          2.2E-09 Ry
     smearing contrib. (-TS)   =      -0.01014818 Ry
     internal energy E=F+TS    =  -17046.61475313 Ry

     The total energy is F=E-TS. E is the sum of the following terms:
     one-electron contribution = -197539.49580979 Ry
     hartree contribution      =   99691.30419918 Ry
     xc contribution           =   -3568.71465683 Ry
     ewald contribution        =   91557.71261112 Ry
     one-center paw contrib.   =   -7187.42109680 Ry

     convergence has been achieved in  22 iterations

     negative rho (up, down):  3.071E-03 0.000E+00

     Forces acting on atoms (cartesian axes, Ry/au):

     atom    1 type  1   force =     0.00000000   -0.00000116   -0.00070227
     atom    2 type  1   force =     0.00001109    0.00000640   -0.00069868
     atom    3 type  1   force =     0.00000000    0.00001306   -0.00069497
     atom    4 type  1   force =    -0.00001109    0.00000640   -0.00069868
     atom    5 type  1   force =     0.00001263   -0.00000872   -0.00070295
     atom    6 type  1   force =     0.00001131   -0.00000653   -0.00069497
     atom    7 type  1   force =    -0.00001131   -0.00000653   -0.00069497
     atom    8 type  1   force =    -0.00001263   -0.00000872   -0.00070295
     atom    9 type  1   force =     0.00001386   -0.00000658   -0.00070295
     atom   10 type  1   force =     0.00000000   -0.00001281   -0.00069868
     atom   11 type  1   force =    -0.00001386   -0.00000658   -0.00070295
     atom   12 type  1   force =     0.00000000    0.00000000   -0.00070548
     atom   13 type  1   force =     0.00000101    0.00000058   -0.00070227
     atom   14 type  1   force =    -0.00000101    0.00000058   -0.00070227
     atom   15 type  1   force =    -0.00000124    0.00001530   -0.00070295
     atom   16 type  1   force =     0.00000124    0.00001530   -0.00070295
     atom   17 type  1   force =     0.00000000    0.00000000   -0.00038747
     atom   18 type  1   force =     0.00000320    0.00000912   -0.00038830
     atom   19 type  1   force =     0.00000000    0.00001798   -0.00038894
     atom   20 type  1   force =    -0.00000320    0.00000912   -0.00038830
     atom   21 type  1   force =     0.00000949   -0.00000179   -0.00038830
     atom   22 type  1   force =     0.00000981    0.00000566   -0.00039468
     atom   23 type  1   force =    -0.00000981    0.00000566   -0.00039468
     atom   24 type  1   force =    -0.00000949   -0.00000179   -0.00038830
     atom   25 type  1   force =     0.00001558   -0.00000899   -0.00038894
     atom   26 type  1   force =     0.00000000   -0.00001132   -0.00039468
     atom   27 type  1   force =    -0.00001558   -0.00000899   -0.00038894
     atom   28 type  1   force =     0.00000000   -0.00000622   -0.00038266
     atom   29 type  1   force =     0.00000629   -0.00000733   -0.00038830
     atom   30 type  1   force =    -0.00000629   -0.00000733   -0.00038830
     atom   31 type  1   force =    -0.00000539    0.00000311   -0.00038266
     atom   32 type  1   force =     0.00000539    0.00000311   -0.00038266
     atom   33 type  1   force =     0.00000436    0.00000251   -0.00001542
     atom   34 type  1   force =     0.00000413    0.00000580   -0.00001478
     atom   35 type  1   force =    -0.00000413    0.00000580   -0.00001478
     atom   36 type  1   force =    -0.00000436    0.00000251   -0.00001542
     atom   37 type  1   force =     0.00000709    0.00000067   -0.00001478
     atom   38 type  1   force =     0.00000000    0.00000000   -0.00002332
     atom   39 type  1   force =    -0.00000709    0.00000067   -0.00001478
     atom   40 type  1   force =     0.00000000    0.00000173   -0.00000711
     atom   41 type  1   force =     0.00000296   -0.00000647   -0.00001478
     atom   42 type  1   force =    -0.00000296   -0.00000647   -0.00001478
     atom   43 type  1   force =    -0.00000284   -0.00000164   -0.00000052
     atom   44 type  1   force =     0.00000284   -0.00000164   -0.00000052
     atom   45 type  1   force =     0.00000000   -0.00000503   -0.00001542
     atom   46 type  1   force =     0.00000149   -0.00000086   -0.00000711
     atom   47 type  1   force =     0.00000000    0.00000328   -0.00000052
     atom   48 type  1   force =    -0.00000149   -0.00000086   -0.00000711
     atom   49 type  1   force =     0.00000000    0.00000852    0.00038238
     atom   50 type  1   force =     0.00000482    0.00000278    0.00038112
     atom   51 type  1   force =     0.00000000   -0.00000319    0.00038172
     atom   52 type  1   force =    -0.00000482    0.00000278    0.00038112
     atom   53 type  1   force =    -0.00000309    0.00000967    0.00038791
     atom   54 type  1   force =    -0.00000276    0.00000159    0.00038172
     atom   55 type  1   force =     0.00000276    0.00000159    0.00038172
     atom   56 type  1   force =     0.00000309    0.00000967    0.00038791
     atom   57 type  1   force =    -0.00000992   -0.00000215    0.00038791
     atom   58 type  1   force =     0.00000000   -0.00000556    0.00038112
     atom   59 type  1   force =     0.00000992   -0.00000215    0.00038791
     atom   60 type  1   force =     0.00000000    0.00000000    0.00039457
     atom   61 type  1   force =    -0.00000738   -0.00000426    0.00038238
     atom   62 type  1   force =     0.00000738   -0.00000426    0.00038238
     atom   63 type  1   force =     0.00000682   -0.00000751    0.00038791
     atom   64 type  1   force =    -0.00000682   -0.00000751    0.00038791
     atom   65 type  1   force =     0.00000000    0.00000000    0.00072051
     atom   66 type  1   force =     0.00000991   -0.00000584    0.00071682
     atom   67 type  1   force =     0.00000000   -0.00001120    0.00071425
     atom   68 type  1   force =    -0.00000991   -0.00000584    0.00071682
     atom   69 type  1   force =    -0.00000011    0.00001150    0.00071682
     atom   70 type  1   force =     0.00000082    0.00000047    0.00071602
     atom   71 type  1   force =    -0.00000082    0.00000047    0.00071602
     atom   72 type  1   force =     0.00000011    0.00001150    0.00071682
     atom   73 type  1   force =    -0.00000970    0.00000560    0.00071425
     atom   74 type  1   force =     0.00000000   -0.00000094    0.00071602
     atom   75 type  1   force =     0.00000970    0.00000560    0.00071425
     atom   76 type  1   force =     0.00000000    0.00001156    0.00071275
     atom   77 type  1   force =    -0.00001001   -0.00000566    0.00071682
     atom   78 type  1   force =     0.00001001   -0.00000566    0.00071682
     atom   79 type  1   force =     0.00001002   -0.00000578    0.00071275
     atom   80 type  1   force =    -0.00001002   -0.00000578    0.00071275

     Total force =     0.003251     Total SCF correction =     0.000162


     Computing stress (Cartesian axis) and pressure


     negative rho (up, down):  3.071E-03 0.000E+00
          total   stress  (Ry/bohr**3)                   (kbar)     P=       -1.70
  -0.00002184  -0.00000000   0.00000000           -3.21       -0.00        0.00
  -0.00000000  -0.00002184   0.00000000           -0.00       -3.21        0.00
   0.00000000   0.00000000   0.00000898            0.00        0.00        1.32


     BFGS Geometry Optimization
     Energy error            =      3.9E-06 Ry
     Gradient error          =      7.2E-04 Ry/Bohr

     bfgs converged in   1 scf cycles and   0 bfgs steps
     (criteria: energy <  1.0E-04 Ry, force <  1.0E-03 Ry/Bohr)

     End of BFGS Geometry Optimization

     Final energy             =  -17046.6249013125 Ry
Begin final coordinates

ATOMIC_POSITIONS (angstrom)
Cu              10.2106218390        1.4737763190       14.9999996250    0   0   0
Cu               2.5526554640        1.4737763190       14.9999996250    0   0   0
Cu               5.1053109220        1.4737763190       14.9999996250    0   0   0
Cu               7.6579663800        1.4737763190       14.9999996250    0   0   0
Cu              11.4869495680        3.6844407930       14.9999996250    0   0   0
Cu               3.8289831930        3.6844407930       14.9999996250    0   0   0
Cu               6.3816386510        3.6844407930       14.9999996250    0   0   0
Cu               8.9342941100        3.6844407930       14.9999996250    0   0   0
Cu              12.7632772970        5.8951052670       14.9999996250    0   0   0
Cu               5.1053109220        5.8951052670       14.9999996250    0   0   0
Cu               7.6579663800        5.8951052670       14.9999996250    0   0   0
Cu              10.2106218390        5.8951052670       14.9999996250    0   0   0
Cu              14.0396050270        8.1057697410       14.9999996250    0   0   0
Cu               6.3816386510        8.1057697410       14.9999996250    0   0   0
Cu               8.9342941100        8.1057697410       14.9999996250    0   0   0
Cu              11.4869495680        8.1057697410       14.9999996250    0   0   0
Cu               0.0000000000        0.0000000000       17.0842340500    0   0   0
Cu               2.5526554580        0.0000000000       17.0842340500    0   0   0
Cu               5.1053109170        0.0000000000       17.0842340500    0   0   0
Cu               7.6579663750        0.0000000000       17.0842340500    0   0   0
Cu               1.2763277290        2.2106644740       17.0842340500    0   0   0
Cu               3.8289831880        2.2106644740       17.0842340500    0   0   0
Cu               6.3816386460        2.2106644740       17.0842340500    0   0   0
Cu               8.9342941050        2.2106644740       17.0842340500    0   0   0
Cu               2.5526554580        4.4213289480       17.0842340500    0   0   0
Cu               5.1053109170        4.4213289480       17.0842340500    0   0   0
Cu               7.6579663750        4.4213289480       17.0842340500    0   0   0
Cu              10.2106218340        4.4213289480       17.0842340500    0   0   0
Cu               3.8289831880        6.6319934220       17.0842340500    0   0   0
Cu               6.3816386460        6.6319934220       17.0842340500    0   0   0
Cu               8.9342941050        6.6319934220       17.0842340500    0   0   0
Cu              11.4869495630        6.6319934220       17.0842340500    0   0   0
Cu               1.2763277240        0.7368881550       19.1684684750
Cu               3.8289831830        0.7368881550       19.1684684750
Cu               6.3816386410        0.7368881550       19.1684684750
Cu               8.9342940990        0.7368881550       19.1684684750
Cu               2.5526554530        2.9475526290       19.1684684750
Cu               5.1053109120        2.9475526290       19.1684684750
Cu               7.6579663700        2.9475526290       19.1684684750
Cu              10.2106218290        2.9475526290       19.1684684750
Cu               3.8289831830        5.1582171030       19.1684684750
Cu               6.3816386410        5.1582171030       19.1684684750
Cu               8.9342940990        5.1582171030       19.1684684750
Cu              11.4869495580        5.1582171030       19.1684684750
Cu               5.1053109120        7.3688815770       19.1684684750
Cu               7.6579663700        7.3688815770       19.1684684750
Cu              10.2106218290        7.3688815770       19.1684684750
Cu              12.7632772870        7.3688815770       19.1684684750
Cu              10.2106218390        1.4737763190       21.2527029000
Cu               2.5526554640        1.4737763190       21.2527029000
Cu               5.1053109220        1.4737763190       21.2527029000
Cu               7.6579663800        1.4737763190       21.2527029000
Cu              11.4869495680        3.6844407930       21.2527029000
Cu               3.8289831930        3.6844407930       21.2527029000
Cu               6.3816386510        3.6844407930       21.2527029000
Cu               8.9342941100        3.6844407930       21.2527029000
Cu              12.7632772970        5.8951052670       21.2527029000
Cu               5.1053109220        5.8951052670       21.2527029000
Cu               7.6579663800        5.8951052670       21.2527029000
Cu              10.2106218390        5.8951052670       21.2527029000
Cu              14.0396050270        8.1057697410       21.2527029000
Cu               6.3816386510        8.1057697410       21.2527029000
Cu               8.9342941100        8.1057697410       21.2527029000
Cu              11.4869495680        8.1057697410       21.2527029000
Cu               0.0000000000        0.0000000000       23.3369373250
Cu               2.5526554580        0.0000000000       23.3369373250
Cu               5.1053109170        0.0000000000       23.3369373250
Cu               7.6579663750        0.0000000000       23.3369373250
Cu               1.2763277290        2.2106644740       23.3369373250
Cu               3.8289831880        2.2106644740       23.3369373250
Cu               6.3816386460        2.2106644740       23.3369373250
Cu               8.9342941050        2.2106644740       23.3369373250
Cu               2.5526554580        4.4213289480       23.3369373250
Cu               5.1053109170        4.4213289480       23.3369373250
Cu               7.6579663750        4.4213289480       23.3369373250
Cu              10.2106218340        4.4213289480       23.3369373250
Cu               3.8289831880        6.6319934220       23.3369373250
Cu               6.3816386460        6.6319934220       23.3369373250
Cu               8.9342941050        6.6319934220       23.3369373250
Cu              11.4869495630        6.6319934220       23.3369373250
End final coordinates



     Writing all to output data dir ./tmp/cu111_4x4.save/ :
     XML data file, charge density, pseudopotentials, collected wavefunctions

     init_run     :    273.71s CPU    217.33s WALL (       1 calls)
     electrons    :  16724.65s CPU  14385.83s WALL (       1 calls)
     forces       :    141.86s CPU     85.65s WALL (       1 calls)
     stress       :    574.02s CPU    280.09s WALL (       1 calls)

     Called by init_run:
     wfcinit      :    255.59s CPU    196.41s WALL (       1 calls)
     potinit      :      7.30s CPU      7.55s WALL (       1 calls)
     hinit0       :      1.01s CPU      1.06s WALL (       1 calls)

     Called by electrons:
     c_bands      :  15094.51s CPU  13065.63s WALL (      23 calls)
     sum_band     :   1352.99s CPU    982.92s WALL (      23 calls)
     v_of_rho     :     22.36s CPU     25.22s WALL (      23 calls)
     newd         :    136.27s CPU    195.20s WALL (      23 calls)
     PAW_pot      :    123.25s CPU    123.30s WALL (      23 calls)
     mix_rho      :      5.02s CPU      5.44s WALL (      23 calls)

     Called by c_bands:
     init_us_2    :     58.82s CPU     59.38s WALL (     196 calls)
     cegterg      :  14931.27s CPU  12901.98s WALL (      93 calls)

     Called by *egterg:
     cdiaghg      :   3235.95s CPU   4303.00s WALL (     516 calls)
     h_psi        :   5348.21s CPU   3700.52s WALL (     524 calls)
     s_psi        :   1666.44s CPU    707.65s WALL (     524 calls)
     g_psi        :      8.16s CPU      9.15s WALL (     427 calls)

     Called by h_psi:
     h_psi:calbec :   1623.47s CPU    850.29s WALL (     524 calls)
     vloc_psi     :   2028.15s CPU   2117.22s WALL (     524 calls)
                                        0.00s GPU  (     524 calls)
     add_vuspsi   :   1687.72s CPU    707.22s WALL (     524 calls)

     General routines
     calbec       :   2819.31s CPU   1394.39s WALL (     684 calls)
     fft          :     21.64s CPU     23.23s WALL (     323 calls)
     ffts         :      1.68s CPU      1.71s WALL (      46 calls)
     fftw         :   2066.58s CPU   2167.45s WALL (  265742 calls)
     interpolate  :      2.64s CPU      2.65s WALL (      23 calls)

     Parallel routines

     PWSCF        :      4h55m CPU      4h 9m WALL


   This run was terminated on:   1:33:22  20Jun2026            

=------------------------------------------------------------------------------=
   JOB DONE.
=------------------------------------------------------------------------------=
