
     Program PWSCF v.7.5 starts on 23Jun2026 at 12:40:33 

     This program is part of the open-source Quantum ESPRESSO suite
     for quantum simulation of materials; please cite
         "P. Giannozzi et al., J. Phys.:Condens. Matter 21 395502 (2009);
         "P. Giannozzi et al., J. Phys.:Condens. Matter 29 465901 (2017);
         "P. Giannozzi et al., J. Chem. Phys. 152 154105 (2020);
          URL http://www.quantum-espresso.org", 
     in publications or presentations arising from this work. More details at
     http://www.quantum-espresso.org/quote

     Parallel version (MPI), running on    24 processors

     MPI processes distributed on     1 nodes
     149213 MiB available memory on the printing compute node when the environment starts

     Reading input from cu111_scf.in

     Current dimensions of program PWSCF are:
     Max number of different atomic species (ntypx) = 10
     Max number of k-points (npk) =  40000
     Max angular momentum in pseudopotentials (lmaxx) =  4
     file Cu.paw.z_11.ld1.psl.v1.0.0-low.upf: wavefunction(s)  4S 3D renormalized
     Found identity + (  0.2500  0.0000  0.0000) symmetry
     This is a supercell, fractional translations are disabled
     Message from routine setup:
     using ibrav=0 with symmetry is DISCOURAGED, use correct ibrav instead

     R & G space division:  proc/nbgrp/npool/nimage =      24
     Subspace diagonalization in iterative solution of the eigenvalue problem:
     one sub-group per band group will be used
     custom distributed-memory algorithm (size of sub-group:  4*  4 procs)


     Parallelization info
     --------------------
     sticks:   dense  smooth     PW     G-vecs:    dense   smooth      PW
     Min         513     256     68               172843    61112    8402
     Max         514     257     69               172858    61139    8419
     Sum       12319    6157   1639              4148395  1466949  201767

     Using Slab Decomposition



     bravais-lattice index     =            0
     lattice parameter (alat)  =      19.2953  a.u.
     unit-cell volume          =   23358.7195 (a.u.)^3
     number of atoms/cell      =           80
     number of atomic types    =            1
     number of electrons       =       880.00
     number of Kohn-Sham states=          528
     kinetic-energy cutoff     =      60.0000  Ry
     charge density cutoff     =     480.0000  Ry
     scf convergence threshold =      1.0E-08
     mixing beta               =       0.3000
     number of iterations used =            8  plain     mixing
     Exchange-correlation= SLA  PW   PBX  PBC
                           (   1   4   3   4   0   0   0)

     celldm(1)=  19.295279  celldm(2)=   0.000000  celldm(3)=   0.000000
     celldm(4)=   0.000000  celldm(5)=   0.000000  celldm(6)=   0.000000

     crystal axes: (cart. coord. in units of alat)
               a(1) = (   1.000000   0.000000   0.000000 )  
               a(2) = (   0.500000   0.866025   0.000000 )  
               a(3) = (   0.000000   0.000000   3.754613 )  

     reciprocal axes: (cart. coord. in units 2 pi/alat)
               b(1) = (  1.000000 -0.577350  0.000000 )  
               b(2) = (  0.000000  1.154701  0.000000 )  
               b(3) = (  0.000000  0.000000  0.266339 )  


     PseudoPot. # 1 for Cu read from file:
     ./Cu.paw.z_11.ld1.psl.v1.0.0-low.upf
     MD5 check sum: 619f40885d92a09a85a8b37550532d0c
     Pseudo is Projector augmented-wave + core cor, Zval = 11.0
     Generated using &quot;atomic&quot; code by A. Dal Corso  v.6.3MaX
     Shape of augmentation charge: PSQ
     Using radial grid of 1199 points,  6 beta functions with: 
                l(1) =   0
                l(2) =   0
                l(3) =   1
                l(4) =   1
                l(5) =   2
                l(6) =   2
     Q(r) pseudized with 0 coefficients 


     atomic species   valence    mass     pseudopotential
     Cu               11.00    63.54600     Cu( 1.00)

      6 Sym. Ops. (no inversion) found



   Cartesian axes

     site n.     atom                  positions (alat units)
         1        Cu     tau(   1) = (   1.0000000   0.1443376   1.4690584  )
         2        Cu     tau(   2) = (   0.2500000   0.1443376   1.4690584  )
         3        Cu     tau(   3) = (   0.5000000   0.1443376   1.4690584  )
         4        Cu     tau(   4) = (   0.7500000   0.1443376   1.4690584  )
         5        Cu     tau(   5) = (   1.1250000   0.3608439   1.4690584  )
         6        Cu     tau(   6) = (   0.3750000   0.3608439   1.4690584  )
         7        Cu     tau(   7) = (   0.6250000   0.3608439   1.4690584  )
         8        Cu     tau(   8) = (   0.8750000   0.3608439   1.4690584  )
         9        Cu     tau(   9) = (   1.2500000   0.5773503   1.4690584  )
        10        Cu     tau(  10) = (   0.5000000   0.5773503   1.4690584  )
        11        Cu     tau(  11) = (   0.7500000   0.5773503   1.4690584  )
        12        Cu     tau(  12) = (   1.0000000   0.5773503   1.4690584  )
        13        Cu     tau(  13) = (   1.3750000   0.7938566   1.4690584  )
        14        Cu     tau(  14) = (   0.6250000   0.7938566   1.4690584  )
        15        Cu     tau(  15) = (   0.8750000   0.7938566   1.4690584  )
        16        Cu     tau(  16) = (   1.1250000   0.7938566   1.4690584  )
        17        Cu     tau(  17) = (   0.0000000   0.0000000   1.6731825  )
        18        Cu     tau(  18) = (   0.2500000   0.0000000   1.6731825  )
        19        Cu     tau(  19) = (   0.5000000   0.0000000   1.6731825  )
        20        Cu     tau(  20) = (   0.7500000   0.0000000   1.6731825  )
        21        Cu     tau(  21) = (   0.1250000   0.2165064   1.6731825  )
        22        Cu     tau(  22) = (   0.3750000   0.2165064   1.6731825  )
        23        Cu     tau(  23) = (   0.6250000   0.2165064   1.6731825  )
        24        Cu     tau(  24) = (   0.8750000   0.2165064   1.6731825  )
        25        Cu     tau(  25) = (   0.2500000   0.4330127   1.6731825  )
        26        Cu     tau(  26) = (   0.5000000   0.4330127   1.6731825  )
        27        Cu     tau(  27) = (   0.7500000   0.4330127   1.6731825  )
        28        Cu     tau(  28) = (   1.0000000   0.4330127   1.6731825  )
        29        Cu     tau(  29) = (   0.3750000   0.6495191   1.6731825  )
        30        Cu     tau(  30) = (   0.6250000   0.6495191   1.6731825  )
        31        Cu     tau(  31) = (   0.8750000   0.6495191   1.6731825  )
        32        Cu     tau(  32) = (   1.1250000   0.6495191   1.6731825  )
        33        Cu     tau(  33) = (   0.1250000   0.0721688   1.8773067  )
        34        Cu     tau(  34) = (   0.3750000   0.0721688   1.8773067  )
        35        Cu     tau(  35) = (   0.6250000   0.0721688   1.8773067  )
        36        Cu     tau(  36) = (   0.8750000   0.0721688   1.8773067  )
        37        Cu     tau(  37) = (   0.2500000   0.2886751   1.8773067  )
        38        Cu     tau(  38) = (   0.5000000   0.2886751   1.8773067  )
        39        Cu     tau(  39) = (   0.7500000   0.2886751   1.8773067  )
        40        Cu     tau(  40) = (   1.0000000   0.2886751   1.8773067  )
        41        Cu     tau(  41) = (   0.3750000   0.5051815   1.8773067  )
        42        Cu     tau(  42) = (   0.6250000   0.5051815   1.8773067  )
        43        Cu     tau(  43) = (   0.8750000   0.5051815   1.8773067  )
        44        Cu     tau(  44) = (   1.1250000   0.5051815   1.8773067  )
        45        Cu     tau(  45) = (   0.5000000   0.7216878   1.8773067  )
        46        Cu     tau(  46) = (   0.7500000   0.7216878   1.8773067  )
        47        Cu     tau(  47) = (   1.0000000   0.7216878   1.8773067  )
        48        Cu     tau(  48) = (   1.2500000   0.7216878   1.8773067  )
        49        Cu     tau(  49) = (   1.0000000   0.1443376   2.0814308  )
        50        Cu     tau(  50) = (   0.2500000   0.1443376   2.0814308  )
        51        Cu     tau(  51) = (   0.5000000   0.1443376   2.0814308  )
        52        Cu     tau(  52) = (   0.7500000   0.1443376   2.0814308  )
        53        Cu     tau(  53) = (   1.1250000   0.3608439   2.0814308  )
        54        Cu     tau(  54) = (   0.3750000   0.3608439   2.0814308  )
        55        Cu     tau(  55) = (   0.6250000   0.3608439   2.0814308  )
        56        Cu     tau(  56) = (   0.8750000   0.3608439   2.0814308  )
        57        Cu     tau(  57) = (   1.2500000   0.5773503   2.0814308  )
        58        Cu     tau(  58) = (   0.5000000   0.5773503   2.0814308  )
        59        Cu     tau(  59) = (   0.7500000   0.5773503   2.0814308  )
        60        Cu     tau(  60) = (   1.0000000   0.5773503   2.0814308  )
        61        Cu     tau(  61) = (   1.3750000   0.7938566   2.0814308  )
        62        Cu     tau(  62) = (   0.6250000   0.7938566   2.0814308  )
        63        Cu     tau(  63) = (   0.8750000   0.7938566   2.0814308  )
        64        Cu     tau(  64) = (   1.1250000   0.7938566   2.0814308  )
        65        Cu     tau(  65) = (   0.0000000   0.0000000   2.2855550  )
        66        Cu     tau(  66) = (   0.2500000   0.0000000   2.2855550  )
        67        Cu     tau(  67) = (   0.5000000   0.0000000   2.2855550  )
        68        Cu     tau(  68) = (   0.7500000   0.0000000   2.2855550  )
        69        Cu     tau(  69) = (   0.1250000   0.2165064   2.2855550  )
        70        Cu     tau(  70) = (   0.3750000   0.2165064   2.2855550  )
        71        Cu     tau(  71) = (   0.6250000   0.2165064   2.2855550  )
        72        Cu     tau(  72) = (   0.8750000   0.2165064   2.2855550  )
        73        Cu     tau(  73) = (   0.2500000   0.4330127   2.2855550  )
        74        Cu     tau(  74) = (   0.5000000   0.4330127   2.2855550  )
        75        Cu     tau(  75) = (   0.7500000   0.4330127   2.2855550  )
        76        Cu     tau(  76) = (   1.0000000   0.4330127   2.2855550  )
        77        Cu     tau(  77) = (   0.3750000   0.6495191   2.2855550  )
        78        Cu     tau(  78) = (   0.6250000   0.6495191   2.2855550  )
        79        Cu     tau(  79) = (   0.8750000   0.6495191   2.2855550  )
        80        Cu     tau(  80) = (   1.1250000   0.6495191   2.2855550  )

     number of k points=     4  Marzari-Vanderbilt smearing, width (Ry)=  0.0200
                       cart. coord. in units 2pi/alat
        k(    1) = (   0.0000000   0.0000000   0.0000000), wk =   0.1250000
        k(    2) = (   0.0000000   0.2886751   0.0000000), wk =   0.7500000
        k(    3) = (   0.0000000  -0.5773503   0.0000000), wk =   0.3750000
        k(    4) = (   0.2500000  -0.7216878   0.0000000), wk =   0.7500000

     Dense  grid:  4148395 G-vectors     FFT dimensions: ( 135, 135, 512)

     Smooth grid:  1466949 G-vectors     FFT dimensions: (  96,  96, 360)

     Estimated max dynamical RAM per process >       1.25 GB

     Estimated total dynamical RAM >      29.94 GB

     The initial density is read from file :
     ./tmp/cu111_4x4.save/charge-density


     negative rho (up, down):  3.071E-03 0.000E+00
     Starting wfcs are  720 randomized atomic wfcs
     Checking if some PAW data can be deallocated... 

     total cpu time spent up to now is       78.6 secs

     Self-consistent Calculation

     iteration #  1     ecut=    60.00 Ry     beta= 0.30
     Davidson diagonalization with overlap
     c_bands:  4 eigenvalues not converged
     ethr =  1.00E-05,  avg # of iterations = 26.5

     Threshold (ethr) on eigenvalues was too large:
     Diagonalizing with lowered threshold

     Davidson diagonalization with overlap
     ethr =  4.44E-11,  avg # of iterations =  6.8

     negative rho (up, down):  3.071E-03 0.000E+00

     total cpu time spent up to now is     1294.9 secs

     total energy              =  -17046.62490118 Ry
     estimated scf accuracy    <       0.00000031 Ry

     iteration #  2     ecut=    60.00 Ry     beta= 0.30
     Davidson diagonalization with overlap
     ethr =  3.54E-11,  avg # of iterations =  2.0

     negative rho (up, down):  3.071E-03 0.000E+00

     total cpu time spent up to now is     1483.5 secs

     total energy              =  -17046.62490053 Ry
     estimated scf accuracy    <       0.00003477 Ry

     iteration #  3     ecut=    60.00 Ry     beta= 0.30
     Davidson diagonalization with overlap
     ethr =  3.54E-11,  avg # of iterations =  2.0

     negative rho (up, down):  3.071E-03 0.000E+00

     total cpu time spent up to now is     1644.8 secs

     total energy              =  -17046.62490124 Ry
     estimated scf accuracy    <       0.00000237 Ry

     iteration #  4     ecut=    60.00 Ry     beta= 0.30
     Davidson diagonalization with overlap
     ethr =  3.54E-11,  avg # of iterations =  2.0

     negative rho (up, down):  3.071E-03 0.000E+00

     total cpu time spent up to now is     1802.9 secs

     total energy              =  -17046.62490132 Ry
     estimated scf accuracy    <       0.00000013 Ry

     iteration #  5     ecut=    60.00 Ry     beta= 0.30
     Davidson diagonalization with overlap
     ethr =  1.46E-11,  avg # of iterations =  1.0

     negative rho (up, down):  3.071E-03 0.000E+00

     total cpu time spent up to now is     1942.1 secs

     End of self-consistent calculation

          k = 0.0000 0.0000 0.0000 (183353 PWs)   bands (ev):

    -9.1273  -8.2514  -7.2367  -7.2367  -7.2367  -7.2367  -7.2367  -7.2367
    -6.9248  -6.4689  -6.4689  -6.4689  -6.4689  -6.4689  -6.4689  -5.6557
    -5.3817  -5.3817  -5.3817  -5.3817  -5.3817  -5.3817  -5.1488  -4.9476
    -4.9476  -4.9476  -4.7881  -4.7881  -4.7881  -4.6546  -4.6546  -4.6546
    -4.6546  -4.6546  -4.6546  -4.6144  -4.6144  -4.6144  -4.4623  -4.4623
    -4.4623  -4.4623  -4.4623  -4.4623  -4.4570  -4.4570  -4.4570  -4.4570
    -4.4570  -4.4570  -4.3743  -4.3743  -4.3743  -4.3387  -4.3387  -4.3387
    -4.2483  -4.2483  -4.2483  -4.2483  -4.2483  -4.2483  -4.1850  -4.1850
    -4.1850  -4.1850  -4.1850  -4.1850  -4.1811  -4.1811  -4.1811  -4.1459
    -4.1459  -4.1459  -4.1459  -4.1459  -4.1459  -4.0281  -4.0281  -4.0281
    -3.8760  -3.8760  -3.8760  -3.8760  -3.8760  -3.8760  -3.8222  -3.8222
    -3.8222  -3.8222  -3.8222  -3.8222  -3.8099  -3.8099  -3.8099  -3.8099
    -3.8099  -3.8099  -3.6690  -3.6690  -3.6690  -3.6690  -3.6690  -3.6690
    -3.5911  -3.5911  -3.5911  -3.5546  -3.5546  -3.5546  -3.5546  -3.5546
    -3.5546  -3.5408  -3.5408  -3.5408  -3.5408  -3.5408  -3.5408  -3.4238
    -3.4238  -3.4238  -3.4238  -3.4238  -3.4238  -3.3639  -3.3639  -3.3639
    -3.3639  -3.3639  -3.3639  -3.3574  -3.3574  -3.3574  -3.3574  -3.3574
    -3.3574  -3.3532  -3.3532  -3.3532  -3.3532  -3.3532  -3.3532  -3.1871
    -3.1871  -3.1871  -3.1550  -3.1550  -3.1550  -3.1550  -3.1549  -3.1549
    -3.1374  -3.1342  -3.1342  -3.1342  -3.1342  -3.1342  -3.1342  -3.1311
    -3.1311  -3.1311  -3.1311  -3.1311  -3.1311  -3.1123  -3.0749  -3.0749
    -3.0749  -3.0063  -3.0063  -2.9425  -2.9425  -2.9425  -2.9425  -2.9425
    -2.9425  -2.9405  -2.9365  -2.9365  -2.9282  -2.9282  -2.9282  -2.9129
    -2.9129  -2.8970  -2.8969  -2.8969  -2.8969  -2.8969  -2.8969  -2.7995
    -2.7995  -2.7995  -2.7995  -2.7995  -2.7995  -2.7739  -2.7739  -2.7739
    -2.7739  -2.7739  -2.7739  -2.7652  -2.7652  -2.7652  -2.7652  -2.7652
    -2.7652  -2.7555  -2.7555  -2.7555  -2.7555  -2.7555  -2.7555  -2.7275
    -2.7275  -2.7275  -2.7200  -2.7200  -2.7200  -2.7200  -2.7200  -2.7200
    -2.6930  -2.6930  -2.6734  -2.6734  -2.6734  -2.6734  -2.6734  -2.6734
    -2.6728  -2.6728  -2.6390  -2.6390  -2.6390  -2.6371  -2.6371  -2.6371
    -2.6371  -2.6371  -2.6371  -2.6043  -2.6043  -2.6043  -2.6014  -2.6014
    -2.6014  -2.6014  -2.6014  -2.6014  -2.5772  -2.5132  -2.5132  -2.5132
    -2.5132  -2.5132  -2.5132  -2.4272  -2.4272  -2.4272  -2.4272  -2.4272
    -2.4272  -2.4109  -2.4109  -2.4109  -2.4109  -2.4109  -2.4109  -2.3093
    -2.3093  -2.3093  -2.3093  -2.3093  -2.3093  -2.2870  -2.2870  -2.2870
    -2.2870  -2.2870  -2.2870  -2.2852  -2.2852  -2.2852  -2.2852  -2.2852
    -2.2852  -2.1720  -2.1720  -2.1591  -2.1591  -2.1591  -2.1384  -2.1384
    -2.1384  -2.1384  -2.1384  -2.1384  -2.1317  -2.1317  -2.1317  -2.1317
    -2.1317  -2.1317  -2.1118  -2.1118  -2.0942  -2.0942  -2.0942  -2.0942
    -2.0942  -2.0942  -2.0582  -2.0582  -2.0582  -2.0334  -2.0334  -2.0334
    -2.0334  -2.0334  -2.0334  -2.0329  -2.0329  -2.0329  -2.0329  -2.0329
    -2.0329  -1.9971  -1.9971  -1.9971  -1.9971  -1.9971  -1.9971  -1.9582
    -1.9582  -1.9582  -1.9582  -1.9582  -1.9582  -1.9037  -1.9037  -1.8847
    -1.8847  -1.8847  -1.8847  -1.8847  -1.8847  -1.8689  -1.8689  -1.8689
    -1.7893  -1.7893  -1.7893  -1.7607  -1.7607  -1.7607  -1.7607  -1.7607
    -1.7607  -1.6813  -1.6813  -1.6813  -1.6813  -1.6813  -1.6813  -1.6717
    -1.6717  -1.6362  -1.6362  -1.6362  -1.6069  -1.6069  -1.6069  -1.6069
    -1.6069  -1.6069  -1.5850  -1.5850  -1.5819  -1.5819  -1.5819  -1.5722
    -1.5722  -1.5722  -1.5722  -1.5722  -1.5722  -1.5721  -1.5721  -1.5721
    -1.5621  -1.5621  -1.5621  -1.5621  -1.5621  -1.5621  -1.5455  -1.5455
    -1.5455  -1.5455  -1.5454  -1.5454  -1.5430  -1.5430  -1.5430  -1.4910
    -1.4910  -1.4910  -1.4771  -1.4771  -1.4771  -1.4771  -1.4771  -1.4771
    -1.3401  -1.3401  -1.3401  -1.3372  -1.3372  -1.3372  -1.0123  -0.5495
    -0.5495  -0.5495  -0.5495  -0.5495  -0.5495  -0.4054  -0.4054  -0.4054
    -0.3315  -0.1858  -0.1858  -0.1858  -0.1858  -0.1858  -0.1858   0.1918
     0.1918   0.1918   0.1918   0.1918   0.1918   0.4724   0.4724   0.4724
     1.0457   1.0457   1.0457   1.0775   1.0775   1.0775   1.0775   1.0775
     1.0775   1.2215   1.2215   1.2215   1.2215   1.2215   1.2215   1.4020
     1.4020   1.4020   1.5192   1.5192   1.5192   2.5608   2.5608   2.5608
     2.5608   2.5608   2.5608   2.8309   2.8309   2.8309   2.8309   2.8309
     2.8309   4.1225   4.1274   4.1274   4.1274   4.3230   4.4427   4.5246
     4.5246   4.5246   4.5246   4.5246   4.5246   4.8102   4.9398   4.9398
     4.9398   4.9855   5.6319   5.6319   5.6319   5.6836   5.6936   5.6936
     5.6936   5.6936   5.6936   5.6936   5.7337   6.2350   6.2351   6.2351
     6.2351   6.2352   6.2353   6.3305   6.3306   6.3307   6.3308   6.3309
     6.3309   6.3605   6.3605   6.3605   6.3605   6.3605   6.3605   6.6777

          k = 0.0000 0.2887 0.0000 (183317 PWs)   bands (ev):

    -9.0016  -8.1292  -8.0282  -7.5657  -7.5657  -7.1968  -6.8092  -6.7649
    -6.7649  -6.7117  -6.7117  -6.3409  -6.0084  -6.0084  -5.9613  -5.7151
    -5.5985  -5.5985  -5.5509  -5.2992  -5.2992  -5.0694  -5.0694  -5.0629
    -5.0590  -4.9411  -4.9146  -4.9146  -4.8834  -4.8834  -4.8399  -4.8315
    -4.7507  -4.7507  -4.7130  -4.7130  -4.6885  -4.5847  -4.5847  -4.5651
    -4.5651  -4.5181  -4.5181  -4.4868  -4.4524  -4.4524  -4.3707  -4.3562
    -4.3562  -4.3406  -4.3327  -4.3327  -4.3252  -4.3252  -4.3049  -4.3049
    -4.3019  -4.2994  -4.2994  -4.2687  -4.2687  -4.2489  -4.2489  -4.1668
    -4.1668  -4.1541  -4.1373  -4.1373  -4.1257  -4.1257  -4.1132  -4.1132
    -4.1020  -4.0571  -4.0571  -4.0352  -4.0352  -4.0311  -4.0311  -3.9880
    -3.9880  -3.9794  -3.9791  -3.9344  -3.9344  -3.9249  -3.9249  -3.8826
    -3.8826  -3.8374  -3.8374  -3.7868  -3.7868  -3.7560  -3.7560  -3.7110
    -3.7110  -3.7003  -3.6897  -3.6897  -3.6897  -3.6897  -3.6859  -3.6859
    -3.5996  -3.5996  -3.5828  -3.5828  -3.5814  -3.5814  -3.5785  -3.5775
    -3.5125  -3.5125  -3.5062  -3.5062  -3.4949  -3.4949  -3.4926  -3.4926
    -3.4849  -3.4849  -3.4685  -3.4324  -3.4324  -3.4240  -3.4240  -3.4063
    -3.4062  -3.4045  -3.3738  -3.3738  -3.3493  -3.3493  -3.3358  -3.3358
    -3.3210  -3.2986  -3.2986  -3.2769  -3.2769  -3.2587  -3.2512  -3.2157
    -3.2157  -3.2067  -3.2067  -3.1935  -3.1858  -3.1800  -3.1654  -3.1654
    -3.1647  -3.1389  -3.1389  -3.1385  -3.1385  -3.1345  -3.1345  -3.0899
    -3.0899  -3.0649  -3.0649  -3.0577  -3.0577  -3.0545  -3.0517  -3.0422
    -2.9954  -2.9954  -2.9848  -2.9848  -2.9637  -2.9623  -2.9623  -2.9575
    -2.9546  -2.9502  -2.9367  -2.9367  -2.9362  -2.9186  -2.9186  -2.9127
    -2.9126  -2.9047  -2.8830  -2.8830  -2.8824  -2.8693  -2.8581  -2.8581
    -2.8571  -2.8571  -2.8474  -2.8474  -2.8338  -2.8338  -2.8314  -2.8235
    -2.8235  -2.8112  -2.8082  -2.7784  -2.7784  -2.7737  -2.7656  -2.7656
    -2.7631  -2.7624  -2.7624  -2.7542  -2.7542  -2.7466  -2.7466  -2.7296
    -2.7245  -2.7245  -2.7183  -2.7183  -2.7127  -2.7019  -2.6979  -2.6979
    -2.6816  -2.6816  -2.6746  -2.6746  -2.6686  -2.6686  -2.6580  -2.6550
    -2.6546  -2.6546  -2.6456  -2.6355  -2.6330  -2.6330  -2.6307  -2.6285
    -2.6285  -2.6144  -2.5942  -2.5867  -2.5867  -2.5640  -2.5640  -2.5559
    -2.5542  -2.5542  -2.5335  -2.5098  -2.5098  -2.4997  -2.4840  -2.4840
    -2.4729  -2.4679  -2.4428  -2.4428  -2.4418  -2.4418  -2.4349  -2.4349
    -2.4340  -2.4340  -2.4216  -2.4216  -2.4017  -2.3867  -2.3867  -2.3477
    -2.3477  -2.3319  -2.3215  -2.3108  -2.3108  -2.2716  -2.2716  -2.2580
    -2.2580  -2.2569  -2.2569  -2.2377  -2.2377  -2.2354  -2.2198  -2.2198
    -2.2140  -2.2077  -2.2020  -2.1961  -2.1961  -2.1867  -2.1867  -2.1588
    -2.1505  -2.1430  -2.1307  -2.1307  -2.1187  -2.1187  -2.1119  -2.1119
    -2.0990  -2.0852  -2.0848  -2.0848  -2.0832  -2.0832  -2.0775  -2.0775
    -2.0695  -2.0643  -2.0548  -2.0548  -2.0399  -2.0399  -2.0257  -2.0257
    -2.0248  -1.9697  -1.9697  -1.9608  -1.9608  -1.9591  -1.9591  -1.9531
    -1.9528  -1.9473  -1.9473  -1.9419  -1.9419  -1.9393  -1.9393  -1.9094
    -1.9057  -1.9037  -1.8923  -1.8923  -1.8918  -1.8918  -1.8879  -1.8879
    -1.8832  -1.8687  -1.8236  -1.8064  -1.8064  -1.8028  -1.8028  -1.8025
    -1.8025  -1.8020  -1.7884  -1.7719  -1.7677  -1.7677  -1.7619  -1.7590
    -1.7590  -1.7522  -1.7522  -1.7282  -1.7282  -1.7238  -1.7238  -1.7149
    -1.7149  -1.6775  -1.6721  -1.6683  -1.6659  -1.6659  -1.6653  -1.6631
    -1.6290  -1.6248  -1.6248  -1.6216  -1.6216  -1.6176  -1.6171  -1.6171
    -1.6055  -1.5987  -1.5987  -1.5907  -1.5907  -1.5876  -1.5876  -1.5870
    -1.5870  -1.5831  -1.5823  -1.5823  -1.5758  -1.5758  -1.5739  -1.5739
    -1.5707  -1.5488  -1.5464  -1.5464  -1.5372  -1.5372  -1.5241  -1.5204
    -1.5204  -1.5140  -1.5140  -1.4743  -1.4743  -1.4639  -1.4639  -1.4151
    -1.4151  -1.3999  -1.3999  -1.3929  -1.3865  -1.3491  -1.0451  -1.0119
    -0.9556  -0.9556  -0.7570  -0.7570  -0.7292  -0.7292  -0.7264  -0.4401
    -0.3212  -0.3212  -0.1967  -0.1967  -0.1868  -0.1868  -0.0772  -0.0772
     0.0172   0.0595   0.1803   0.1803   0.2134   0.3130   0.3130   0.4714
     0.9199   0.9199   0.9220   0.9220   0.9234   0.9234   1.0497   1.0497
     1.3605   1.3605   1.4516   1.4516   1.5463   1.7060   1.7060   1.7262
     1.7262   1.7280   2.0800   2.1481   2.1481   2.3834   2.3834   2.4383
     2.4383   2.4983   2.4983   2.6620   3.3975   3.3975   3.5390   3.5390
     3.7493   3.7493   4.0516   4.2179   4.2179   4.2240   4.2332   4.2332
     4.4074   4.4427   4.5151   4.5151   4.5592   4.9295   5.0154   5.0356
     5.0356   5.0947   5.1853   5.2594   5.2594   5.2981   5.2981   5.3998
     5.4070   5.4070   5.4998   5.5570   5.5570   5.8015   5.8348   5.8348
     5.8414   5.8477   5.8783   5.8786   5.8836   5.9745   5.9746   5.9868
     6.0489   6.0489   6.0639   6.0639   6.1743   6.1743   6.2628   6.2628

          k = 0.0000-0.5774 0.0000 (183406 PWs)   bands (ev):

    -8.6295  -8.6294  -7.7696  -7.7696  -7.6773  -7.6773  -6.8665  -6.8665
    -6.4736  -6.4736  -6.0361  -6.0361  -6.0361  -6.0361  -5.6755  -5.6755
    -5.5258  -5.5258  -5.4448  -5.4448  -5.4448  -5.4448  -5.2534  -5.2534
    -5.1401  -5.1401  -4.8250  -4.8250  -4.8250  -4.8250  -4.8221  -4.8221
    -4.7579  -4.7579  -4.7345  -4.7345  -4.7345  -4.7345  -4.6475  -4.6475
    -4.6475  -4.6475  -4.6025  -4.6025  -4.4935  -4.4935  -4.4935  -4.4935
    -4.3526  -4.3526  -4.2958  -4.2958  -4.2303  -4.2303  -4.2303  -4.2303
    -4.2279  -4.2279  -4.2255  -4.2255  -4.2126  -4.2126  -4.2126  -4.2126
    -4.2083  -4.2083  -4.1874  -4.1874  -4.1874  -4.1874  -4.0789  -4.0789
    -4.0288  -4.0288  -3.9875  -3.9875  -3.9875  -3.9875  -3.9789  -3.9789
    -3.9776  -3.9776  -3.9776  -3.9776  -3.9131  -3.9131  -3.8654  -3.8654
    -3.8654  -3.8654  -3.8587  -3.8587  -3.8233  -3.8233  -3.8233  -3.8233
    -3.7703  -3.7703  -3.7106  -3.7106  -3.6394  -3.6394  -3.6197  -3.6197
    -3.6197  -3.6197  -3.5891  -3.5891  -3.5624  -3.5624  -3.5624  -3.5624
    -3.5432  -3.5432  -3.5432  -3.5432  -3.5427  -3.5427  -3.5342  -3.5342
    -3.5321  -3.5321  -3.4272  -3.4272  -3.4272  -3.4272  -3.3790  -3.3790
    -3.3521  -3.3521  -3.3489  -3.3489  -3.3255  -3.3255  -3.2980  -3.2980
    -3.2980  -3.2980  -3.2776  -3.2776  -3.2776  -3.2776  -3.2750  -3.2750
    -3.1828  -3.1828  -3.1765  -3.1765  -3.1575  -3.1575  -3.1390  -3.1390
    -3.1274  -3.1274  -3.1274  -3.1274  -3.0985  -3.0985  -3.0791  -3.0791
    -3.0233  -3.0233  -3.0233  -3.0233  -3.0212  -3.0212  -2.9860  -2.9860
    -2.9817  -2.9817  -2.9620  -2.9620  -2.9534  -2.9534  -2.9534  -2.9534
    -2.9477  -2.9477  -2.9477  -2.9477  -2.9458  -2.9458  -2.9281  -2.9281
    -2.9039  -2.9039  -2.9039  -2.9039  -2.8818  -2.8818  -2.8695  -2.8695
    -2.8695  -2.8695  -2.8692  -2.8692  -2.8599  -2.8599  -2.8599  -2.8599
    -2.8526  -2.8526  -2.8430  -2.8430  -2.8173  -2.8173  -2.8173  -2.8173
    -2.8118  -2.8118  -2.7980  -2.7980  -2.7884  -2.7884  -2.7850  -2.7850
    -2.7487  -2.7486  -2.7437  -2.7437  -2.7394  -2.7394  -2.7286  -2.7286
    -2.7286  -2.7286  -2.7029  -2.7029  -2.6961  -2.6961  -2.6299  -2.6299
    -2.6299  -2.6299  -2.5896  -2.5896  -2.5732  -2.5732  -2.5732  -2.5732
    -2.5706  -2.5706  -2.5681  -2.5681  -2.5671  -2.5671  -2.5324  -2.5324
    -2.5106  -2.5106  -2.5017  -2.5017  -2.4973  -2.4973  -2.4973  -2.4973
    -2.4464  -2.4464  -2.4459  -2.4459  -2.4053  -2.4053  -2.4053  -2.4053
    -2.3878  -2.3878  -2.3758  -2.3758  -2.3583  -2.3583  -2.3074  -2.3074
    -2.2692  -2.2692  -2.2692  -2.2692  -2.2515  -2.2515  -2.2414  -2.2414
    -2.2264  -2.2264  -2.2264  -2.2264  -2.2142  -2.2142  -2.2142  -2.2142
    -2.1683  -2.1683  -2.1679  -2.1679  -2.1614  -2.1614  -2.1422  -2.1422
    -2.1422  -2.1422  -2.1236  -2.1236  -2.1196  -2.1196  -2.0919  -2.0919
    -2.0908  -2.0908  -2.0862  -2.0862  -2.0739  -2.0739  -2.0739  -2.0739
    -2.0585  -2.0585  -2.0339  -2.0339  -2.0339  -2.0339  -2.0164  -2.0164
    -1.9523  -1.9523  -1.9511  -1.9511  -1.9415  -1.9415  -1.9415  -1.9415
    -1.9289  -1.9289  -1.9142  -1.9142  -1.9045  -1.9045  -1.8805  -1.8805
    -1.8727  -1.8727  -1.8727  -1.8727  -1.8227  -1.8227  -1.8227  -1.8227
    -1.8016  -1.8016  -1.8016  -1.8016  -1.7931  -1.7931  -1.7931  -1.7931
    -1.7861  -1.7861  -1.7625  -1.7625  -1.7610  -1.7610  -1.7385  -1.7385
    -1.7385  -1.7385  -1.7384  -1.7384  -1.7131  -1.7131  -1.7078  -1.7078
    -1.7032  -1.7032  -1.7032  -1.7032  -1.6916  -1.6916  -1.6764  -1.6764
    -1.6738  -1.6738  -1.6706  -1.6706  -1.6706  -1.6706  -1.6502  -1.6502
    -1.6049  -1.6049  -1.5963  -1.5963  -1.5961  -1.5961  -1.5961  -1.5961
    -1.5941  -1.5941  -1.5902  -1.5902  -1.5863  -1.5863  -1.5863  -1.5863
    -1.5779  -1.5779  -1.5437  -1.5437  -1.5437  -1.5437  -1.5344  -1.5344
    -1.4993  -1.4993  -1.4667  -1.4667  -1.4667  -1.4667  -1.4622  -1.4622
    -1.4622  -1.4622  -1.4272  -1.4272  -1.3947  -1.3947  -1.3947  -1.3947
    -1.3916  -1.3916  -0.9244  -0.9244  -0.9244  -0.9244  -0.7946  -0.7946
    -0.7802  -0.7802  -0.2330  -0.2330  -0.2330  -0.2330  -0.1812  -0.1812
     0.1826   0.1826   0.1826   0.1826   0.4330   0.4330   0.4330   0.4330
     0.7731   0.7731   0.8191   0.8191   0.8620   0.8620   0.9727   0.9727
     0.9727   0.9727   2.1835   2.1835   2.2244   2.2244   2.2244   2.2244
     2.2298   2.2298   2.4173   2.4173   2.4474   2.4474   2.4474   2.4474
     2.8515   2.8515   2.9346   2.9346   3.2011   3.2011   3.2011   3.2011
     3.3412   3.3412   3.9282   3.9282   4.4671   4.4671   4.4671   4.4671
     4.5242   4.5242   4.5920   4.5920   4.5920   4.5920   4.8017   4.8017
     4.8788   4.8788   4.9101   4.9103   5.1451   5.1451   5.2872   5.2874
     5.3119   5.3119   5.4254   5.4255   5.4382   5.4382   5.4382   5.4382
     5.7412   5.7412   5.7591   5.7591   5.8557   5.8557   5.9744   5.9744
     5.9968   5.9968   6.1281   6.1281   6.1281   6.1281   6.1556   6.1585

          k = 0.2500-0.7217 0.0000 (183316 PWs)   bands (ev):

    -8.7526  -8.2652  -8.2652  -7.8882  -7.4207  -7.4207  -6.9055  -6.9055
    -6.5833  -6.1654  -6.1654  -6.1564  -6.1564  -6.1077  -5.8316  -5.8316
    -5.4851  -5.3491  -5.3271  -5.3271  -5.2542  -5.2542  -5.1712  -5.1712
    -5.1377  -5.1377  -4.9831  -4.9831  -4.9037  -4.9037  -4.8989  -4.8976
    -4.8976  -4.7691  -4.7691  -4.7290  -4.7093  -4.6755  -4.6755  -4.6192
    -4.6054  -4.6054  -4.5733  -4.5733  -4.5095  -4.5095  -4.4382  -4.4382
    -4.4130  -4.3254  -4.3254  -4.3042  -4.3042  -4.2838  -4.2838  -4.2329
    -4.2329  -4.2318  -4.2318  -4.2290  -4.2290  -4.2283  -4.2175  -4.1628
    -4.1190  -4.1190  -4.1046  -4.1046  -4.1000  -4.1000  -4.0771  -4.0771
    -4.0689  -4.0660  -4.0660  -4.0492  -4.0023  -4.0023  -3.9937  -3.9888
    -3.9888  -3.9599  -3.9448  -3.9231  -3.9208  -3.9208  -3.8975  -3.8975
    -3.8732  -3.8492  -3.8492  -3.8330  -3.7973  -3.7829  -3.7829  -3.7564
    -3.7564  -3.7564  -3.7525  -3.7499  -3.7499  -3.7492  -3.7492  -3.6651
    -3.6336  -3.5995  -3.5976  -3.5976  -3.5888  -3.5660  -3.5602  -3.5602
    -3.5371  -3.5371  -3.5211  -3.5211  -3.5100  -3.5100  -3.4768  -3.4768
    -3.4621  -3.4621  -3.4621  -3.4621  -3.4433  -3.4433  -3.3999  -3.3887
    -3.3887  -3.3300  -3.3300  -3.3111  -3.3040  -3.3040  -3.2866  -3.2816
    -3.2630  -3.2630  -3.2585  -3.2565  -3.2389  -3.2389  -3.2382  -3.2382
    -3.2111  -3.2111  -3.2089  -3.2089  -3.1907  -3.1587  -3.1587  -3.1562
    -3.1562  -3.1196  -3.1190  -3.1129  -3.0952  -3.0821  -3.0821  -3.0798
    -3.0798  -3.0726  -3.0584  -3.0584  -3.0458  -3.0402  -3.0402  -3.0336
    -3.0210  -3.0210  -3.0179  -3.0179  -2.9965  -2.9703  -2.9602  -2.9602
    -2.9509  -2.9509  -2.9476  -2.9475  -2.9379  -2.9379  -2.9355  -2.9312
    -2.9312  -2.9225  -2.9225  -2.9169  -2.9169  -2.9112  -2.9048  -2.8823
    -2.8764  -2.8764  -2.8677  -2.8677  -2.8468  -2.8452  -2.8452  -2.8405
    -2.8393  -2.8393  -2.8288  -2.8288  -2.8160  -2.8160  -2.7962  -2.7953
    -2.7953  -2.7932  -2.7932  -2.7866  -2.7866  -2.7659  -2.7597  -2.7572
    -2.7269  -2.7240  -2.7240  -2.7192  -2.7134  -2.7134  -2.7051  -2.7025
    -2.6988  -2.6988  -2.6985  -2.6985  -2.6787  -2.6787  -2.6505  -2.6423
    -2.6423  -2.6251  -2.6134  -2.6134  -2.5833  -2.5640  -2.5640  -2.5520
    -2.5520  -2.5492  -2.5285  -2.5156  -2.5156  -2.5135  -2.5135  -2.5016
    -2.5016  -2.4994  -2.4994  -2.4884  -2.4807  -2.4567  -2.4567  -2.4149
    -2.4149  -2.4029  -2.4029  -2.4023  -2.4023  -2.3902  -2.3902  -2.3897
    -2.3897  -2.3836  -2.3836  -2.3707  -2.3707  -2.3412  -2.3412  -2.3394
    -2.3249  -2.3249  -2.3224  -2.3224  -2.3177  -2.2850  -2.2850  -2.2732
    -2.2720  -2.2720  -2.2677  -2.2467  -2.2467  -2.2398  -2.2314  -2.1928
    -2.1928  -2.1786  -2.1786  -2.1779  -2.1779  -2.1617  -2.1617  -2.1526
    -2.1526  -2.1510  -2.1340  -2.1340  -2.1299  -2.1265  -2.1255  -2.1255
    -2.1186  -2.0924  -2.0761  -2.0631  -2.0595  -2.0501  -2.0501  -2.0346
    -2.0346  -2.0251  -2.0251  -1.9959  -1.9959  -1.9748  -1.9748  -1.9746
    -1.9703  -1.9662  -1.9537  -1.9537  -1.9472  -1.9472  -1.9385  -1.9385
    -1.9364  -1.9364  -1.9312  -1.9312  -1.9036  -1.9036  -1.8934  -1.8934
    -1.8888  -1.8888  -1.8708  -1.8708  -1.8665  -1.8591  -1.8340  -1.8340
    -1.8079  -1.7995  -1.7969  -1.7969  -1.7958  -1.7958  -1.7913  -1.7913
    -1.7860  -1.7859  -1.7627  -1.7627  -1.7607  -1.7607  -1.7582  -1.7581
    -1.7494  -1.7479  -1.7479  -1.7275  -1.7275  -1.7238  -1.7206  -1.7114
    -1.7076  -1.7076  -1.6992  -1.6992  -1.6840  -1.6840  -1.6840  -1.6699
    -1.6697  -1.6687  -1.6687  -1.6658  -1.6658  -1.6615  -1.6402  -1.6402
    -1.6375  -1.6366  -1.6366  -1.6246  -1.6246  -1.6130  -1.6130  -1.6102
    -1.6102  -1.6082  -1.6028  -1.6006  -1.5964  -1.5922  -1.5922  -1.5767
    -1.5767  -1.5672  -1.5672  -1.5547  -1.5272  -1.5272  -1.5132  -1.5132
    -1.5100  -1.5100  -1.5096  -1.5096  -1.4934  -1.4934  -1.4829  -1.4593
    -1.4485  -1.4485  -1.4387  -1.3825  -1.3825  -1.3741  -1.1411  -1.1411
    -1.1072  -1.1072  -1.0089  -1.0089  -0.9538  -0.9538  -0.9046  -0.7931
    -0.7931  -0.7789  -0.7789  -0.3392  -0.2808  -0.2808  -0.1083  -0.1083
    -0.0931  -0.0931   0.2318   0.2319   0.4010   0.5401   0.5473   0.5581
     0.5581   0.9058   0.9058   1.1001   1.3727   1.3727   1.3809   1.3809
     1.3829   1.3829   1.4360   1.4360   1.5558   1.5558   1.5710   1.9976
     2.1380   2.1380   2.2907   2.3579   2.3842   2.6371   2.6371   2.8086
     2.8086   2.9550   3.2078   3.2078   3.2654   3.2654   3.2763   3.2763
     3.3971   3.3971   3.7957   4.0871   4.2847   4.3586   4.4134   4.4248
     4.5981   4.5981   4.6820   4.7104   4.7780   4.7780   4.7930   4.8203
     4.8204   4.8470   4.8470   5.1607   5.1607   5.1680   5.1796   5.1989
     5.2634   5.2636   5.3147   5.5042   5.5042   5.5106   5.5106   5.5190
     5.5190   5.5713   5.6450   5.6452   5.7611   5.7611   5.8993   6.0013
     6.0013   6.0316   6.0316   6.0375   6.0599   6.1974   6.1974   6.3042

     the Fermi energy is    -0.0167 ev

!    total energy              =  -17046.62490132 Ry
     total all-electron energy =   -264797.006188 Ry
     estimated scf accuracy    <          1.2E-09 Ry
     smearing contrib. (-TS)   =      -0.01014819 Ry
     internal energy E=F+TS    =  -17046.61475313 Ry

     The total energy is F=E-TS. E is the sum of the following terms:
     one-electron contribution = -197539.49540220 Ry
     hartree contribution      =   99691.30372882 Ry
     xc contribution           =   -3568.71459003 Ry
     ewald contribution        =   91557.71261112 Ry
     one-center paw contrib.   =   -7187.42110083 Ry

     convergence has been achieved in   5 iterations

     Writing all to output data dir ./tmp/cu111_4x4.save/ :
     XML data file, charge density, pseudopotentials, collected wavefunctions

     init_run     :     74.26s CPU     78.37s WALL (       1 calls)
     electrons    :   1809.26s CPU   1863.98s WALL (       1 calls)

     Called by init_run:
     wfcinit      :     67.78s CPU     70.65s WALL (       1 calls)
     potinit      :      2.51s CPU      3.10s WALL (       1 calls)
     hinit0       :      0.42s CPU      0.45s WALL (       1 calls)

     Called by electrons:
     c_bands      :   1678.65s CPU   1723.77s WALL (       6 calls)
     sum_band     :    114.31s CPU    120.82s WALL (       6 calls)
     v_of_rho     :      2.44s CPU      2.61s WALL (       6 calls)
     newd         :      7.86s CPU     11.12s WALL (       6 calls)
     PAW_pot      :      8.19s CPU      8.19s WALL (       6 calls)
     mix_rho      :      0.39s CPU      0.42s WALL (       6 calls)

     Called by c_bands:
     init_us_2    :      8.75s CPU      8.85s WALL (      52 calls)
     cegterg      :   1663.00s CPU   1707.94s WALL (      27 calls)

     Called by *egterg:
     cdiaghg      :    126.68s CPU    130.93s WALL (     181 calls)
     h_psi        :    741.89s CPU    775.14s WALL (     192 calls)
     s_psi        :    199.56s CPU    199.80s WALL (     192 calls)
     g_psi        :      1.74s CPU      1.74s WALL (     161 calls)

     Called by h_psi:
     h_psi:calbec :    208.46s CPU    209.79s WALL (     192 calls)
     vloc_psi     :    331.68s CPU    361.51s WALL (     192 calls)
                                        0.00s GPU  (     192 calls)
     add_vuspsi   :    199.51s CPU    199.78s WALL (     192 calls)

     General routines
     calbec       :    257.38s CPU    258.94s WALL (     216 calls)
     fft          :      2.27s CPU      2.48s WALL (      77 calls)
     ffts         :      0.74s CPU      0.75s WALL (      12 calls)
     fftw         :    286.67s CPU    318.38s WALL (  115758 calls)
     interpolate  :      0.90s CPU      0.92s WALL (       6 calls)

     Parallel routines

     PWSCF        :  31m25.59s CPU  32m31.15s WALL


   This run was terminated on:  13:13: 5  23Jun2026            

=------------------------------------------------------------------------------=
   JOB DONE.
=------------------------------------------------------------------------------=
