"Cu80"
1.0
       10.2106218338         0.0000000000         0.0000000000
        5.1053109169         8.8426578965         0.0000000000
        0.0000000000         0.0000000000        38.3369369507
   Cu
   80
Direct
     0.916666667         0.166666667         0.391267556
     0.166666667         0.166666667         0.391267556
     0.416666667         0.166666667         0.391267556
     0.666666667         0.166666667         0.391267556
     0.916666667         0.416666667         0.391267556
     0.166666667         0.416666667         0.391267556
     0.416666667         0.416666667         0.391267556
     0.666666667         0.416666667         0.391267556
     0.916666667         0.666666667         0.391267556
     0.166666667         0.666666667         0.391267556
     0.416666667         0.666666667         0.391267556
     0.666666667         0.666666667         0.391267556
     0.916666667         0.916666667         0.391267556
     0.166666667         0.916666667         0.391267556
     0.416666667         0.916666667         0.391267556
     0.666666667         0.916666667         0.391267556
     0.000000000         0.000000000         0.445633778
     0.250000000         0.000000000         0.445633778
     0.500000000         0.000000000         0.445633778
     0.750000000         0.000000000         0.445633778
     0.000000000         0.250000000         0.445633778
     0.250000000         0.250000000         0.445633778
     0.500000000         0.250000000         0.445633778
     0.750000000         0.250000000         0.445633778
     0.000000000         0.500000000         0.445633778
     0.250000000         0.500000000         0.445633778
     0.500000000         0.500000000         0.445633778
     0.750000000         0.500000000         0.445633778
     0.000000000         0.750000000         0.445633778
     0.250000000         0.750000000         0.445633778
     0.500000000         0.750000000         0.445633778
     0.750000000         0.750000000         0.445633778
     0.083333333         0.083333333         0.500000000
     0.333333333         0.083333333         0.500000000
     0.583333333         0.083333333         0.500000000
     0.833333333         0.083333333         0.500000000
     0.083333333         0.333333333         0.500000000
     0.333333333         0.333333333         0.500000000
     0.583333333         0.333333333         0.500000000
     0.833333333         0.333333333         0.500000000
     0.083333333         0.583333333         0.500000000
     0.333333333         0.583333333         0.500000000
     0.583333333         0.583333333         0.500000000
     0.833333333         0.583333333         0.500000000
     0.083333333         0.833333333         0.500000000
     0.333333333         0.833333333         0.500000000
     0.583333333         0.833333333         0.500000000
     0.833333333         0.833333333         0.500000000
     0.916666667         0.166666667         0.554366222
     0.166666667         0.166666667         0.554366222
     0.416666667         0.166666667         0.554366222
     0.666666667         0.166666667         0.554366222
     0.916666667         0.416666667         0.554366222
     0.166666667         0.416666667         0.554366222
     0.416666667         0.416666667         0.554366222
     0.666666667         0.416666667         0.554366222
     0.916666667         0.666666667         0.554366222
     0.166666667         0.666666667         0.554366222
     0.416666667         0.666666667         0.554366222
     0.666666667         0.666666667         0.554366222
     0.916666667         0.916666667         0.554366222
     0.166666667         0.916666667         0.554366222
     0.416666667         0.916666667         0.554366222
     0.666666667         0.916666667         0.554366222
     0.000000000         0.000000000         0.608732444
     0.250000000         0.000000000         0.608732444
     0.500000000         0.000000000         0.608732444
     0.750000000         0.000000000         0.608732444
     0.000000000         0.250000000         0.608732444
     0.250000000         0.250000000         0.608732444
     0.500000000         0.250000000         0.608732444
     0.750000000         0.250000000         0.608732444
     0.000000000         0.500000000         0.608732444
     0.250000000         0.500000000         0.608732444
     0.500000000         0.500000000         0.608732444
     0.750000000         0.500000000         0.608732444
     0.000000000         0.750000000         0.608732444
     0.250000000         0.750000000         0.608732444
     0.500000000         0.750000000         0.608732444
     0.750000000         0.750000000         0.608732444
