
     Program PWSCF v.7.5 starts on  6Jul2026 at 11:18:25 

     This program is part of the open-source Quantum ESPRESSO suite
     for quantum simulation of materials; please cite
         "P. Giannozzi et al., J. Phys.:Condens. Matter 21 395502 (2009);
         "P. Giannozzi et al., J. Phys.:Condens. Matter 29 465901 (2017);
         "P. Giannozzi et al., J. Chem. Phys. 152 154105 (2020);
          URL http://www.quantum-espresso.org", 
     in publications or presentations arising from this work. More details at
     http://www.quantum-espresso.org/quote

     Parallel version (MPI), running on    24 processors

     MPI processes distributed on     1 nodes
     235932 MiB available memory on the printing compute node when the environment starts

     Reading input from al_pvdf_scf.in
Warning: card &CELL ignored

     Current dimensions of program PWSCF are:
     Max number of different atomic species (ntypx) = 10
     Max number of k-points (npk) =  40000
     Max angular momentum in pseudopotentials (lmaxx) =  4
     file Al.pbe-n-kjpaw_psl.1.0.0.UPF: wavefunction(s)  3S 3P renormalized
     file C.pbe-n-kjpaw_psl.1.0.0.UPF: wavefunction(s)  2S 2P renormalized

     R & G space division:  proc/nbgrp/npool/nimage =      24
     Subspace diagonalization in iterative solution of the eigenvalue problem:
     one sub-group per band group will be used
     custom distributed-memory algorithm (size of sub-group:  2*  2 procs)


     Parallelization info
     --------------------
     sticks:   dense  smooth     PW     G-vecs:    dense   smooth      PW
     Min         646     323     85               223320    78973   10737
     Max         647     324     86               223336    78990   10756
     Sum       15505    7765   2053              5359811  1895543  257905

     Using Slab Decomposition



     bravais-lattice index     =            0
     lattice parameter (alat)  =      21.6470  a.u.
     unit-cell volume          =   30180.2507 (a.u.)^3
     number of atoms/cell      =           94
     number of atomic types    =            4
     number of electrons       =       290.00
     number of Kohn-Sham states=          174
     kinetic-energy cutoff     =      60.0000  Ry
     charge density cutoff     =     480.0000  Ry
     scf convergence threshold =      1.0E-08
     mixing beta               =       0.3000
     number of iterations used =            8  plain     mixing
     Exchange-correlation=  SLA  PW   PBX  PBC
                           (   1   4   3   4   0   0   0)

     celldm(1)=  21.647002  celldm(2)=   0.000000  celldm(3)=   0.000000
     celldm(4)=   0.000000  celldm(5)=   0.000000  celldm(6)=   0.000000

     crystal axes: (cart. coord. in units of alat)
               a(1) = (   1.000000   0.000000   0.000000 )  
               a(2) = (   0.500000   0.866063   0.000000 )  
               a(3) = (   0.000000   0.000000   3.435422 )  

     reciprocal axes: (cart. coord. in units 2 pi/alat)
               b(1) = (  1.000000 -0.577325  0.000000 )  
               b(2) = (  0.000000  1.154650  0.000000 )  
               b(3) = (  0.000000  0.000000  0.291085 )  


     PseudoPot. # 1 for Al read from file:
     ./Al.pbe-n-kjpaw_psl.1.0.0.UPF
     MD5 check sum: cfc449ca30b5f3223ec38ddd88ac046d
     Pseudo is Projector augmented-wave + core cor, Zval =  3.0
     Generated using "atomic" code by A. Dal Corso  v.5.1
     Shape of augmentation charge: PSQ
     Using radial grid of 1135 points,  6 beta functions with: 
                l(1) =   0
                l(2) =   0
                l(3) =   1
                l(4) =   1
                l(5) =   2
                l(6) =   2
     Q(r) pseudized with 0 coefficients 


     PseudoPot. # 2 for C  read from file:
     ./C.pbe-n-kjpaw_psl.1.0.0.UPF
     MD5 check sum: 5d2aebdfa2cae82b50a7e79e9516da0f
     Pseudo is Projector augmented-wave + core cor, Zval =  4.0
     Generated using "atomic" code by A. Dal Corso  v.5.1
     Shape of augmentation charge: PSQ
     Using radial grid of 1073 points,  4 beta functions with: 
                l(1) =   0
                l(2) =   0
                l(3) =   1
                l(4) =   1
     Q(r) pseudized with 0 coefficients 


     PseudoPot. # 3 for H  read from file:
     ./H.pbe-rrkjus_psl.1.0.0.UPF
     MD5 check sum: f52b6d4d1c606e5624b1dc7b2218f220
     Pseudo is Ultrasoft, Zval =  1.0
     Generated using "atomic" code by A. Dal Corso  v.5.1
     Using radial grid of  929 points,  2 beta functions with: 
                l(1) =   0
                l(2) =   0
     Q(r) pseudized with 0 coefficients 


     PseudoPot. # 4 for F  read from file:
     ./f_pbe_v1.4.uspp.F.UPF
     MD5 check sum: 4c38b6a325caf53ec0e86aed9459de46
     Pseudo is Ultrasoft, Zval =  7.0
     Generated by new atomic code, or converted to UPF format
     Using radial grid of  799 points,  4 beta functions with: 
                l(1) =   0
                l(2) =   0
                l(3) =   1
                l(4) =   1
     Q(r) pseudized with  8 coefficients,  rinner =    0.950   0.950   0.950


     atomic species   valence    mass     pseudopotential
     Al                3.00    26.98154     Al( 1.00)
     C                 4.00    12.01100     C ( 1.00)
     H                 1.00     1.00800     H ( 1.00)
     F                 7.00    18.99840     F ( 1.00)

     No symmetry found



   Cartesian axes

     site n.     atom                  positions (alat units)
         1        Al     tau(   1) = (   0.9999307   0.1441397   1.2921414  )
         2        Al     tau(   2) = (   0.2500180   0.1441869   1.2920891  )
         3        Al     tau(   3) = (   0.4998438   0.1442363   1.2919971  )
         4        Al     tau(   4) = (   0.7498540   0.1441391   1.2920376  )
         5        Al     tau(   5) = (   1.1250282   0.3607276   1.2919120  )
         6        Al     tau(   6) = (   0.3749522   0.3606782   1.2924425  )
         7        Al     tau(   7) = (   0.6247993   0.3606914   1.2922436  )
         8        Al     tau(   8) = (   0.8748941   0.3606762   1.2920131  )
         9        Al     tau(   9) = (   1.2499471   0.5770060   1.2920513  )
        10        Al     tau(  10) = (   0.4999017   0.5770002   1.2921690  )
        11        Al     tau(  11) = (   0.7498856   0.5771144   1.2920422  )
        12        Al     tau(  12) = (   0.9999167   0.5771462   1.2920026  )
        13        Al     tau(  13) = (   1.3748941   0.7936219   1.2920583  )
        14        Al     tau(  14) = (   0.6249268   0.7936330   1.2919545  )
        15        Al     tau(  15) = (   0.8749409   0.7936594   1.2920571  )
        16        Al     tau(  16) = (   1.1249134   0.7936555   1.2919404  )
        17        Al     tau(  17) = (  -0.0001875  -0.0006055   1.4987305  )
        18        Al     tau(  18) = (   0.2498361  -0.0004566   1.4985199  )
        19        Al     tau(  19) = (   0.4997189  -0.0003681   1.4984308  )
        20        Al     tau(  20) = (   0.7495822  -0.0005226   1.4986329  )
        21        Al     tau(  21) = (   0.1247921   0.2161079   1.4985398  )
        22        Al     tau(  22) = (   0.3747601   0.2160871   1.4987154  )
        23        Al     tau(  23) = (   0.6247472   0.2160131   1.4985660  )
        24        Al     tau(  24) = (   0.8746706   0.2161532   1.4987118  )
        25        Al     tau(  25) = (   0.2497439   0.4325472   1.4987231  )
        26        Al     tau(  26) = (   0.4997505   0.4325510   1.4989352  )
        27        Al     tau(  27) = (   0.7496406   0.4325400   1.4986068  )
        28        Al     tau(  28) = (   0.9998052   0.4325743   1.4984685  )
        29        Al     tau(  29) = (   0.3747378   0.6490683   1.4985291  )
        30        Al     tau(  30) = (   0.6247090   0.6489659   1.4984743  )
        31        Al     tau(  31) = (   0.8747197   0.6490068   1.4984682  )
        32        Al     tau(  32) = (   1.1247734   0.6489437   1.4984026  )
        33        Al     tau(  33) = (   0.1246626   0.0714065   1.7030769  )
        34        Al     tau(  34) = (   0.3746010   0.0714178   1.7031317  )
        35        Al     tau(  35) = (   0.6243979   0.0714043   1.7032078  )
        36        Al     tau(  36) = (   0.8744810   0.0713792   1.7029977  )
        37        Al     tau(  37) = (   0.2496175   0.2879789   1.7030959  )
        38        Al     tau(  38) = (   0.4995845   0.2878652   1.7029697  )
        39        Al     tau(  39) = (   0.7493688   0.2879549   1.7032275  )
        40        Al     tau(  40) = (   0.9996521   0.2879823   1.7031058  )
        41        Al     tau(  41) = (   0.3744938   0.5044451   1.7029981  )
        42        Al     tau(  42) = (   0.6245403   0.5044435   1.7032169  )
        43        Al     tau(  43) = (   0.8745011   0.5043907   1.7030644  )
        44        Al     tau(  44) = (   1.1244877   0.5043970   1.7031717  )
        45        Al     tau(  45) = (   0.4995563   0.7206837   1.7031968  )
        46        Al     tau(  46) = (   0.7495593   0.7208743   1.7029865  )
        47        Al     tau(  47) = (   0.9995326   0.7208886   1.7029131  )
        48        Al     tau(  48) = (   1.2494607   0.7208005   1.7030470  )
        49        Al     tau(  49) = (   0.9993398   0.1432491   1.9074393  )
        50        Al     tau(  50) = (   0.2493471   0.1432862   1.9075818  )
        51        Al     tau(  51) = (   0.4993713   0.1433225   1.9077263  )
        52        Al     tau(  52) = (   0.7492362   0.1432423   1.9076470  )
        53        Al     tau(  53) = (   1.1243572   0.3597544   1.9077844  )
        54        Al     tau(  54) = (   0.3743886   0.3597302   1.9071081  )
        55        Al     tau(  55) = (   0.6243567   0.3597405   1.9075416  )
        56        Al     tau(  56) = (   0.8742992   0.3597984   1.9077026  )
        57        Al     tau(  57) = (   1.2493566   0.5762720   1.9075823  )
        58        Al     tau(  58) = (   0.4993321   0.5762751   1.9076899  )
        59        Al     tau(  59) = (   0.7492129   0.5762364   1.9076892  )
        60        Al     tau(  60) = (   0.9993069   0.5761971   1.9075689  )
        61        Al     tau(  61) = (   1.3742964   0.7927085   1.9075029  )
        62        Al     tau(  62) = (   0.6243872   0.7926197   1.9076677  )
        63        Al     tau(  63) = (   0.8743638   0.7928106   1.9074323  )
        64        Al     tau(  64) = (   1.1243517   0.7927934   1.9076570  )
        65        Al     tau(  65) = (  -0.0009095  -0.0013933   2.1140543  )
        66        Al     tau(  66) = (   0.2491972  -0.0014849   2.1142022  )
        67        Al     tau(  67) = (   0.4991347  -0.0014986   2.1142854  )
        68        Al     tau(  68) = (   0.7491961  -0.0013580   2.1144082  )
        69        Al     tau(  69) = (   0.1241043   0.2150808   2.1143617  )
        70        Al     tau(  70) = (   0.3741008   0.2150865   2.1140151  )
        71        Al     tau(  71) = (   0.6240787   0.2151608   2.1146281  )
        72        Al     tau(  72) = (   0.8741070   0.2150664   2.1142267  )
        73        Al     tau(  73) = (   0.2491778   0.4316400   2.1137875  )
        74        Al     tau(  74) = (   0.4991203   0.4315299   2.1137744  )
        75        Al     tau(  75) = (   0.7491049   0.4316802   2.1145020  )
        76        Al     tau(  76) = (   0.9991218   0.4317589   2.1145500  )
        77        Al     tau(  77) = (   0.3741329   0.6480884   2.1145300  )
        78        Al     tau(  78) = (   0.6241676   0.6480939   2.1149090  )
        79        Al     tau(  79) = (   0.8741594   0.6481912   2.1141333  )
        80        Al     tau(  80) = (   1.1240673   0.6481778   2.1142208  )
        81        C      tau(  81) = (   0.2894168   0.4159565   2.5661010  )
        82        C      tau(  82) = (   0.4117544   0.4360825   2.5206862  )
        83        H      tau(  83) = (   0.2274068   0.4297053   2.4945195  )
        84        H      tau(  84) = (   0.2802868   0.3262750   2.5982963  )
        85        H      tau(  85) = (   0.2697162   0.4776376   2.6366288  )
        86        C      tau(  86) = (   0.5077435   0.4208068   2.6122928  )
        87        F      tau(  87) = (   0.4314409   0.3605239   2.4274898  )
        88        H      tau(  88) = (   0.4957697   0.3355341   2.6545950  )
        89        C      tau(  89) = (   0.6343643   0.4263933   2.5724675  )
        90        F      tau(  90) = (   0.4176993   0.5483780   2.4744188  )
        91        H      tau(  91) = (   0.4950448   0.4881459   2.6795402  )
        92        F      tau(  92) = (   0.6577451   0.5262841   2.5093530  )
        93        F      tau(  93) = (   0.6630526   0.3319648   2.5029452  )
        94        H      tau(  94) = (   0.6947607   0.4253787   2.6473497  )

     number of k points=    10  Marzari-Vanderbilt smearing, width (Ry)=  0.0200
                       cart. coord. in units 2pi/alat
        k(    1) = (   0.0000000   0.0000000   0.0000000), wk =   0.1250000
        k(    2) = (   0.0000000   0.2886626   0.0000000), wk =   0.2500000
        k(    3) = (   0.0000000  -0.5773252   0.0000000), wk =   0.1250000
        k(    4) = (   0.2500000  -0.1443313   0.0000000), wk =   0.2500000
        k(    5) = (   0.2500000  -0.7216565   0.0000000), wk =   0.2500000
        k(    6) = (  -0.5000000   0.2886626   0.0000000), wk =   0.1250000
        k(    7) = (  -0.5000000   0.5773252   0.0000000), wk =   0.2500000
        k(    8) = (  -0.2500000  -0.1443313   0.0000000), wk =   0.2500000
        k(    9) = (  -0.2500000  -0.7216565   0.0000000), wk =   0.2500000
        k(   10) = (   0.5000000   0.2886626   0.0000000), wk =   0.1250000

     Dense  grid:  5359811 G-vectors     FFT dimensions: ( 160, 160, 540)

     Smooth grid:  1895543 G-vectors     FFT dimensions: ( 108, 108, 375)

     Estimated max dynamical RAM per process >       2.07 GB

     Estimated total dynamical RAM >      49.76 GB

     Atomic positions and unit cell read from directory:
     ./tmp/al_pvdf.save/


     The initial density is read from file :
     ./tmp/al_pvdf.save/charge-density


     negative rho (up, down):  1.424E-03 0.000E+00
     Starting wfcs from file
     Checking if some PAW data can be deallocated... 

     total cpu time spent up to now is       14.6 secs

     Self-consistent Calculation

     iteration #  1     ecut=    60.00 Ry     beta= 0.30
     Davidson diagonalization with overlap
     ethr =  1.00E-05,  avg # of iterations =  1.0

     Threshold (ethr) on eigenvalues was too large:
     Diagonalizing with lowered threshold

     Davidson diagonalization with overlap
     ethr =  3.48E-12,  avg # of iterations =  1.0

     negative rho (up, down):  1.424E-03 0.000E+00

     total cpu time spent up to now is      297.6 secs

     total energy              =   -3434.73386280 Ry
     estimated scf accuracy    <       0.00000001 Ry

     iteration #  2     ecut=    60.00 Ry     beta= 0.30
     Davidson diagonalization with overlap
     ethr =  3.58E-12,  avg # of iterations =  5.7

     negative rho (up, down):  1.424E-03 0.000E+00

     total cpu time spent up to now is      512.3 secs

     total energy              =   -3434.73386279 Ry
     estimated scf accuracy    <       0.00000056 Ry

     iteration #  3     ecut=    60.00 Ry     beta= 0.30
     Davidson diagonalization with overlap
     ethr =  3.58E-12,  avg # of iterations =  6.6

     negative rho (up, down):  1.424E-03 0.000E+00

     total cpu time spent up to now is      718.0 secs

     total energy              =   -3434.73386280 Ry
     estimated scf accuracy    <       0.00000020 Ry

     iteration #  4     ecut=    60.00 Ry     beta= 0.30
     Davidson diagonalization with overlap
     ethr =  3.58E-12,  avg # of iterations =  3.7

     negative rho (up, down):  1.424E-03 0.000E+00

     total cpu time spent up to now is      908.7 secs

     End of self-consistent calculation

          k = 0.0000 0.0000 0.0000 (237007 PWs)   bands (ev):

   -27.8027 -27.5657 -26.3305 -26.1186 -16.9590 -15.3580 -13.1222 -11.7886
   -10.8322 -10.1451 -10.1192 -10.1051  -9.6673  -9.5846  -9.3405  -9.3390
    -9.3386  -9.3353  -9.3352  -9.3340  -9.0223  -8.6347  -8.6315  -8.6306
    -8.6281  -8.6278  -8.6277  -8.6260  -8.1140  -7.5452  -7.5437  -7.5428
    -7.5412  -7.5405  -7.5400  -7.5400  -7.4131  -7.0254  -6.6210  -6.3946
    -6.3943  -6.3938  -6.3936  -6.3935  -6.3932  -6.2364  -6.1733  -6.0824
    -6.0729  -6.0718  -6.0714  -6.0707  -6.0694  -5.9411  -5.7444  -5.7001
    -5.6997  -5.6995  -5.6990  -5.6984  -5.6982  -5.6902  -5.6471  -5.5066
    -5.0524  -4.9621  -4.9620  -4.9616  -4.9362  -4.9360  -4.9358  -4.6358
    -4.6354  -4.6350  -4.6350  -4.6346  -4.6344  -4.2833  -4.2823  -4.2815
    -4.2504  -4.2490  -4.2478  -4.1997  -4.1921  -4.1914  -4.1906  -4.1895
    -4.1864  -4.1626  -3.5915  -3.3724  -3.3702  -3.3684  -3.2106  -3.2104
    -3.2101  -3.2093  -3.2091  -3.2087  -3.0997  -3.0968  -3.0937  -2.1944
    -2.1927  -2.1908  -2.1890  -2.1874  -2.1822  -1.8810  -1.8778  -1.8742
    -1.5091  -1.5086  -1.5077  -1.5074  -1.5060  -1.5050  -1.4342  -1.4321
    -1.4307  -1.2005  -0.7701  -0.7699  -0.7693  -0.7690  -0.7675  -0.7673
    -0.6484  -0.6479  -0.6460  -0.6453  -0.6442  -0.6437  -0.0959  -0.0958
    -0.0932  -0.0928  -0.0909  -0.0903   0.1421   0.1457   0.1500   0.1533
     0.1549   0.1638   0.1672   0.1705   0.1741   0.2160   0.2161   0.2175
     0.2180   0.2191   0.2193   0.2290   0.2305   0.2317   0.8007   0.8011
     0.8018   0.8031   0.8034   0.8056   0.9249   0.9256   0.9262   0.9264
     0.9267   0.9275   1.1393   1.2870   1.2894   1.2933

          k = 0.0000 0.2887 0.0000 (236896 PWs)   bands (ev):

   -27.8027 -27.5657 -26.3305 -26.1186 -16.9590 -15.3580 -13.1222 -11.7886
   -10.7383 -10.1451 -10.1055 -10.0253  -9.9893  -9.6673  -9.6162  -9.6161
    -9.5846  -9.2792  -8.9294  -8.9077  -8.9074  -8.8732  -8.8730  -8.6290
    -8.5031  -8.1879  -8.1675  -8.1674  -8.1136  -7.8183  -7.8181  -7.7989
    -7.4491  -7.4133  -7.3986  -7.3984  -7.0835  -7.0827  -7.0251  -6.7169
    -6.7127  -6.6992  -6.6990  -6.6207  -6.3475  -6.3464  -6.3036  -6.3028
    -6.3025  -6.2345  -6.1704  -5.9509  -5.7444  -5.6907  -5.6253  -5.6250
    -5.6171  -5.6154  -5.6100  -5.6087  -5.6082  -5.5784  -5.5781  -5.5566
    -5.5063  -5.2543  -5.2167  -5.2165  -5.0524  -4.8907  -4.8903  -4.8253
    -4.5506  -4.5463  -4.5461  -4.5296  -4.5294  -4.4626  -4.4599  -4.1800
    -4.1773  -4.1707  -4.1459  -4.1456  -3.8469  -3.8467  -3.7420  -3.7397
    -3.5036  -3.4846  -3.4845  -3.4762  -3.4754  -3.4495  -3.3872  -3.1618
    -3.1306  -3.1303  -2.8010  -2.7405  -2.6518  -2.6505  -2.4519  -2.4489
    -2.3916  -2.3914  -2.3489  -2.3470  -2.1290  -2.1281  -2.0824  -2.0804
    -2.0516  -2.0500  -1.7585  -1.7560  -1.6940  -1.6938  -1.6796  -1.5800
    -1.5782  -1.4251  -1.1127  -1.0093  -1.0077  -1.0042  -0.9714  -0.9679
    -0.8644  -0.8639  -0.6957  -0.6953  -0.5511  -0.5499  -0.4229  -0.4212
    -0.4192  -0.3824  -0.3811  -0.1669  -0.1667  -0.1592  -0.1104  -0.1073
    -0.0853  -0.0775   0.0429   0.1430   0.1475   0.4618   0.4678   0.5421
     0.5437   0.5760   0.5783   0.7491   0.7532   0.7717   0.7747   0.9363
     0.9386   0.9539   0.9545   1.0819   1.0824   1.1286   1.1292   1.2247
     1.2636   1.2668   1.2853   1.3066   1.3108   1.4459

          k = 0.0000-0.5773 0.0000 (236880 PWs)   bands (ev):

   -27.8027 -27.5657 -26.3305 -26.1186 -16.9590 -15.3580 -13.1222 -11.7886
   -10.4588 -10.4552 -10.1450 -10.1055  -9.7465  -9.7438  -9.7094  -9.7093
    -9.6671  -9.5845  -9.0005  -9.0002  -8.6525  -8.6496  -8.6283  -8.2264
    -8.2263  -8.2260  -8.2256  -8.1140  -7.9105  -7.9103  -7.5234  -7.5232
    -7.5231  -7.5225  -7.4907  -7.4902  -7.4134  -7.1734  -7.1714  -7.0251
    -6.7910  -6.7902  -6.6217  -6.4436  -6.4431  -6.4426  -6.4424  -6.4383
    -6.4373  -6.2346  -6.1704  -6.0325  -6.0322  -6.0288  -6.0286  -5.9494
    -5.7443  -5.7166  -5.7156  -5.6902  -5.5067  -5.3399  -5.3396  -5.3372
    -5.3371  -5.2845  -5.2804  -5.0531  -4.9843  -4.9837  -4.9830  -4.9821
    -4.5533  -4.5506  -4.2837  -4.2830  -4.2812  -4.2809  -4.2702  -4.2695
    -4.1727  -3.8899  -3.8898  -3.8598  -3.8596  -3.2419  -3.2380  -3.2247
    -3.2245  -3.1847  -3.1847  -3.1842  -3.1839  -3.1736  -3.1733  -3.1226
    -3.1216  -3.1209  -3.1191  -2.9009  -2.9003  -2.8989  -2.8979  -2.5392
    -2.5361  -2.4871  -2.4860  -2.4746  -2.4738  -2.4726  -2.4716  -2.3252
    -2.3249  -2.0554  -2.0551  -1.7295  -1.7289  -1.4165  -1.4154  -1.4137
    -1.4120  -1.1683  -1.1672  -1.1664  -1.1648  -1.0938  -1.0923  -1.0008
    -1.0004  -0.9046  -0.9041  -0.8547  -0.8462  -0.7563  -0.7557  -0.7544
    -0.7536  -0.4558  -0.4555  -0.4210  -0.4207  -0.3216  -0.3202  -0.1668
    -0.1591   0.0865   0.0868   0.0873   0.0879   0.0981   0.0994   0.3023
     0.3025   0.3043   0.3051   0.7841   0.7847   0.9890   0.9898   0.9908
     0.9916   1.0049   1.0058   1.0091   1.0098   1.4718   1.4725   1.4727
     1.4739   1.4788   1.4798   1.4929   1.4953   1.4981

          k = 0.2500-0.1443 0.0000 (236890 PWs)   bands (ev):

   -27.8027 -27.5657 -26.3305 -26.1186 -16.9590 -15.3580 -13.1221 -11.7886
   -10.7383 -10.1450 -10.1055 -10.0253  -9.9893  -9.6673  -9.6164  -9.6161
    -9.5846  -9.2792  -8.9294  -8.9079  -8.9073  -8.8733  -8.8729  -8.6289
    -8.5030  -8.1877  -8.1678  -8.1672  -8.1138  -7.8187  -7.8178  -7.7988
    -7.4491  -7.4133  -7.3987  -7.3983  -7.0836  -7.0825  -7.0251  -6.7171
    -6.7131  -6.6995  -6.6987  -6.6196  -6.3473  -6.3461  -6.3036  -6.3031
    -6.3026  -6.2350  -6.1709  -5.9508  -5.7445  -5.6908  -5.6253  -5.6248
    -5.6171  -5.6153  -5.6097  -5.6089  -5.6086  -5.5786  -5.5784  -5.5566
    -5.5061  -5.2544  -5.2166  -5.2162  -5.0522  -4.8908  -4.8907  -4.8251
    -4.5504  -4.5466  -4.5464  -4.5297  -4.5290  -4.4626  -4.4601  -4.1807
    -4.1773  -4.1698  -4.1458  -4.1457  -3.8473  -3.8469  -3.7419  -3.7398
    -3.5036  -3.4848  -3.4840  -3.4760  -3.4755  -3.4495  -3.3871  -3.1624
    -3.1307  -3.1305  -2.8007  -2.7385  -2.6531  -2.6505  -2.4518  -2.4495
    -2.3919  -2.3913  -2.3487  -2.3470  -2.1295  -2.1286  -2.0844  -2.0804
    -2.0513  -2.0492  -1.7583  -1.7563  -1.6924  -1.6916  -1.6769  -1.5813
    -1.5781  -1.4246  -1.1127  -1.0094  -1.0074  -1.0041  -0.9747  -0.9678
    -0.8650  -0.8639  -0.6934  -0.6925  -0.5518  -0.5495  -0.4246  -0.4214
    -0.4189  -0.3823  -0.3809  -0.1672  -0.1669  -0.1594  -0.1121  -0.1077
    -0.0849  -0.0780   0.0441   0.1411   0.1495   0.4622   0.4674   0.5417
     0.5435   0.5751   0.5788   0.7507   0.7531   0.7677   0.7728   0.9345
     0.9390   0.9539   0.9544   1.0831   1.0836   1.1273   1.1280   1.2241
     1.2617   1.2674   1.2861   1.3043   1.3102   1.4460

          k = 0.2500-0.7217 0.0000 (236847 PWs)   bands (ev):

   -27.8027 -27.5657 -26.3305 -26.1186 -16.9590 -15.3580 -13.1221 -11.7886
   -10.5507 -10.1778 -10.1746 -10.1450 -10.1054  -9.8385  -9.6673  -9.5846
    -9.4662  -9.4643  -9.0587  -9.0583  -8.7436  -8.6289  -8.3735  -8.3718
    -8.3522  -8.3519  -8.3184  -8.1138  -7.9513  -7.9482  -7.6149  -7.4136
    -7.2667  -7.2662  -7.2642  -7.2488  -7.2468  -7.2155  -7.2151  -7.0257
    -6.8964  -6.8958  -6.8500  -6.8495  -6.6208  -6.5340  -6.5172  -6.5160
    -6.2356  -6.1759  -6.1697  -6.1661  -6.1533  -6.1525  -5.9519  -5.7987
    -5.7968  -5.7419  -5.6905  -5.5070  -5.4448  -5.4442  -5.3740  -5.0860
    -5.0852  -5.0738  -5.0523  -5.0372  -5.0366  -5.0094  -5.0050  -4.7149
    -4.7142  -4.6929  -4.6657  -4.3533  -4.3523  -4.1738  -4.0173  -4.0023
    -4.0016  -3.9777  -3.9624  -3.9199  -3.9183  -3.6588  -3.6580  -3.6131
    -3.6100  -3.3278  -3.3160  -3.3153  -3.2893  -3.2071  -3.1069  -2.9790
    -2.9732  -2.9453  -2.9432  -2.8697  -2.8673  -2.8319  -2.5792  -2.5770
    -2.5622  -2.5430  -2.2790  -2.2284  -2.2274  -2.1382  -2.1354  -2.0954
    -2.0924  -1.9361  -1.9291  -1.9269  -1.8548  -1.6181  -1.5578  -1.5537
    -1.4750  -1.4683  -1.4651  -1.4646  -1.2540  -1.2420  -1.1712  -1.0506
    -1.0479  -0.9376  -0.7399  -0.7393  -0.7157  -0.6587  -0.6579  -0.6238
    -0.6196  -0.5964  -0.5836  -0.5284  -0.3740  -0.3727  -0.0662  -0.0641
    -0.0159  -0.0151   0.0241   0.0255   0.2438   0.2462   0.3539   0.3550
     0.3815   0.3985   0.4036   0.4555   0.5963   0.5993   0.6956   0.6964
     0.7147   0.8887   1.0236   1.0239   1.0975   1.1559   1.1633   1.3962
     1.4025   1.6197   1.6401   1.6493   1.6922   1.7167

          k =-0.5000 0.2887 0.0000 (236880 PWs)   bands (ev):

   -27.8027 -27.5657 -26.3305 -26.1186 -16.9590 -15.3580 -13.1221 -11.7886
   -10.4585 -10.4554 -10.1450 -10.1055  -9.7463  -9.7441  -9.7096  -9.7093
    -9.6670  -9.5846  -9.0007  -9.0001  -8.6519  -8.6502  -8.6282  -8.2266
    -8.2263  -8.2259  -8.2254  -8.1140  -7.9108  -7.9100  -7.5236  -7.5233
    -7.5228  -7.5224  -7.4904  -7.4900  -7.4134  -7.1730  -7.1718  -7.0252
    -6.7909  -6.7901  -6.6209  -6.4438  -6.4431  -6.4427  -6.4421  -6.4382
    -6.4373  -6.2350  -6.1710  -6.0325  -6.0322  -6.0292  -6.0291  -5.9491
    -5.7444  -5.7164  -5.7146  -5.6905  -5.5070  -5.3397  -5.3395  -5.3378
    -5.3376  -5.2854  -5.2796  -5.0538  -4.9845  -4.9837  -4.9821  -4.9818
    -4.5534  -4.5507  -4.2835  -4.2830  -4.2818  -4.2814  -4.2703  -4.2692
    -4.1728  -3.8899  -3.8896  -3.8597  -3.8593  -3.2428  -3.2369  -3.2255
    -3.2251  -3.1845  -3.1844  -3.1841  -3.1840  -3.1727  -3.1719  -3.1223
    -3.1217  -3.1210  -3.1189  -2.9008  -2.9000  -2.8987  -2.8976  -2.5391
    -2.5367  -2.4879  -2.4869  -2.4765  -2.4757  -2.4725  -2.4715  -2.3270
    -2.3265  -2.0527  -2.0518  -1.7274  -1.7268  -1.4192  -1.4179  -1.4139
    -1.4118  -1.1684  -1.1673  -1.1668  -1.1644  -1.0941  -1.0925  -0.9980
    -0.9974  -0.9013  -0.9007  -0.8568  -0.8439  -0.7572  -0.7557  -0.7545
    -0.7530  -0.4573  -0.4564  -0.4218  -0.4211  -0.3222  -0.3202  -0.1665
    -0.1597   0.0864   0.0870   0.0873   0.0884   0.0975   0.0988   0.3014
     0.3016   0.3036   0.3050   0.7801   0.7808   0.9881   0.9887   0.9921
     0.9924   1.0033   1.0046   1.0075   1.0098   1.4651   1.4729   1.4731
     1.4735   1.4772   1.4867   1.4927   1.4954   1.4972

          k =-0.5000 0.5773 0.0000 (236845 PWs)   bands (ev):

   -27.8027 -27.5657 -26.3305 -26.1186 -16.9590 -15.3580 -13.1221 -11.7886
   -10.5507 -10.1780 -10.1744 -10.1450 -10.1055  -9.8385  -9.6673  -9.5847
    -9.4666  -9.4640  -9.0587  -9.0584  -8.7436  -8.6289  -8.3739  -8.3714
    -8.3524  -8.3518  -8.3182  -8.1137  -7.9514  -7.9478  -7.6148  -7.4136
    -7.2669  -7.2661  -7.2642  -7.2490  -7.2464  -7.2157  -7.2152  -7.0257
    -6.8972  -6.8949  -6.8498  -6.8495  -6.6209  -6.5336  -6.5173  -6.5165
    -6.2359  -6.1776  -6.1685  -6.1651  -6.1529  -6.1524  -5.9523  -5.7990
    -5.7967  -5.7420  -5.6905  -5.5074  -5.4449  -5.4439  -5.3741  -5.0859
    -5.0851  -5.0760  -5.0499  -5.0372  -5.0367  -5.0092  -5.0054  -4.7147
    -4.7140  -4.6930  -4.6660  -4.3533  -4.3525  -4.1736  -4.0167  -4.0025
    -4.0018  -3.9789  -3.9620  -3.9201  -3.9184  -3.6588  -3.6580  -3.6131
    -3.6095  -3.3277  -3.3159  -3.3154  -3.2890  -3.2070  -3.1054  -2.9780
    -2.9742  -2.9454  -2.9428  -2.8692  -2.8678  -2.8348  -2.5791  -2.5777
    -2.5622  -2.5434  -2.2785  -2.2276  -2.2265  -2.1370  -2.1353  -2.0938
    -2.0923  -1.9357  -1.9289  -1.9275  -1.8559  -1.6213  -1.5558  -1.5536
    -1.4718  -1.4684  -1.4671  -1.4666  -1.2525  -1.2415  -1.1700  -1.0494
    -1.0479  -0.9376  -0.7427  -0.7423  -0.7171  -0.6587  -0.6578  -0.6218
    -0.6198  -0.5942  -0.5857  -0.5262  -0.3737  -0.3723  -0.0655  -0.0641
    -0.0148  -0.0138   0.0243   0.0254   0.2438   0.2453   0.3545   0.3556
     0.3804   0.3987   0.4027   0.4562   0.5944   0.5963   0.6958   0.6964
     0.7108   0.8888   1.0237   1.0242   1.0999   1.1557   1.1597   1.3949
     1.4020   1.6203   1.6424   1.6472   1.6914   1.7219

          k =-0.2500-0.1443 0.0000 (236890 PWs)   bands (ev):

   -27.8027 -27.5657 -26.3305 -26.1186 -16.9590 -15.3580 -13.1221 -11.7886
   -10.7383 -10.1450 -10.1055 -10.0253  -9.9892  -9.6674  -9.6163  -9.6161
    -9.5846  -9.2792  -8.9294  -8.9078  -8.9074  -8.8733  -8.8730  -8.6289
    -8.5029  -8.1877  -8.1678  -8.1672  -8.1137  -7.8185  -7.8179  -7.7988
    -7.4491  -7.4133  -7.3986  -7.3983  -7.0837  -7.0825  -7.0250  -6.7172
    -6.7131  -6.6994  -6.6988  -6.6197  -6.3475  -6.3460  -6.3035  -6.3030
    -6.3026  -6.2348  -6.1709  -5.9510  -5.7443  -5.6908  -5.6253  -5.6249
    -5.6169  -5.6155  -5.6097  -5.6090  -5.6085  -5.5786  -5.5783  -5.5566
    -5.5061  -5.2544  -5.2166  -5.2163  -5.0521  -4.8908  -4.8905  -4.8250
    -4.5505  -4.5466  -4.5464  -4.5296  -4.5291  -4.4625  -4.4602  -4.1805
    -4.1774  -4.1699  -4.1457  -4.1455  -3.8473  -3.8469  -3.7418  -3.7399
    -3.5036  -3.4848  -3.4843  -3.4757  -3.4753  -3.4499  -3.3872  -3.1636
    -3.1306  -3.1304  -2.8006  -2.7365  -2.6531  -2.6517  -2.4519  -2.4496
    -2.3923  -2.3918  -2.3486  -2.3471  -2.1303  -2.1298  -2.0844  -2.0824
    -2.0498  -2.0492  -1.7583  -1.7564  -1.6903  -1.6897  -1.6741  -1.5812
    -1.5795  -1.4241  -1.1127  -1.0082  -1.0070  -1.0047  -0.9747  -0.9714
    -0.8650  -0.8642  -0.6903  -0.6898  -0.5512  -0.5501  -0.4247  -0.4233
    -0.4189  -0.3815  -0.3806  -0.1675  -0.1669  -0.1603  -0.1121  -0.1090
    -0.0850  -0.0782   0.0448   0.1434   0.1472   0.4622   0.4674   0.5421
     0.5437   0.5758   0.5777   0.7513   0.7530   0.7655   0.7677   0.9349
     0.9371   0.9539   0.9546   1.0842   1.0845   1.1260   1.1262   1.2241
     1.2626   1.2653   1.2858   1.3039   1.3084   1.4460

          k =-0.2500-0.7217 0.0000 (236847 PWs)   bands (ev):

   -27.8027 -27.5657 -26.3305 -26.1186 -16.9590 -15.3580 -13.1221 -11.7886
   -10.5507 -10.1780 -10.1745 -10.1450 -10.1054  -9.8385  -9.6673  -9.5846
    -9.4667  -9.4639  -9.0587  -9.0583  -8.7436  -8.6290  -8.3740  -8.3713
    -8.3524  -8.3517  -8.3184  -8.1138  -7.9515  -7.9480  -7.6149  -7.4136
    -7.2667  -7.2662  -7.2641  -7.2493  -7.2464  -7.2157  -7.2149  -7.0257
    -6.8968  -6.8954  -6.8500  -6.8495  -6.6207  -6.5340  -6.5168  -6.5165
    -6.2358  -6.1749  -6.1697  -6.1666  -6.1534  -6.1524  -5.9526  -5.7987
    -5.7956  -5.7427  -5.6905  -5.5070  -5.4448  -5.4442  -5.3740  -5.0861
    -5.0850  -5.0736  -5.0526  -5.0373  -5.0364  -5.0093  -5.0051  -4.7153
    -4.7139  -4.6930  -4.6659  -4.3529  -4.3525  -4.1738  -4.0184  -4.0023
    -4.0017  -3.9766  -3.9623  -3.9200  -3.9183  -3.6588  -3.6578  -3.6131
    -3.6097  -3.3278  -3.3159  -3.3154  -3.2891  -3.2071  -3.1092  -2.9795
    -2.9727  -2.9454  -2.9425  -2.8698  -2.8669  -2.8288  -2.5778  -2.5770
    -2.5624  -2.5428  -2.2791  -2.2294  -2.2289  -2.1385  -2.1365  -2.0954
    -2.0939  -1.9368  -1.9290  -1.9267  -1.8536  -1.6145  -1.5579  -1.5557
    -1.4750  -1.4717  -1.4634  -1.4625  -1.2560  -1.2423  -1.1734  -1.0517
    -1.0479  -0.9377  -0.7370  -0.7362  -0.7141  -0.6583  -0.6576  -0.6243
    -0.6209  -0.5970  -0.5830  -0.5310  -0.3741  -0.3725  -0.0665  -0.0656
    -0.0172  -0.0166   0.0245   0.0255   0.2447   0.2468   0.3524   0.3536
     0.3831   0.3992   0.4026   0.4544   0.5998   0.6010   0.6959   0.6966
     0.7196   0.8885   1.0233   1.0244   1.0943   1.1600   1.1634   1.3961
     1.4038   1.6191   1.6396   1.6500   1.6913   1.7135

          k = 0.5000 0.2887 0.0000 (236880 PWs)   bands (ev):

   -27.8027 -27.5657 -26.3305 -26.1186 -16.9590 -15.3580 -13.1221 -11.7886
   -10.4587 -10.4552 -10.1450 -10.1055  -9.7466  -9.7437  -9.7096  -9.7093
    -9.6671  -9.5846  -9.0006  -9.0002  -8.6529  -8.6493  -8.6281  -8.2265
    -8.2262  -8.2261  -8.2254  -8.1140  -7.9107  -7.9102  -7.5235  -7.5233
    -7.5231  -7.5222  -7.4906  -7.4898  -7.4134  -7.1734  -7.1714  -7.0252
    -6.7908  -6.7902  -6.6210  -6.4437  -6.4432  -6.4427  -6.4421  -6.4383
    -6.4372  -6.2349  -6.1710  -6.0325  -6.0325  -6.0291  -6.0289  -5.9496
    -5.7436  -5.7162  -5.7154  -5.6904  -5.5070  -5.3404  -5.3397  -5.3373
    -5.3371  -5.2856  -5.2795  -5.0537  -4.9843  -4.9834  -4.9824  -4.9819
    -4.5533  -4.5509  -4.2839  -4.2836  -4.2809  -4.2809  -4.2699  -4.2697
    -4.1728  -3.8900  -3.8898  -3.8598  -3.8596  -3.2433  -3.2364  -3.2265
    -3.2263  -3.1844  -3.1844  -3.1838  -3.1834  -3.1715  -3.1709  -3.1225
    -3.1213  -3.1210  -3.1191  -2.9005  -2.8990  -2.8982  -2.8972  -2.5392
    -2.5368  -2.4889  -2.4884  -2.4765  -2.4757  -2.4745  -2.4735  -2.3293
    -2.3290  -2.0492  -2.0486  -1.7256  -1.7248  -1.4192  -1.4180  -1.4163
    -1.4149  -1.1684  -1.1673  -1.1665  -1.1649  -1.0937  -1.0924  -0.9952
    -0.9944  -0.8972  -0.8969  -0.8574  -0.8432  -0.7569  -0.7557  -0.7544
    -0.7523  -0.4584  -0.4577  -0.4227  -0.4222  -0.3225  -0.3217  -0.1666
    -0.1598   0.0871   0.0875   0.0878   0.0879   0.0961   0.0974   0.3013
     0.3016   0.3032   0.3043   0.7757   0.7762   0.9880   0.9886   0.9927
     0.9929   1.0033   1.0041   1.0064   1.0085   1.4637   1.4722   1.4731
     1.4737   1.4770   1.4878   1.4936   1.4946   1.4979

     the Fermi energy is    -0.0037 ev

!    total energy              =   -3434.73386281 Ry
     estimated scf accuracy    <          1.0E-09 Ry
     smearing contrib. (-TS)   =      -0.00842376 Ry
     internal energy E=F+TS    =   -3434.72543905 Ry

     The total energy is F=E-TS. E is the sum of the following terms:
     one-electron contribution =  -11647.21677660 Ry
     hartree contribution      =    5896.27333997 Ry
     xc contribution           =    -264.12771728 Ry
     ewald contribution        =    5379.22773411 Ry
     one-center paw contrib.   =   -2798.88201925 Ry

     convergence has been achieved in   4 iterations

     negative rho (up, down):  1.424E-03 0.000E+00

     Forces acting on atoms (cartesian axes, Ry/au):

     atom    1 type  1   force =    -0.00002004   -0.00005241    0.00005731
     atom    2 type  1   force =    -0.00023411   -0.00011758   -0.00009629
     atom    3 type  1   force =     0.00011029   -0.00017746   -0.00005407
     atom    4 type  1   force =     0.00001489   -0.00005665    0.00000453
     atom    5 type  1   force =    -0.00020825   -0.00024392    0.00002090
     atom    6 type  1   force =    -0.00011056   -0.00012742   -0.00023576
     atom    7 type  1   force =     0.00016430   -0.00018771   -0.00016660
     atom    8 type  1   force =    -0.00000113   -0.00012085    0.00000319
     atom    9 type  1   force =    -0.00004030    0.00017250   -0.00010883
     atom   10 type  1   force =    -0.00002823    0.00022318   -0.00014309
     atom   11 type  1   force =    -0.00003650   -0.00001375   -0.00013339
     atom   12 type  1   force =    -0.00003639   -0.00009339   -0.00013076
     atom   13 type  1   force =    -0.00000324   -0.00002120    0.00002006
     atom   14 type  1   force =    -0.00005080   -0.00001708    0.00003484
     atom   15 type  1   force =    -0.00009759   -0.00001471   -0.00013604
     atom   16 type  1   force =    -0.00000832   -0.00002045   -0.00001414
     atom   17 type  1   force =    -0.00010761    0.00015075    0.00002027
     atom   18 type  1   force =    -0.00018172   -0.00009995    0.00023953
     atom   19 type  1   force =     0.00006376   -0.00023700    0.00036071
     atom   20 type  1   force =     0.00016749    0.00001365    0.00008868
     atom   21 type  1   force =    -0.00012741   -0.00013983    0.00019053
     atom   22 type  1   force =    -0.00007102   -0.00018731    0.00008974
     atom   23 type  1   force =     0.00003088   -0.00009226    0.00022817
     atom   24 type  1   force =     0.00010805   -0.00020531    0.00006690
     atom   25 type  1   force =    -0.00016208    0.00000623    0.00005224
     atom   26 type  1   force =     0.00001660    0.00001907   -0.00007769
     atom   27 type  1   force =     0.00021471   -0.00003048    0.00026165
     atom   28 type  1   force =    -0.00013953   -0.00009444    0.00025973
     atom   29 type  1   force =    -0.00004792    0.00006197    0.00027638
     atom   30 type  1   force =     0.00007434    0.00019889    0.00036390
     atom   31 type  1   force =     0.00002332    0.00003720    0.00031916
     atom   32 type  1   force =    -0.00010947    0.00017426    0.00036994
     atom   33 type  1   force =    -0.00016173   -0.00014368    0.00000395
     atom   34 type  1   force =    -0.00008791   -0.00010239   -0.00003794
     atom   35 type  1   force =     0.00022339   -0.00013368   -0.00013725
     atom   36 type  1   force =     0.00002269   -0.00005154    0.00016772
     atom   37 type  1   force =    -0.00034153   -0.00019873    0.00001092
     atom   38 type  1   force =     0.00005760   -0.00010425    0.00020385
     atom   39 type  1   force =     0.00039733   -0.00016763   -0.00015160
     atom   40 type  1   force =    -0.00019185   -0.00007566   -0.00001051
     atom   41 type  1   force =    -0.00001838    0.00013134    0.00017531
     atom   42 type  1   force =     0.00010187    0.00004832   -0.00005324
     atom   43 type  1   force =     0.00003462   -0.00004502    0.00002175
     atom   44 type  1   force =    -0.00003145   -0.00001198   -0.00004411
     atom   45 type  1   force =     0.00000676    0.00047367   -0.00015204
     atom   46 type  1   force =    -0.00007479    0.00007607    0.00006570
     atom   47 type  1   force =     0.00005152    0.00004208    0.00012411
     atom   48 type  1   force =     0.00002927    0.00024882    0.00000045
     atom   49 type  1   force =     0.00000728   -0.00000374    0.00007990
     atom   50 type  1   force =    -0.00003799   -0.00011378   -0.00001875
     atom   51 type  1   force =     0.00003105   -0.00017333   -0.00016490
     atom   52 type  1   force =     0.00008479    0.00000169    0.00000151
     atom   53 type  1   force =    -0.00013023    0.00001657   -0.00012525
     atom   54 type  1   force =    -0.00004300    0.00002143    0.00001986
     atom   55 type  1   force =     0.00008015   -0.00000430   -0.00008941
     atom   56 type  1   force =     0.00007023   -0.00002280   -0.00006632
     atom   57 type  1   force =    -0.00007421    0.00012817   -0.00003371
     atom   58 type  1   force =     0.00004426    0.00011555   -0.00021576
     atom   59 type  1   force =     0.00015343    0.00010609   -0.00002731
     atom   60 type  1   force =     0.00000867    0.00012621    0.00002390
     atom   61 type  1   force =     0.00003201    0.00006884    0.00008394
     atom   62 type  1   force =    -0.00002078    0.00014317   -0.00008255
     atom   63 type  1   force =     0.00000972   -0.00006207    0.00008138
     atom   64 type  1   force =    -0.00003833   -0.00001187   -0.00011155
     atom   65 type  1   force =     0.00018200   -0.00014542   -0.00000107
     atom   66 type  1   force =    -0.00006458    0.00016170   -0.00009762
     atom   67 type  1   force =     0.00010315    0.00034067   -0.00013934
     atom   68 type  1   force =    -0.00012465   -0.00004621   -0.00023747
     atom   69 type  1   force =     0.00011711    0.00014140   -0.00023172
     atom   70 type  1   force =     0.00009971   -0.00000068    0.00002181
     atom   71 type  1   force =     0.00004067    0.00002430   -0.00022963
     atom   72 type  1   force =    -0.00003065    0.00029485   -0.00007216
     atom   73 type  1   force =    -0.00001792    0.00005879    0.00005625
     atom   74 type  1   force =     0.00011904    0.00017965    0.00034348
     atom   75 type  1   force =    -0.00003488   -0.00003363   -0.00004931
     atom   76 type  1   force =     0.00004079   -0.00016247   -0.00028821
     atom   77 type  1   force =     0.00008163    0.00004366   -0.00015425
     atom   78 type  1   force =    -0.00011386    0.00000139   -0.00041730
     atom   79 type  1   force =    -0.00009796   -0.00003546    0.00000144
     atom   80 type  1   force =     0.00028632    0.00003398   -0.00005594
     atom   81 type  2   force =    -0.00047183   -0.00001590   -0.00051572
     atom   82 type  2   force =     0.00023010   -0.00011327   -0.00064376
     atom   83 type  3   force =    -0.00013574    0.00029572   -0.00048827
     atom   84 type  3   force =    -0.00006282    0.00010968    0.00073026
     atom   85 type  3   force =    -0.00009036   -0.00062515    0.00068252
     atom   86 type  2   force =     0.00011332   -0.00034089   -0.00019631
     atom   87 type  4   force =     0.00052811    0.00000241    0.00020586
     atom   88 type  3   force =    -0.00043087   -0.00020604    0.00078017
     atom   89 type  2   force =     0.00013626    0.00024581    0.00006142
     atom   90 type  4   force =     0.00010316    0.00055739    0.00006814
     atom   91 type  3   force =     0.00001971   -0.00019981   -0.00069062
     atom   92 type  4   force =     0.00034690    0.00014159   -0.00056894
     atom   93 type  4   force =    -0.00035481    0.00047277   -0.00026417
     atom   94 type  3   force =     0.00012205   -0.00020897    0.00081672

     Total force =     0.003343     Total SCF correction =     0.000051


     Computing stress (Cartesian axis) and pressure


     negative rho (up, down):  1.424E-03 0.000E+00
          total   stress  (Ry/bohr**3)                   (kbar)     P=       -6.95
  -0.00007027   0.00000015   0.00000037          -10.34        0.02        0.05
   0.00000015  -0.00007067   0.00000052            0.02      -10.40        0.08
   0.00000037   0.00000052  -0.00000079            0.05        0.08       -0.12


     Writing all to output data dir ./tmp/al_pvdf.save/ :
     XML data file, charge density, pseudopotentials, collected wavefunctions

     init_run     :     11.36s CPU     14.14s WALL (       1 calls)
     electrons    :    861.15s CPU    894.72s WALL (       1 calls)
     forces       :     54.28s CPU     56.24s WALL (       1 calls)
     stress       :    196.11s CPU    200.80s WALL (       1 calls)

     Called by init_run:
     wfcinit      :      4.01s CPU      5.47s WALL (       1 calls)
     potinit      :      1.95s CPU      2.13s WALL (       1 calls)
     hinit0       :      1.18s CPU      1.31s WALL (       1 calls)

     Called by electrons:
     c_bands      :    722.38s CPU    743.75s WALL (       5 calls)
     sum_band     :    120.35s CPU    128.21s WALL (       5 calls)
     v_of_rho     :      2.61s CPU      3.01s WALL (       5 calls)
     newd         :     10.63s CPU     15.18s WALL (       5 calls)
     PAW_pot      :      7.62s CPU      7.64s WALL (       5 calls)
     mix_rho      :      0.28s CPU      0.32s WALL (       5 calls)

     Called by c_bands:
     init_us_2    :     19.53s CPU     19.78s WALL (     120 calls)
     cegterg      :    682.53s CPU    703.60s WALL (      50 calls)

     Called by *egterg:
     cdiaghg      :     23.83s CPU     24.35s WALL (     210 calls)
     h_psi        :    436.26s CPU    450.61s WALL (     230 calls)
     s_psi        :    117.92s CPU    118.03s WALL (     230 calls)
     g_psi        :      0.68s CPU      0.69s WALL (     180 calls)

     Called by h_psi:
     h_psi:calbec :    123.50s CPU    124.18s WALL (     230 calls)
     vloc_psi     :    193.36s CPU    205.24s WALL (     230 calls)
                                        0.00s GPU  (     230 calls)
     add_vuspsi   :    118.62s CPU    118.79s WALL (     230 calls)

     General routines
     calbec       :    344.52s CPU    346.31s WALL (     450 calls)
     fft          :      4.39s CPU      4.69s WALL (      89 calls)
     ffts         :      0.34s CPU      0.35s WALL (      10 calls)
     fftw         :    200.34s CPU    214.66s WALL (   48954 calls)
     interpolate  :      0.45s CPU      0.47s WALL (       5 calls)

     Parallel routines

     PWSCF        :  18m45.51s CPU  19m37.44s WALL


   This run was terminated on:  11:38: 3   6Jul2026            

=------------------------------------------------------------------------------=
   JOB DONE.
=------------------------------------------------------------------------------=
