
     Program PWSCF v.7.5 starts on  5Jul2026 at  8:54:34 

     This program is part of the open-source Quantum ESPRESSO suite
     for quantum simulation of materials; please cite
         "P. Giannozzi et al., J. Phys.:Condens. Matter 21 395502 (2009);
         "P. Giannozzi et al., J. Phys.:Condens. Matter 29 465901 (2017);
         "P. Giannozzi et al., J. Chem. Phys. 152 154105 (2020);
          URL http://www.quantum-espresso.org", 
     in publications or presentations arising from this work. More details at
     http://www.quantum-espresso.org/quote

     Parallel version (MPI), running on    24 processors

     MPI processes distributed on     1 nodes
     248725 MiB available memory on the printing compute node when the environment starts

     Reading input from al_pvdf_relax.in

     Current dimensions of program PWSCF are:
     Max number of different atomic species (ntypx) = 10
     Max number of k-points (npk) =  40000
     Max angular momentum in pseudopotentials (lmaxx) =  4
     file Al.pbe-n-kjpaw_psl.1.0.0.UPF: wavefunction(s)  3S 3P renormalized
     file C.pbe-n-kjpaw_psl.1.0.0.UPF: wavefunction(s)  2S 2P renormalized

     R & G space division:  proc/nbgrp/npool/nimage =      24
     Subspace diagonalization in iterative solution of the eigenvalue problem:
     one sub-group per band group will be used
     custom distributed-memory algorithm (size of sub-group:  2*  2 procs)


     Parallelization info
     --------------------
     sticks:   dense  smooth     PW     G-vecs:    dense   smooth      PW
     Min         646     323     85               223320    78973   10737
     Max         647     324     86               223336    78990   10756
     Sum       15505    7765   2053              5359811  1895543  257905

     Using Slab Decomposition



     bravais-lattice index     =            0
     lattice parameter (alat)  =      21.6470  a.u.
     unit-cell volume          =   30180.2507 (a.u.)^3
     number of atoms/cell      =           94
     number of atomic types    =            4
     number of electrons       =       290.00
     number of Kohn-Sham states=          174
     kinetic-energy cutoff     =      60.0000  Ry
     charge density cutoff     =     480.0000  Ry
     scf convergence threshold =      1.0E-08
     mixing beta               =       0.3000
     number of iterations used =            8  plain     mixing
     energy convergence thresh.=      1.0E-04
     force convergence thresh. =      1.0E-03
     Exchange-correlation=  SLA  PW   PBX  PBC
                           (   1   4   3   4   0   0   0)
     nstep                     =           50


     celldm(1)=  21.647002  celldm(2)=   0.000000  celldm(3)=   0.000000
     celldm(4)=   0.000000  celldm(5)=   0.000000  celldm(6)=   0.000000

     crystal axes: (cart. coord. in units of alat)
               a(1) = (   1.000000   0.000000   0.000000 )  
               a(2) = (   0.500000   0.866063   0.000000 )  
               a(3) = (   0.000000   0.000000   3.435422 )  

     reciprocal axes: (cart. coord. in units 2 pi/alat)
               b(1) = (  1.000000 -0.577325  0.000000 )  
               b(2) = (  0.000000  1.154650  0.000000 )  
               b(3) = (  0.000000  0.000000  0.291085 )  


     PseudoPot. # 1 for Al read from file:
     ./Al.pbe-n-kjpaw_psl.1.0.0.UPF
     MD5 check sum: cfc449ca30b5f3223ec38ddd88ac046d
     Pseudo is Projector augmented-wave + core cor, Zval =  3.0
     Generated using "atomic" code by A. Dal Corso  v.5.1
     Shape of augmentation charge: PSQ
     Using radial grid of 1135 points,  6 beta functions with: 
                l(1) =   0
                l(2) =   0
                l(3) =   1
                l(4) =   1
                l(5) =   2
                l(6) =   2
     Q(r) pseudized with 0 coefficients 


     PseudoPot. # 2 for C  read from file:
     ./C.pbe-n-kjpaw_psl.1.0.0.UPF
     MD5 check sum: 5d2aebdfa2cae82b50a7e79e9516da0f
     Pseudo is Projector augmented-wave + core cor, Zval =  4.0
     Generated using "atomic" code by A. Dal Corso  v.5.1
     Shape of augmentation charge: PSQ
     Using radial grid of 1073 points,  4 beta functions with: 
                l(1) =   0
                l(2) =   0
                l(3) =   1
                l(4) =   1
     Q(r) pseudized with 0 coefficients 


     PseudoPot. # 3 for H  read from file:
     ./H.pbe-rrkjus_psl.1.0.0.UPF
     MD5 check sum: f52b6d4d1c606e5624b1dc7b2218f220
     Pseudo is Ultrasoft, Zval =  1.0
     Generated using "atomic" code by A. Dal Corso  v.5.1
     Using radial grid of  929 points,  2 beta functions with: 
                l(1) =   0
                l(2) =   0
     Q(r) pseudized with 0 coefficients 


     PseudoPot. # 4 for F  read from file:
     ./f_pbe_v1.4.uspp.F.UPF
     MD5 check sum: 4c38b6a325caf53ec0e86aed9459de46
     Pseudo is Ultrasoft, Zval =  7.0
     Generated by new atomic code, or converted to UPF format
     Using radial grid of  799 points,  4 beta functions with: 
                l(1) =   0
                l(2) =   0
                l(3) =   1
                l(4) =   1
     Q(r) pseudized with  8 coefficients,  rinner =    0.950   0.950   0.950


     atomic species   valence    mass     pseudopotential
     Al                3.00    26.98154     Al( 1.00)
     C                 4.00    12.01100     C ( 1.00)
     H                 1.00     1.00800     H ( 1.00)
     F                 7.00    18.99840     F ( 1.00)

     No symmetry found



   Cartesian axes

     site n.     atom                  positions (alat units)
         1        Al     tau(   1) = (   1.0000050   0.1443405   1.3094454  )
         2        Al     tau(   2) = (   0.2500050   0.1443405   1.3094454  )
         3        Al     tau(   3) = (   0.5000050   0.1443405   1.3094454  )
         4        Al     tau(   4) = (   0.7500050   0.1443405   1.3094454  )
         5        Al     tau(   5) = (   1.1250050   0.3608468   1.3094454  )
         6        Al     tau(   6) = (   0.3750050   0.3608468   1.3094454  )
         7        Al     tau(   7) = (   0.6250050   0.3608468   1.3094454  )
         8        Al     tau(   8) = (   0.8750050   0.3608468   1.3094454  )
         9        Al     tau(   9) = (   1.2500050   0.5773532   1.3094454  )
        10        Al     tau(  10) = (   0.5000050   0.5773532   1.3094454  )
        11        Al     tau(  11) = (   0.7500050   0.5773532   1.3094454  )
        12        Al     tau(  12) = (   1.0000050   0.5773532   1.3094454  )
        13        Al     tau(  13) = (   1.3750050   0.7938595   1.3094454  )
        14        Al     tau(  14) = (   0.6250050   0.7938595   1.3094454  )
        15        Al     tau(  15) = (   0.8750050   0.7938595   1.3094454  )
        16        Al     tau(  16) = (   1.1250050   0.7938595   1.3094454  )
        17        Al     tau(  17) = (   0.0000000   0.0000000   1.5135781  )
        18        Al     tau(  18) = (   0.2500000   0.0000000   1.5135781  )
        19        Al     tau(  19) = (   0.5000000   0.0000000   1.5135781  )
        20        Al     tau(  20) = (   0.7500000   0.0000000   1.5135781  )
        21        Al     tau(  21) = (   0.1250000   0.2165063   1.5135781  )
        22        Al     tau(  22) = (   0.3750000   0.2165063   1.5135781  )
        23        Al     tau(  23) = (   0.6250000   0.2165063   1.5135781  )
        24        Al     tau(  24) = (   0.8750000   0.2165063   1.5135781  )
        25        Al     tau(  25) = (   0.2500000   0.4330127   1.5135781  )
        26        Al     tau(  26) = (   0.5000000   0.4330127   1.5135781  )
        27        Al     tau(  27) = (   0.7500000   0.4330127   1.5135781  )
        28        Al     tau(  28) = (   1.0000000   0.4330127   1.5135781  )
        29        Al     tau(  29) = (   0.3750000   0.6495190   1.5135781  )
        30        Al     tau(  30) = (   0.6250000   0.6495190   1.5135781  )
        31        Al     tau(  31) = (   0.8750000   0.6495190   1.5135781  )
        32        Al     tau(  32) = (   1.1250000   0.6495190   1.5135781  )
        33        Al     tau(  33) = (   0.1249972   0.0721523   1.7175014  )
        34        Al     tau(  34) = (   0.3749972   0.0721522   1.7175014  )
        35        Al     tau(  35) = (   0.6249971   0.0721522   1.7175014  )
        36        Al     tau(  36) = (   0.8749972   0.0721522   1.7175014  )
        37        Al     tau(  37) = (   0.2499972   0.2886710   1.7174980  )
        38        Al     tau(  38) = (   0.4999971   0.2886710   1.7174980  )
        39        Al     tau(  39) = (   0.7499972   0.2886710   1.7174980  )
        40        Al     tau(  40) = (   0.9999972   0.2886710   1.7174980  )
        41        Al     tau(  41) = (   0.3749971   0.5051820   1.7174996  )
        42        Al     tau(  42) = (   0.6249972   0.5051820   1.7174996  )
        43        Al     tau(  43) = (   0.8749972   0.5051820   1.7174996  )
        44        Al     tau(  44) = (   1.1249972   0.5051820   1.7174996  )
        45        Al     tau(  45) = (   0.4999972   0.7217016   1.7174945  )
        46        Al     tau(  46) = (   0.7499972   0.7217016   1.7174945  )
        47        Al     tau(  47) = (   0.9999972   0.7217016   1.7174945  )
        48        Al     tau(  48) = (   1.2499971   0.7217016   1.7174945  )
        49        Al     tau(  49) = (   1.0000030   0.1443275   1.9209596  )
        50        Al     tau(  50) = (   0.2500030   0.1443275   1.9209596  )
        51        Al     tau(  51) = (   0.5000030   0.1443275   1.9209596  )
        52        Al     tau(  52) = (   0.7500030   0.1443275   1.9209596  )
        53        Al     tau(  53) = (   1.1250030   0.3608446   1.9209602  )
        54        Al     tau(  54) = (   0.3750030   0.3608446   1.9209602  )
        55        Al     tau(  55) = (   0.6250030   0.3608446   1.9209603  )
        56        Al     tau(  56) = (   0.8750030   0.3608446   1.9209602  )
        57        Al     tau(  57) = (   1.2500030   0.5773545   1.9209601  )
        58        Al     tau(  58) = (   0.5000030   0.5773545   1.9209601  )
        59        Al     tau(  59) = (   0.7500030   0.5773545   1.9209601  )
        60        Al     tau(  60) = (   1.0000030   0.5773545   1.9209601  )
        61        Al     tau(  61) = (   1.3750030   0.7938744   1.9209586  )
        62        Al     tau(  62) = (   0.6250030   0.7938744   1.9209586  )
        63        Al     tau(  63) = (   0.8750030   0.7938744   1.9209586  )
        64        Al     tau(  64) = (   1.1250030   0.7938744   1.9209586  )
        65        Al     tau(  65) = (   0.0000005  -0.0000137   2.1272003  )
        66        Al     tau(  66) = (   0.2500005  -0.0000137   2.1272003  )
        67        Al     tau(  67) = (   0.5000005  -0.0000137   2.1272003  )
        68        Al     tau(  68) = (   0.7500005  -0.0000137   2.1272003  )
        69        Al     tau(  69) = (   0.1250005   0.2165047   2.1272043  )
        70        Al     tau(  70) = (   0.3750005   0.2165047   2.1272043  )
        71        Al     tau(  71) = (   0.6250005   0.2165046   2.1272043  )
        72        Al     tau(  72) = (   0.8750005   0.2165046   2.1272043  )
        73        Al     tau(  73) = (   0.2500005   0.4330145   2.1272055  )
        74        Al     tau(  74) = (   0.5000005   0.4330145   2.1272056  )
        75        Al     tau(  75) = (   0.7500005   0.4330145   2.1272056  )
        76        Al     tau(  76) = (   1.0000005   0.4330145   2.1272056  )
        77        Al     tau(  77) = (   0.3750005   0.6495315   2.1272048  )
        78        Al     tau(  78) = (   0.6250005   0.6495315   2.1272048  )
        79        Al     tau(  79) = (   0.8750005   0.6495315   2.1272048  )
        80        Al     tau(  80) = (   1.1250005   0.6495315   2.1272048  )
        81        C      tau(  81) = (   0.2871927   0.4139233   2.4962765  )
        82        C      tau(  82) = (   0.4058740   0.4307241   2.4406315  )
        83        H      tau(  83) = (   0.2198138   0.4308841   2.4304319  )
        84        H      tau(  84) = (   0.2778667   0.3241181   2.5281487  )
        85        H      tau(  85) = (   0.2757075   0.4749540   2.5691672  )
        86        C      tau(  86) = (   0.5086087   0.4107632   2.5236815  )
        87        F      tau(  87) = (   0.4147430   0.3556673   2.3454490  )
        88        H      tau(  88) = (   0.5008756   0.3223553   2.5602850  )
        89        C      tau(  89) = (   0.6321132   0.4228540   2.4762815  )
        90        F      tau(  90) = (   0.4113946   0.5433561   2.3951786  )
        91        H      tau(  91) = (   0.5000152   0.4723179   2.5968533  )
        92        F      tau(  92) = (   0.6524704   0.5327513   2.4310783  )
        93        F      tau(  93) = (   0.6545128   0.3431891   2.3885583  )
        94        H      tau(  94) = (   0.6972309   0.4079643   2.5456233  )

     number of k points=    10  Marzari-Vanderbilt smearing, width (Ry)=  0.0200
                       cart. coord. in units 2pi/alat
        k(    1) = (   0.0000000   0.0000000   0.0000000), wk =   0.1250000
        k(    2) = (   0.0000000   0.2886626   0.0000000), wk =   0.2500000
        k(    3) = (   0.0000000  -0.5773252   0.0000000), wk =   0.1250000
        k(    4) = (   0.2500000  -0.1443313   0.0000000), wk =   0.2500000
        k(    5) = (   0.2500000  -0.7216565   0.0000000), wk =   0.2500000
        k(    6) = (  -0.5000000   0.2886626   0.0000000), wk =   0.1250000
        k(    7) = (  -0.5000000   0.5773252   0.0000000), wk =   0.2500000
        k(    8) = (  -0.2500000  -0.1443313   0.0000000), wk =   0.2500000
        k(    9) = (  -0.2500000  -0.7216565   0.0000000), wk =   0.2500000
        k(   10) = (   0.5000000   0.2886626   0.0000000), wk =   0.1250000

     Dense  grid:  5359811 G-vectors     FFT dimensions: ( 160, 160, 540)

     Smooth grid:  1895543 G-vectors     FFT dimensions: ( 108, 108, 375)

     Estimated max dynamical RAM per process >       2.07 GB

     Estimated total dynamical RAM >      49.76 GB

     Atomic positions and unit cell read from directory:
     ./tmp/al_pvdf.save/
     Atomic positions from file used, from input discarded


     The initial density is read from file :
     ./tmp/al_pvdf.save/charge-density


     negative rho (up, down):  1.426E-03 0.000E+00
     Cannot read wfcs: file not found
     Starting wfcs are  358 randomized atomic wfcs
     Checking if some PAW data can be deallocated... 

     total cpu time spent up to now is      119.7 secs

     Self-consistent Calculation

     iteration #  1     ecut=    60.00 Ry     beta= 0.30
     Davidson diagonalization with overlap
     c_bands:  1 eigenvalues not converged
     c_bands:  3 eigenvalues not converged
     c_bands:  2 eigenvalues not converged
     c_bands:  3 eigenvalues not converged
     c_bands:  3 eigenvalues not converged
     c_bands:  2 eigenvalues not converged
     ethr =  1.00E-05,  avg # of iterations = 23.5

     negative rho (up, down):  1.398E-03 0.000E+00

     total cpu time spent up to now is      864.6 secs

     total energy              =   -3432.05061100 Ry
     estimated scf accuracy    <       5.67563134 Ry

     iteration #  2     ecut=    60.00 Ry     beta= 0.30
     Davidson diagonalization with overlap
     ethr =  1.96E-03,  avg # of iterations = 13.6

     negative rho (up, down):  1.053E-03 0.000E+00

     total cpu time spent up to now is     1191.9 secs

     total energy              =   -3412.25501824 Ry
     estimated scf accuracy    <    1248.33411389 Ry

     iteration #  3     ecut=    60.00 Ry     beta= 0.30
     Davidson diagonalization with overlap
     ethr =  1.96E-03,  avg # of iterations = 11.2

     negative rho (up, down):  1.076E-03 0.000E+00

     total cpu time spent up to now is     1516.5 secs

     total energy              =   -3434.59699363 Ry
     estimated scf accuracy    <       1.65660229 Ry

     iteration #  4     ecut=    60.00 Ry     beta= 0.30
     Davidson diagonalization with overlap
     ethr =  5.71E-04,  avg # of iterations =  5.9

     negative rho (up, down):  1.090E-03 0.000E+00

     total cpu time spent up to now is     1689.5 secs

     total energy              =   -3434.71407059 Ry
     estimated scf accuracy    <       0.09692981 Ry

     iteration #  5     ecut=    60.00 Ry     beta= 0.30
     Davidson diagonalization with overlap
     c_bands:  1 eigenvalues not converged
     ethr =  3.34E-05,  avg # of iterations = 15.2

     negative rho (up, down):  1.106E-03 0.000E+00

     total cpu time spent up to now is     1946.4 secs

     total energy              =   -3434.73113188 Ry
     estimated scf accuracy    <       0.17742223 Ry

     iteration #  6     ecut=    60.00 Ry     beta= 0.30
     Davidson diagonalization with overlap
     ethr =  3.34E-05,  avg # of iterations =  1.6

     negative rho (up, down):  1.131E-03 0.000E+00

     total cpu time spent up to now is     2087.5 secs

     total energy              =   -3434.73114449 Ry
     estimated scf accuracy    <       0.05881865 Ry

     iteration #  7     ecut=    60.00 Ry     beta= 0.30
     Davidson diagonalization with overlap
     ethr =  2.03E-05,  avg # of iterations =  1.3

     negative rho (up, down):  1.174E-03 0.000E+00

     total cpu time spent up to now is     2226.0 secs

     total energy              =   -3434.73249201 Ry
     estimated scf accuracy    <       0.00297827 Ry

     iteration #  8     ecut=    60.00 Ry     beta= 0.30
     Davidson diagonalization with overlap
     c_bands:  3 eigenvalues not converged
     c_bands:  3 eigenvalues not converged
     c_bands:  3 eigenvalues not converged
     ethr =  1.03E-06,  avg # of iterations = 11.9

     negative rho (up, down):  1.208E-03 0.000E+00

     total cpu time spent up to now is     2461.3 secs

     total energy              =   -3434.73313323 Ry
     estimated scf accuracy    <       0.00455159 Ry

     iteration #  9     ecut=    60.00 Ry     beta= 0.30
     Davidson diagonalization with overlap
     ethr =  1.03E-06,  avg # of iterations =  4.1

     negative rho (up, down):  1.283E-03 0.000E+00

     total cpu time spent up to now is     2608.7 secs

     total energy              =   -3434.73291759 Ry
     estimated scf accuracy    <       0.00394392 Ry

     iteration # 10     ecut=    60.00 Ry     beta= 0.30
     Davidson diagonalization with overlap
     ethr =  1.03E-06,  avg # of iterations =  2.0

     negative rho (up, down):  1.335E-03 0.000E+00

     total cpu time spent up to now is     2755.8 secs

     total energy              =   -3434.73305532 Ry
     estimated scf accuracy    <       0.00035622 Ry

     iteration # 11     ecut=    60.00 Ry     beta= 0.30
     Davidson diagonalization with overlap
     ethr =  1.23E-07,  avg # of iterations =  5.0

     negative rho (up, down):  1.365E-03 0.000E+00

     total cpu time spent up to now is     2924.2 secs

     total energy              =   -3434.73307163 Ry
     estimated scf accuracy    <       0.00009172 Ry

     iteration # 12     ecut=    60.00 Ry     beta= 0.30
     Davidson diagonalization with overlap
     ethr =  3.16E-08,  avg # of iterations =  4.2

     negative rho (up, down):  1.377E-03 0.000E+00

     total cpu time spent up to now is     3090.3 secs

     total energy              =   -3434.73308196 Ry
     estimated scf accuracy    <       0.00010456 Ry

     iteration # 13     ecut=    60.00 Ry     beta= 0.30
     Davidson diagonalization with overlap
     ethr =  3.16E-08,  avg # of iterations =  2.0

     negative rho (up, down):  1.392E-03 0.000E+00

     total cpu time spent up to now is     3237.2 secs

     total energy              =   -3434.73308866 Ry
     estimated scf accuracy    <       0.00001911 Ry

     iteration # 14     ecut=    60.00 Ry     beta= 0.30
     Davidson diagonalization with overlap
     ethr =  6.59E-09,  avg # of iterations =  4.4

     negative rho (up, down):  1.405E-03 0.000E+00

     total cpu time spent up to now is     3396.3 secs

     total energy              =   -3434.73308932 Ry
     estimated scf accuracy    <       0.00000668 Ry

     iteration # 15     ecut=    60.00 Ry     beta= 0.30
     Davidson diagonalization with overlap
     ethr =  2.30E-09,  avg # of iterations =  3.0

     negative rho (up, down):  1.412E-03 0.000E+00

     total cpu time spent up to now is     3550.5 secs

     total energy              =   -3434.73308986 Ry
     estimated scf accuracy    <       0.00000063 Ry

     iteration # 16     ecut=    60.00 Ry     beta= 0.30
     Davidson diagonalization with overlap
     ethr =  2.16E-10,  avg # of iterations =  5.7

     negative rho (up, down):  1.419E-03 0.000E+00

     total cpu time spent up to now is     3772.7 secs

     total energy              =   -3434.73309011 Ry
     estimated scf accuracy    <       0.00000114 Ry

     iteration # 17     ecut=    60.00 Ry     beta= 0.30
     Davidson diagonalization with overlap
     ethr =  2.16E-10,  avg # of iterations =  1.1

     negative rho (up, down):  1.424E-03 0.000E+00

     total cpu time spent up to now is     3917.8 secs

     total energy              =   -3434.73309009 Ry
     estimated scf accuracy    <       0.00000015 Ry

     iteration # 18     ecut=    60.00 Ry     beta= 0.30
     Davidson diagonalization with overlap
     ethr =  5.04E-11,  avg # of iterations =  5.7

     negative rho (up, down):  1.425E-03 0.000E+00

     total cpu time spent up to now is     4117.5 secs

     total energy              =   -3434.73309011 Ry
     estimated scf accuracy    <       0.00000041 Ry

     iteration # 19     ecut=    60.00 Ry     beta= 0.30
     Davidson diagonalization with overlap
     ethr =  5.04E-11,  avg # of iterations =  2.0

     negative rho (up, down):  1.426E-03 0.000E+00

     total cpu time spent up to now is     4283.3 secs

     total energy              =   -3434.73309012 Ry
     estimated scf accuracy    <       0.00000004 Ry

     iteration # 20     ecut=    60.00 Ry     beta= 0.30
     Davidson diagonalization with overlap
     ethr =  1.36E-11,  avg # of iterations =  5.6

     negative rho (up, down):  1.426E-03 0.000E+00

     total cpu time spent up to now is     4479.3 secs

     total energy              =   -3434.73309012 Ry
     estimated scf accuracy    <       0.00000002 Ry

     iteration # 21     ecut=    60.00 Ry     beta= 0.30
     Davidson diagonalization with overlap
     ethr =  6.35E-12,  avg # of iterations =  2.0

     negative rho (up, down):  1.426E-03 0.000E+00

     total cpu time spent up to now is     4651.1 secs

     End of self-consistent calculation

          k = 0.0000 0.0000 0.0000 (237007 PWs)   bands (ev):

   -27.8143 -27.5817 -26.3487 -26.1474 -16.9721 -15.3815 -13.1526 -11.8129
   -10.8039 -10.1674 -10.1231 -10.0948  -9.6841  -9.6025  -9.3141  -9.3121
    -9.3112  -9.3065  -9.3056  -9.3027  -9.0035  -8.6558  -8.6101  -8.6086
    -8.6077  -8.6042  -8.6032  -8.6001  -8.1359  -7.5299  -7.5258  -7.5253
    -7.5248  -7.5228  -7.5216  -7.5181  -7.4420  -7.0424  -6.6315  -6.3664
    -6.3661  -6.3658  -6.3655  -6.3640  -6.3638  -6.2592  -6.1902  -6.0809
    -6.0612  -6.0610  -6.0592  -6.0591  -6.0548  -5.9568  -5.7618  -5.7155
    -5.6774  -5.6765  -5.6761  -5.6755  -5.6726  -5.6721  -5.6439  -5.5428
    -5.0866  -4.9339  -4.9329  -4.9326  -4.9080  -4.9077  -4.9067  -4.6180
    -4.6164  -4.6158  -4.6152  -4.6147  -4.6131  -4.2592  -4.2580  -4.2573
    -4.2262  -4.2250  -4.2237  -4.2104  -4.1920  -4.1911  -4.1894  -4.1883
    -4.1857  -4.1677  -3.5836  -3.3523  -3.3496  -3.3477  -3.2009  -3.1969
    -3.1962  -3.1957  -3.1942  -3.1936  -3.0814  -3.0781  -3.0744  -2.1875
    -2.1858  -2.1840  -2.1823  -2.1806  -2.1698  -1.8681  -1.8646  -1.8605
    -1.5052  -1.5027  -1.5021  -1.5014  -1.4997  -1.4979  -1.4222  -1.4196
    -1.4180  -1.2050  -0.7440  -0.7432  -0.7408  -0.7402  -0.7388  -0.7374
    -0.6218  -0.6215  -0.6191  -0.6187  -0.6158  -0.6153  -0.0738  -0.0726
    -0.0699  -0.0692  -0.0674  -0.0661   0.1394   0.1444   0.1474   0.1490
     0.1513   0.1638   0.1686   0.1715   0.1728   0.2284   0.2303   0.2316
     0.2339   0.2363   0.2384   0.2391   0.2418   0.2443   0.8072   0.8102
     0.8135   0.8141   0.8159   0.8201   0.9427   0.9436   0.9444   0.9453
     0.9460   0.9484   1.1320   1.3052   1.3074   1.3113

          k = 0.0000 0.2887 0.0000 (236896 PWs)   bands (ev):

   -27.8143 -27.5817 -26.3487 -26.1474 -16.9721 -15.3815 -13.1526 -11.8129
   -10.7100 -10.1673 -10.1229 -10.0016  -9.9609  -9.6841  -9.6025  -9.5880
    -9.5875  -9.2554  -8.9105  -8.8841  -8.8834  -8.8449  -8.8445  -8.6552
    -8.4746  -8.1699  -8.1445  -8.1437  -8.1335  -7.8000  -7.7986  -7.7750
    -7.4447  -7.4353  -7.3702  -7.3699  -7.0658  -7.0643  -7.0405  -6.7014
    -6.6972  -6.6755  -6.6750  -6.6308  -6.3371  -6.3350  -6.2750  -6.2744
    -6.2741  -6.2560  -6.1846  -5.9801  -5.7623  -5.7156  -5.6071  -5.6055
    -5.6048  -5.6015  -5.5862  -5.5848  -5.5842  -5.5539  -5.5497  -5.5495
    -5.5412  -5.2412  -5.1882  -5.1878  -5.0865  -4.8667  -4.8660  -4.8240
    -4.5311  -4.5270  -4.5266  -4.5056  -4.5048  -4.4622  -4.4580  -4.1933
    -4.1652  -4.1624  -4.1174  -4.1170  -3.8273  -3.8267  -3.7414  -3.7378
    -3.4958  -3.4656  -3.4640  -3.4523  -3.4512  -3.4219  -3.3857  -3.1456
    -3.1172  -3.1163  -2.7933  -2.7186  -2.6344  -2.6328  -2.4451  -2.4403
    -2.3645  -2.3638  -2.3473  -2.3440  -2.1125  -2.1106  -2.0675  -2.0654
    -2.0247  -2.0229  -1.7515  -1.7471  -1.6723  -1.6714  -1.6631  -1.5638
    -1.5616  -1.4169  -1.1173  -1.0006  -0.9818  -0.9802  -0.9588  -0.9551
    -0.8519  -0.8512  -0.6795  -0.6782  -0.5360  -0.5338  -0.4238  -0.4029
    -0.4000  -0.3810  -0.3794  -0.1485  -0.1482  -0.1463  -0.0908  -0.0882
    -0.0866  -0.0794   0.0679   0.1557   0.1610   0.4643   0.4712   0.5644
     0.5664   0.5938   0.5962   0.7607   0.7680   0.7838   0.7877   0.9525
     0.9542   0.9564   0.9578   1.1071   1.1083   1.1457   1.1465   1.2166
     1.2777   1.2814   1.2889   1.3278   1.3333   1.4544

          k = 0.0000-0.5773 0.0000 (236880 PWs)   bands (ev):

   -27.8143 -27.5817 -26.3487 -26.1474 -16.9721 -15.3815 -13.1526 -11.8129
   -10.4318 -10.4254 -10.1672 -10.1228  -9.7240  -9.7193  -9.6846  -9.6811
    -9.6796  -9.6024  -8.9769  -8.9762  -8.6563  -8.6337  -8.6288  -8.1985
    -8.1979  -8.1972  -8.1970  -8.1357  -7.8922  -7.8908  -7.4998  -7.4995
    -7.4991  -7.4986  -7.4628  -7.4611  -7.4427  -7.1609  -7.1602  -7.0419
    -6.7680  -6.7653  -6.6326  -6.4288  -6.4262  -6.4247  -6.4233  -6.4231
    -6.4223  -6.2566  -6.1847  -6.0056  -6.0048  -5.9996  -5.9985  -5.9771
    -5.7617  -5.7167  -5.6962  -5.6959  -5.5429  -5.3176  -5.3166  -5.3119
    -5.3114  -5.2840  -5.2777  -5.0871  -4.9729  -4.9706  -4.9702  -4.9672
    -4.5528  -4.5486  -4.2656  -4.2643  -4.2613  -4.2601  -4.2576  -4.2554
    -4.1914  -3.8612  -3.8607  -3.8314  -3.8310  -3.2361  -3.2288  -3.2005
    -3.2000  -3.1580  -3.1575  -3.1563  -3.1556  -3.1498  -3.1488  -3.1221
    -3.1206  -3.1194  -3.1160  -2.8856  -2.8838  -2.8823  -2.8811  -2.5324
    -2.5275  -2.4830  -2.4814  -2.4536  -2.4518  -2.4497  -2.4480  -2.3048
    -2.3031  -2.0375  -2.0359  -1.7047  -1.7004  -1.4001  -1.3986  -1.3968
    -1.3954  -1.1608  -1.1598  -1.1578  -1.1550  -1.0660  -1.0648  -0.9823
    -0.9765  -0.8900  -0.8887  -0.8591  -0.8510  -0.7531  -0.7520  -0.7494
    -0.7482  -0.4417  -0.4399  -0.4004  -0.3985  -0.3136  -0.3093  -0.1719
    -0.1629   0.0978   0.0995   0.1008   0.1020   0.1164   0.1190   0.3269
     0.3277   0.3291   0.3300   0.7976   0.7992   0.9955   0.9982   1.0001
     1.0015   1.0231   1.0246   1.0281   1.0287   1.4632   1.4709   1.4756
     1.4783   1.4867   1.4970   1.4999   1.5020   1.5145

          k = 0.2500-0.1443 0.0000 (236890 PWs)   bands (ev):

   -27.8143 -27.5817 -26.3487 -26.1474 -16.9721 -15.3815 -13.1526 -11.8129
   -10.7100 -10.1673 -10.1229 -10.0016  -9.9609  -9.6841  -9.6026  -9.5880
    -9.5875  -9.2554  -8.9105  -8.8841  -8.8835  -8.8449  -8.8445  -8.6551
    -8.4745  -8.1691  -8.1454  -8.1435  -8.1337  -7.7999  -7.7986  -7.7749
    -7.4445  -7.4354  -7.3702  -7.3698  -7.0660  -7.0640  -7.0406  -6.7020
    -6.6984  -6.6756  -6.6751  -6.6285  -6.3362  -6.3343  -6.2750  -6.2745
    -6.2742  -6.2571  -6.1857  -5.9797  -5.7623  -5.7157  -5.6072  -5.6056
    -5.6048  -5.6014  -5.5857  -5.5852  -5.5845  -5.5538  -5.5504  -5.5498
    -5.5405  -5.2415  -5.1880  -5.1876  -5.0860  -4.8667  -4.8663  -4.8238
    -4.5309  -4.5271  -4.5269  -4.5054  -4.5046  -4.4621  -4.4584  -4.1938
    -4.1655  -4.1614  -4.1173  -4.1171  -3.8275  -3.8270  -3.7414  -3.7378
    -3.4958  -3.4655  -3.4639  -3.4520  -3.4512  -3.4219  -3.3855  -3.1463
    -3.1173  -3.1166  -2.7930  -2.7163  -2.6359  -2.6328  -2.4451  -2.4409
    -2.3646  -2.3639  -2.3471  -2.3440  -2.1132  -2.1111  -2.0696  -2.0654
    -2.0245  -2.0217  -1.7513  -1.7475  -1.6701  -1.6694  -1.6600  -1.5655
    -1.5614  -1.4163  -1.1173  -1.0006  -0.9819  -0.9797  -0.9624  -0.9550
    -0.8526  -0.8512  -0.6767  -0.6754  -0.5364  -0.5335  -0.4235  -0.4047
    -0.4003  -0.3809  -0.3791  -0.1490  -0.1484  -0.1466  -0.0914  -0.0893
    -0.0868  -0.0797   0.0691   0.1538   0.1632   0.4652   0.4703   0.5642
     0.5661   0.5926   0.5968   0.7603   0.7699   0.7793   0.7854   0.9509
     0.9540   0.9561   0.9583   1.1086   1.1094   1.1442   1.1452   1.2158
     1.2758   1.2820   1.2898   1.3254   1.3325   1.4538

          k = 0.2500-0.7217 0.0000 (236847 PWs)   bands (ev):

   -27.8143 -27.5817 -26.3487 -26.1474 -16.9721 -15.3815 -13.1526 -11.8129
   -10.5224 -10.1675 -10.1505 -10.1450 -10.1226  -9.8148  -9.6841  -9.6026
    -9.4439  -9.4391  -9.0305  -9.0296  -8.7249  -8.6551  -8.3556  -8.3519
    -8.3286  -8.3278  -8.2899  -8.1355  -7.9240  -7.9185  -7.5911  -7.4432
    -7.2527  -7.2478  -7.2468  -7.2263  -7.2216  -7.1874  -7.1861  -7.0428
    -6.8847  -6.8834  -6.8216  -6.8207  -6.6312  -6.5150  -6.4938  -6.4915
    -6.2581  -6.1885  -6.1524  -6.1486  -6.1293  -6.1286  -5.9809  -5.7874
    -5.7848  -5.7565  -5.7153  -5.5434  -5.4257  -5.4246  -5.3721  -5.0896
    -5.0661  -5.0636  -5.0601  -5.0090  -5.0081  -5.0074  -5.0035  -4.7028
    -4.7002  -4.6640  -4.6372  -4.3297  -4.3275  -4.1933  -3.9932  -3.9898
    -3.9877  -3.9535  -3.9336  -3.9191  -3.9164  -3.6458  -3.6440  -3.5858
    -3.5802  -3.3201  -3.2963  -3.2951  -3.2649  -3.2058  -3.0864  -2.9725
    -2.9642  -2.9226  -2.9176  -2.8679  -2.8652  -2.8131  -2.5524  -2.5495
    -2.5334  -2.5148  -2.2584  -2.2243  -2.2227  -2.1212  -2.1173  -2.0794
    -2.0756  -1.9218  -1.9185  -1.9116  -1.8308  -1.6047  -1.5429  -1.5385
    -1.4638  -1.4564  -1.4397  -1.4361  -1.2350  -1.2334  -1.1588  -1.0361
    -1.0312  -0.9421  -0.7208  -0.7154  -0.6978  -0.6414  -0.6400  -0.6028
    -0.6007  -0.5983  -0.5884  -0.5138  -0.3613  -0.3594  -0.0571  -0.0538
    -0.0095  -0.0081   0.0458   0.0489   0.2512   0.2547   0.3721   0.3742
     0.3854   0.3945   0.4012   0.4565   0.6199   0.6248   0.7082   0.7098
     0.7272   0.8941   1.0420   1.0437   1.1089   1.1686   1.1778   1.3883
     1.4036   1.6354   1.6446   1.6468   1.7102   1.7374

          k =-0.5000 0.2887 0.0000 (236880 PWs)   bands (ev):

   -27.8143 -27.5817 -26.3487 -26.1474 -16.9721 -15.3815 -13.1525 -11.8129
   -10.4313 -10.4259 -10.1673 -10.1229  -9.7237  -9.7197  -9.6843  -9.6811
    -9.6799  -9.6025  -8.9769  -8.9763  -8.6564  -8.6332  -8.6292  -8.1983
    -8.1981  -8.1971  -8.1970  -8.1358  -7.8921  -7.8907  -7.5000  -7.4993
    -7.4991  -7.4985  -7.4624  -7.4611  -7.4427  -7.1609  -7.1603  -7.0421
    -6.7677  -6.7656  -6.6315  -6.4282  -6.4261  -6.4246  -6.4234  -6.4231
    -6.4222  -6.2573  -6.1858  -6.0053  -6.0045  -6.0002  -5.9994  -5.9766
    -5.7618  -5.7156  -5.6968  -5.6954  -5.5435  -5.3173  -5.3167  -5.3121
    -5.3120  -5.2842  -5.2778  -5.0878  -4.9727  -4.9711  -4.9687  -4.9671
    -4.5529  -4.5489  -4.2656  -4.2644  -4.2617  -4.2600  -4.2576  -4.2553
    -4.1916  -3.8611  -3.8606  -3.8311  -3.8309  -3.2364  -3.2281  -3.2012
    -3.2008  -3.1576  -3.1573  -3.1562  -3.1558  -3.1485  -3.1476  -3.1220
    -3.1204  -3.1196  -3.1158  -2.8852  -2.8834  -2.8823  -2.8810  -2.5323
    -2.5280  -2.4838  -2.4823  -2.4553  -2.4534  -2.4499  -2.4485  -2.3068
    -2.3051  -2.0341  -2.0324  -1.7021  -1.6984  -1.4028  -1.4016  -1.3967
    -1.3953  -1.1609  -1.1594  -1.1584  -1.1547  -1.0662  -1.0650  -0.9790
    -0.9734  -0.8864  -0.8850  -0.8606  -0.8493  -0.7531  -0.7516  -0.7497
    -0.7490  -0.4431  -0.4412  -0.4013  -0.3990  -0.3133  -0.3102  -0.1712
    -0.1639   0.0981   0.1000   0.1006   0.1022   0.1160   0.1181   0.3259
     0.3271   0.3289   0.3292   0.7931   0.7947   0.9949   0.9966   1.0007
     1.0027   1.0217   1.0229   1.0271   1.0282   1.4567   1.4750   1.4761
     1.4812   1.4862   1.4967   1.5000   1.5018   1.5148

          k =-0.5000 0.5773 0.0000 (236845 PWs)   bands (ev):

   -27.8143 -27.5817 -26.3487 -26.1474 -16.9721 -15.3815 -13.1525 -11.8129
   -10.5223 -10.1676 -10.1509 -10.1445 -10.1227  -9.8148  -9.6841  -9.6026
    -9.4442  -9.4389  -9.0307  -9.0296  -8.7249  -8.6550  -8.3557  -8.3519
    -8.3286  -8.3280  -8.2897  -8.1354  -7.9244  -7.9179  -7.5909  -7.4432
    -7.2529  -7.2476  -7.2467  -7.2264  -7.2213  -7.1878  -7.1861  -7.0428
    -6.8846  -6.8834  -6.8216  -6.8206  -6.6314  -6.5145  -6.4943  -6.4915
    -6.2585  -6.1895  -6.1526  -6.1464  -6.1290  -6.1285  -5.9816  -5.7884
    -5.7841  -5.7566  -5.7151  -5.5437  -5.4256  -5.4244  -5.3722  -5.0921
    -5.0664  -5.0639  -5.0569  -5.0092  -5.0086  -5.0075  -5.0030  -4.7029
    -4.6996  -4.6641  -4.6375  -4.3301  -4.3272  -4.1931  -3.9926  -3.9902
    -3.9878  -3.9548  -3.9333  -3.9195  -3.9164  -3.6460  -3.6439  -3.5862
    -3.5795  -3.3200  -3.2963  -3.2951  -3.2646  -3.2056  -3.0845  -2.9720
    -2.9647  -2.9228  -2.9172  -2.8679  -2.8651  -2.8165  -2.5525  -2.5503
    -2.5333  -2.5153  -2.2580  -2.2234  -2.2218  -2.1197  -2.1172  -2.0776
    -2.0756  -1.9217  -1.9191  -1.9112  -1.8320  -1.6083  -1.5406  -1.5385
    -1.4604  -1.4563  -1.4423  -1.4381  -1.2341  -1.2318  -1.1574  -1.0347
    -1.0313  -0.9420  -0.7242  -0.7185  -0.6996  -0.6412  -0.6400  -0.6013
    -0.5996  -0.5978  -0.5896  -0.5113  -0.3609  -0.3590  -0.0573  -0.0529
    -0.0082  -0.0069   0.0457   0.0492   0.2512   0.2535   0.3725   0.3753
     0.3832   0.3953   0.4003   0.4574   0.6174   0.6220   0.7081   0.7101
     0.7228   0.8942   1.0423   1.0438   1.1116   1.1680   1.1744   1.3869
     1.4029   1.6365   1.6438   1.6474   1.7175   1.7333

          k =-0.2500-0.1443 0.0000 (236890 PWs)   bands (ev):

   -27.8143 -27.5817 -26.3487 -26.1474 -16.9721 -15.3815 -13.1526 -11.8129
   -10.7100 -10.1673 -10.1229 -10.0016  -9.9609  -9.6841  -9.6027  -9.5879
    -9.5875  -9.2554  -8.9105  -8.8841  -8.8835  -8.8448  -8.8446  -8.6552
    -8.4745  -8.1693  -8.1454  -8.1435  -8.1335  -7.7999  -7.7986  -7.7749
    -7.4444  -7.4355  -7.3701  -7.3698  -7.0658  -7.0644  -7.0403  -6.7020
    -6.6984  -6.6757  -6.6750  -6.6286  -6.3365  -6.3342  -6.2750  -6.2745
    -6.2742  -6.2566  -6.1858  -5.9801  -5.7620  -5.7157  -5.6072  -5.6056
    -5.6050  -5.6015  -5.5857  -5.5850  -5.5847  -5.5537  -5.5504  -5.5497
    -5.5405  -5.2416  -5.1880  -5.1877  -5.0859  -4.8666  -4.8664  -4.8238
    -4.5310  -4.5272  -4.5268  -4.5054  -4.5048  -4.4624  -4.4581  -4.1937
    -4.1654  -4.1616  -4.1171  -4.1169  -3.8275  -3.8270  -3.7415  -3.7377
    -3.4958  -3.4656  -3.4641  -3.4514  -3.4512  -3.4224  -3.3856  -3.1475
    -3.1171  -3.1166  -2.7929  -2.7140  -2.6359  -2.6344  -2.4455  -2.4407
    -2.3651  -2.3645  -2.3472  -2.3439  -2.1142  -2.1122  -2.0696  -2.0675
    -2.0226  -2.0217  -1.7516  -1.7474  -1.6678  -1.6671  -1.6570  -1.5653
    -1.5634  -1.4157  -1.1172  -1.0012  -0.9805  -0.9793  -0.9624  -0.9588
    -0.8526  -0.8516  -0.6734  -0.6724  -0.5361  -0.5340  -0.4236  -0.4052
    -0.4022  -0.3799  -0.3789  -0.1493  -0.1487  -0.1474  -0.0932  -0.0895
    -0.0865  -0.0794   0.0697   0.1562   0.1610   0.4646   0.4709   0.5642
     0.5666   0.5935   0.5955   0.7594   0.7716   0.7764   0.7799   0.9510
     0.9528   0.9568   0.9574   1.1095   1.1104   1.1427   1.1430   1.2159
     1.2768   1.2800   1.2891   1.3247   1.3308   1.4542

          k =-0.2500-0.7217 0.0000 (236847 PWs)   bands (ev):

   -27.8143 -27.5817 -26.3487 -26.1474 -16.9721 -15.3815 -13.1526 -11.8129
   -10.5224 -10.1675 -10.1502 -10.1452 -10.1227  -9.8148  -9.6840  -9.6026
    -9.4436  -9.4394  -9.0303  -9.0298  -8.7248  -8.6551  -8.3554  -8.3522
    -8.3284  -8.3280  -8.2899  -8.1355  -7.9238  -7.9188  -7.5911  -7.4432
    -7.2529  -7.2477  -7.2467  -7.2260  -7.2219  -7.1874  -7.1861  -7.0428
    -6.8851  -6.8830  -6.8215  -6.8209  -6.6311  -6.5149  -6.4943  -6.4910
    -6.2583  -6.1880  -6.1523  -6.1486  -6.1293  -6.1286  -5.9820  -5.7861
    -5.7831  -5.7588  -5.7153  -5.5434  -5.4261  -5.4242  -5.3721  -5.0891
    -5.0659  -5.0638  -5.0606  -5.0090  -5.0077  -5.0074  -5.0038  -4.7028
    -4.7002  -4.6643  -4.6373  -4.3301  -4.3270  -4.1934  -3.9943  -3.9899
    -3.9877  -3.9524  -3.9335  -3.9187  -3.9167  -3.6453  -3.6443  -3.5854
    -3.5803  -3.3201  -3.2964  -3.2951  -3.2647  -3.2057  -3.0891  -2.9720
    -2.9648  -2.9218  -2.9176  -2.8675  -2.8653  -2.8093  -2.5506  -2.5496
    -2.5337  -2.5145  -2.2585  -2.2257  -2.2240  -2.1211  -2.1191  -2.0794
    -2.0776  -1.9213  -1.9187  -1.9123  -1.8296  -1.6008  -1.5429  -1.5406
    -1.4638  -1.4600  -1.4373  -1.4341  -1.2369  -1.2343  -1.1613  -1.0362
    -1.0323  -0.9422  -0.7164  -0.7134  -0.6959  -0.6407  -0.6399  -0.6031
    -0.6012  -0.5981  -0.5897  -0.5165  -0.3612  -0.3594  -0.0589  -0.0540
    -0.0109  -0.0097   0.0455   0.0497   0.2526   0.2549   0.3705   0.3728
     0.3860   0.3957   0.4008   0.4551   0.6235   0.6273   0.7089   0.7098
     0.7325   0.8941   1.0419   1.0440   1.1052   1.1721   1.1786   1.3882
     1.4053   1.6388   1.6414   1.6459   1.7101   1.7390

          k = 0.5000 0.2887 0.0000 (236880 PWs)   bands (ev):

   -27.8143 -27.5817 -26.3487 -26.1474 -16.9721 -15.3815 -13.1525 -11.8129
   -10.4310 -10.4262 -10.1673 -10.1229  -9.7234  -9.7197  -9.6854  -9.6811
    -9.6791  -9.6025  -8.9769  -8.9763  -8.6565  -8.6334  -8.6289  -8.1982
    -8.1979  -8.1974  -8.1971  -8.1358  -7.8921  -7.8907  -7.4994  -7.4994
    -7.4993  -7.4987  -7.4624  -7.4611  -7.4427  -7.1609  -7.1602  -7.0421
    -6.7682  -6.7651  -6.6316  -6.4283  -6.4263  -6.4242  -6.4234  -6.4230
    -6.4223  -6.2571  -6.1858  -6.0049  -6.0044  -5.9999  -5.9998  -5.9776
    -5.7612  -5.7158  -5.6972  -5.6950  -5.5435  -5.3167  -5.3167  -5.3125
    -5.3121  -5.2837  -5.2784  -5.0877  -4.9721  -4.9716  -4.9687  -4.9672
    -4.5533  -4.5487  -4.2648  -4.2646  -4.2613  -4.2611  -4.2575  -4.2553
    -4.1916  -3.8613  -3.8610  -3.8312  -3.8311  -3.2358  -3.2286  -3.2022
    -3.2020  -3.1574  -3.1570  -3.1558  -3.1557  -3.1473  -3.1466  -3.1216
    -3.1211  -3.1189  -3.1160  -2.8843  -2.8822  -2.8820  -2.8809  -2.5326
    -2.5279  -2.4853  -2.4836  -2.4560  -2.4539  -2.4518  -2.4502  -2.3097
    -2.3080  -2.0300  -2.0283  -1.6996  -1.6964  -1.4029  -1.4017  -1.3995
    -1.3985  -1.1609  -1.1596  -1.1580  -1.1551  -1.0660  -1.0646  -0.9747
    -0.9715  -0.8820  -0.8807  -0.8593  -0.8504  -0.7519  -0.7516  -0.7501
    -0.7484  -0.4444  -0.4427  -0.4023  -0.4003  -0.3150  -0.3104  -0.1720
    -0.1633   0.0995   0.0996   0.1012   0.1020   0.1144   0.1167   0.3257
     0.3271   0.3285   0.3287   0.7881   0.7897   0.9960   0.9982   0.9992
     1.0029   1.0215   1.0218   1.0248   1.0278   1.4564   1.4755   1.4782
     1.4796   1.4853   1.4974   1.4994   1.5022   1.5159

     the Fermi energy is     0.0085 ev

!    total energy              =   -3434.73309012 Ry
     estimated scf accuracy    <          1.4E-09 Ry
     smearing contrib. (-TS)   =      -0.00790962 Ry
     internal energy E=F+TS    =   -3434.72518050 Ry

     The total energy is F=E-TS. E is the sum of the following terms:
     one-electron contribution =  -11768.27420538 Ry
     hartree contribution      =    5956.86640094 Ry
     xc contribution           =    -264.05351639 Ry
     ewald contribution        =    5439.60590279 Ry
     one-center paw contrib.   =   -2798.86976248 Ry

     convergence has been achieved in  21 iterations

     negative rho (up, down):  1.426E-03 0.000E+00

     Forces acting on atoms (cartesian axes, Ry/au):

     atom    1 type  1   force =    -0.00006265   -0.00006670    0.00001298
     atom    2 type  1   force =     0.00015678    0.00002981    0.00058438
     atom    3 type  1   force =    -0.00020365    0.00006818    0.00066696
     atom    4 type  1   force =    -0.00000834   -0.00005625    0.00030324
     atom    5 type  1   force =     0.00013330    0.00010793    0.00051020
     atom    6 type  1   force =     0.00000709    0.00002788    0.00129758
     atom    7 type  1   force =    -0.00020882    0.00011802    0.00111385
     atom    8 type  1   force =    -0.00005037   -0.00008074    0.00029084
     atom    9 type  1   force =    -0.00004726   -0.00029224    0.00058402
     atom   10 type  1   force =    -0.00001198   -0.00030552    0.00093908
     atom   11 type  1   force =    -0.00009324   -0.00012751    0.00027960
     atom   12 type  1   force =     0.00002674   -0.00010727   -0.00007526
     atom   13 type  1   force =    -0.00002650   -0.00001162    0.00020277
     atom   14 type  1   force =    -0.00007468   -0.00002699    0.00015052
     atom   15 type  1   force =    -0.00001243    0.00003319   -0.00002183
     atom   16 type  1   force =     0.00001011   -0.00000932   -0.00004234
     atom   17 type  1   force =     0.00008418   -0.00018621    0.00076698
     atom   18 type  1   force =     0.00009725   -0.00005109    0.00022316
     atom   19 type  1   force =    -0.00011685   -0.00006435   -0.00001815
     atom   20 type  1   force =    -0.00020283   -0.00011340    0.00051020
     atom   21 type  1   force =    -0.00011442   -0.00007156    0.00043933
     atom   22 type  1   force =    -0.00004351   -0.00014446    0.00076273
     atom   23 type  1   force =     0.00015486   -0.00019442    0.00056572
     atom   24 type  1   force =    -0.00007843    0.00007603    0.00068240
     atom   25 type  1   force =    -0.00013975    0.00001922    0.00076121
     atom   26 type  1   force =     0.00004466    0.00003279    0.00112992
     atom   27 type  1   force =    -0.00005346    0.00000522    0.00041141
     atom   28 type  1   force =     0.00001912    0.00002731    0.00015858
     atom   29 type  1   force =    -0.00005783    0.00017579    0.00037251
     atom   30 type  1   force =    -0.00001024   -0.00006413    0.00024698
     atom   31 type  1   force =     0.00001219   -0.00004544   -0.00003811
     atom   32 type  1   force =    -0.00009613   -0.00012706   -0.00009035
     atom   33 type  1   force =     0.00021513    0.00007709   -0.00003821
     atom   34 type  1   force =     0.00008702    0.00005332   -0.00035939
     atom   35 type  1   force =    -0.00030509   -0.00001335   -0.00022894
     atom   36 type  1   force =     0.00001319    0.00003263   -0.00039071
     atom   37 type  1   force =     0.00055453    0.00029911   -0.00053748
     atom   38 type  1   force =    -0.00022150    0.00014014   -0.00106955
     atom   39 type  1   force =    -0.00044627    0.00032228   -0.00015215
     atom   40 type  1   force =     0.00016185    0.00016297   -0.00004631
     atom   41 type  1   force =    -0.00006932   -0.00033426   -0.00101021
     atom   42 type  1   force =    -0.00010992   -0.00006155   -0.00063582
     atom   43 type  1   force =     0.00002382    0.00003849   -0.00051792
     atom   44 type  1   force =     0.00002129    0.00002300   -0.00042768
     atom   45 type  1   force =     0.00007415   -0.00058586   -0.00003334
     atom   46 type  1   force =     0.00009957   -0.00004705   -0.00051120
     atom   47 type  1   force =    -0.00004494   -0.00004790   -0.00047324
     atom   48 type  1   force =    -0.00015366   -0.00025363   -0.00034238
     atom   49 type  1   force =     0.00001919    0.00014900    0.00041317
     atom   50 type  1   force =     0.00039046    0.00035583   -0.00008534
     atom   51 type  1   force =    -0.00016753    0.00042608   -0.00018706
     atom   52 type  1   force =    -0.00023316    0.00025404    0.00000196
     atom   53 type  1   force =     0.00051150    0.00023313   -0.00006266
     atom   54 type  1   force =     0.00020206    0.00011360   -0.00004358
     atom   55 type  1   force =    -0.00040368    0.00023339   -0.00011039
     atom   56 type  1   force =    -0.00021770    0.00016745    0.00020414
     atom   57 type  1   force =     0.00020184   -0.00038151   -0.00024046
     atom   58 type  1   force =    -0.00005357   -0.00054277   -0.00004668
     atom   59 type  1   force =    -0.00015567   -0.00018249   -0.00012926
     atom   60 type  1   force =     0.00013197   -0.00010806    0.00018062
     atom   61 type  1   force =     0.00003536   -0.00023241    0.00008631
     atom   62 type  1   force =     0.00002000   -0.00020686    0.00028042
     atom   63 type  1   force =    -0.00001422    0.00015463    0.00020588
     atom   64 type  1   force =     0.00011811    0.00010168    0.00030985
     atom   65 type  1   force =    -0.00006884    0.00019062   -0.00006666
     atom   66 type  1   force =    -0.00001840   -0.00019053   -0.00032490
     atom   67 type  1   force =     0.00004529   -0.00041982   -0.00049358
     atom   68 type  1   force =     0.00009774    0.00010734   -0.00013658
     atom   69 type  1   force =    -0.00001435    0.00002339   -0.00035236
     atom   70 type  1   force =     0.00003042    0.00016777   -0.00084628
     atom   71 type  1   force =     0.00001749    0.00005116   -0.00090359
     atom   72 type  1   force =     0.00011014   -0.00002210   -0.00020840
     atom   73 type  1   force =     0.00014325    0.00001281   -0.00080357
     atom   74 type  1   force =    -0.00016463   -0.00020077   -0.00117690
     atom   75 type  1   force =     0.00028054    0.00011418   -0.00084493
     atom   76 type  1   force =    -0.00011954    0.00022809   -0.00031947
     atom   77 type  1   force =    -0.00003311    0.00010578   -0.00084445
     atom   78 type  1   force =     0.00030549    0.00034409   -0.00070354
     atom   79 type  1   force =     0.00018246    0.00015675   -0.00031881
     atom   80 type  1   force =    -0.00022344    0.00027858   -0.00049636
     atom   81 type  2   force =    -0.00041218   -0.00015317   -0.00030643
     atom   82 type  2   force =     0.00046323    0.00010158   -0.00091869
     atom   83 type  3   force =    -0.00051217    0.00000634   -0.00008726
     atom   84 type  3   force =     0.00012871   -0.00084997    0.00077868
     atom   85 type  3   force =     0.00137051   -0.00037539    0.00006983
     atom   86 type  2   force =     0.00096937   -0.00078914    0.00016287
     atom   87 type  4   force =    -0.00098163    0.00140584    0.00057664
     atom   88 type  3   force =    -0.00070953   -0.00047242    0.00070499
     atom   89 type  2   force =     0.00149434    0.00091723    0.00089772
     atom   90 type  4   force =    -0.00058461    0.00068503   -0.00119369
     atom   91 type  3   force =     0.00017133   -0.00010973   -0.00120743
     atom   92 type  4   force =    -0.00088039   -0.00033368   -0.00224479
     atom   93 type  4   force =    -0.00136146    0.00173178   -0.00024756
     atom   94 type  3   force =     0.00095624   -0.00162684    0.00417198

     Total force =     0.008797     Total SCF correction =     0.000058


     Computing stress (Cartesian axis) and pressure


     negative rho (up, down):  1.426E-03 0.000E+00
          total   stress  (Ry/bohr**3)                   (kbar)     P=       -7.35
  -0.00007241   0.00000021   0.00000088          -10.65        0.03        0.13
   0.00000021  -0.00007280   0.00000031            0.03      -10.71        0.05
   0.00000088   0.00000031  -0.00000473            0.13        0.05       -0.70

     Energy error            =      1.3E-04 Ry
     Gradient error          =      4.2E-03 Ry/Bohr

     number of scf cycles    =  36
     number of bfgs steps    =  35

     energy             old  =   -3434.7329612889 Ry
     energy             new  =   -3434.7330901219 Ry

     CASE: energy            _new < energy            _old

     new trust radius        =       0.0356059716 bohr
     new conv_thr            =       0.0000000001 Ry


ATOMIC_POSITIONS (angstrom)
Al              11.4556209661        1.6532708999       14.8185640461
Al               2.8630424137        1.6510439172       14.8117746526
Al               5.7285526655        1.6501658509       14.8105595016
Al               8.5909152172        1.6522639763       14.8147782380
Al              12.8854248614        4.1334045561       14.8124466979
Al               4.2948745107        4.1321981008       14.7983050855
Al               7.1617706750        4.1322379040       14.8016314113
Al              10.0240377542        4.1348090574       14.8172324363
Al              14.3178320741        6.6151456389       14.8136176121
Al               5.7282871541        6.6156255982       14.8054843603
Al               8.5926061542        6.6142950303       14.8206562006
Al              11.4549906684        6.6142279971       14.8297230264
Al              15.7502393902        9.0928863506       14.8171226257
Al               7.1608906419        9.0928006829       14.8190675602
Al              10.0237220657        9.0923446785       14.8285308005
Al              12.8860963367        9.0924423607       14.8265291794
Al              -0.0025137340       -0.0032061003       17.1817597250
Al               2.8616267969       -0.0024296769       17.1894499111
Al               5.7268492373       -0.0008124684       17.1938067239
Al               8.5906802409       -0.0025765910       17.1863183359
Al               1.4324090189        2.4783865799       17.1821530245
Al               4.2946312622        2.4793352158       17.1814437965
Al               7.1554571508        2.4796448998       17.1816390011
Al              10.0207474936        2.4770567011       17.1820287648
Al               2.8646873544        4.9560477012       17.1824238503
Al               5.7252607377        4.9558352446       17.1782096446
Al               8.5877554090        4.9559564108       17.1862535918
Al              11.4541332296        4.9565855825       17.1905516435
Al               4.2950894784        7.4337833867       17.1846550169
Al               7.1562101476        7.4355734348       17.1877583504
Al              10.0205650024        7.4368773149       17.1974753549
Al              12.8878308980        7.4367647220       17.1954647223
Al               1.4262480735        0.8191426475       19.5293297290
Al               4.2907953223        0.8221832778       19.5371366670
Al               7.1570543970        0.8214696026       19.5348985538
Al              10.0182252997        0.8190669291       19.5317555299
Al               2.8566488420        3.2982692025       19.5360394927
Al               5.7246381381        3.2992124550       19.5399482440
Al               8.5886270367        3.2972831405       19.5324794811
Al              11.4498255238        3.2983814463       19.5301558075
Al               4.2925903307        5.7808769795       19.5401387679
Al               7.1540807182        5.7785236932       19.5390003020
Al              10.0172539433        5.7780295222       19.5386711834
Al              12.8850696492        5.7776244190       19.5391017890
Al               5.7224411481        8.2628884524       19.5311690156
Al               8.5847489253        8.2595555103       19.5377769230
Al              11.4515283133        8.2605529139       19.5381366252
Al              14.3167315288        8.2608021464       19.5358559239
Al              11.4481255754        1.6409121690       21.8742396317
Al               2.8549733936        1.6405976503       21.8816146760
Al               5.7224280620        1.6404687786       21.8858006743
Al               8.5843997728        1.6409992285       21.8817053590
Al              12.8770991291        4.1203570317       21.8830594490
Al               4.2882376458        4.1216087056       21.8810003906
Al               7.1554075979        4.1205102420       21.8850177441
Al              10.0159298091        4.1204342440       21.8804471643
Al              14.3113007103        6.6046719069       21.8864100109
Al               5.7210944043        6.6060231028       21.8839604503
Al               8.5831425225        6.6021067003       21.8863672969
Al              11.4470663057        6.6018624001       21.8817437069
Al              15.7436468208        9.0822244442       21.8800488567
Al               7.1520180588        9.0823778613       21.8786948003
Al              10.0158855111        9.0823762765       21.8803840327
Al              12.8792723691        9.0822123896       21.8799847357
Al              -0.0083811663       -0.0171859339       24.2458576383
Al               2.8544224319       -0.0147516905       24.2511483392
Al               5.7184688448       -0.0123146792       24.2546120284
Al               8.5812576783       -0.0166072851       24.2501037303
Al               1.4219034534        2.4639004122       24.2513750224
Al               4.2859106654        2.4645101825       24.2545116228
Al               7.1500928644        2.4652944679       24.2628369464
Al              10.0131003932        2.4642455113       24.2488985804
Al               2.8532494079        4.9445440773       24.2516173300
Al               5.7192163631        4.9461879740       24.2558551407
Al               8.5803998998        4.9435424853       24.2620311755
Al              11.4451753636        4.9429382241       24.2533649686
Al               4.2865193477        7.4246624316       24.2619178969
Al               7.1478752719        7.4236795681       24.2616106137
Al              10.0120642206        7.4246196009       24.2525567647
Al              12.8783216529        7.4242414860       24.2550787358
C                3.3046701830        4.7660301060       29.2714266196
C                4.7072874064        4.9828464357       28.7496614747
H                2.5998627621        4.9289274214       28.4476010212
H                3.1896320016        3.7410709649       29.6403714972
H                3.0759667873        5.4702387421       30.0806321006
C                5.8208920533        4.7993435684       29.7792985678
F                4.9205405645        4.1125196609       27.6803487577
H                5.6995917258        3.8140484697       30.2494514773
C                7.2619684477        4.8801528669       29.2932817775
F                4.7830119860        6.2676107898       28.2193968342
H                5.6856762380        5.5552216964       30.5666620934
F                7.5164233804        6.0443217632       28.5970395472
F                7.5804410977        3.8187498309       28.4653575087
H                7.9718600728        4.8535433946       30.1332314124



     Writing config-only to output data dir ./tmp/al_pvdf.save/ :
     XML data file
     NEW-OLD atomic charge density approx. for the potential

     negative rho (up, down):  1.389E-03 0.000E+00

     total cpu time spent up to now is     4934.2 secs

     Self-consistent Calculation

     iteration #  1     ecut=    60.00 Ry     beta= 0.30
     Davidson diagonalization with overlap
     ethr =  1.00E-06,  avg # of iterations =  5.0

     negative rho (up, down):  1.397E-03 0.000E+00

     total cpu time spent up to now is     5175.2 secs

     total energy              =   -3434.73311761 Ry
     estimated scf accuracy    <       0.00081576 Ry

     iteration #  2     ecut=    60.00 Ry     beta= 0.30
     Davidson diagonalization with overlap
     ethr =  2.81E-07,  avg # of iterations =  3.0

     negative rho (up, down):  1.405E-03 0.000E+00

     total cpu time spent up to now is     5351.2 secs

     total energy              =   -3434.73286549 Ry
     estimated scf accuracy    <       0.00836098 Ry

     iteration #  3     ecut=    60.00 Ry     beta= 0.30
     Davidson diagonalization with overlap
     ethr =  2.81E-07,  avg # of iterations =  5.5

     negative rho (up, down):  1.410E-03 0.000E+00

     total cpu time spent up to now is     5528.8 secs

     total energy              =   -3434.73309393 Ry
     estimated scf accuracy    <       0.00329983 Ry

     iteration #  4     ecut=    60.00 Ry     beta= 0.30
     Davidson diagonalization with overlap
     ethr =  2.81E-07,  avg # of iterations =  2.0

     negative rho (up, down):  1.414E-03 0.000E+00

     total cpu time spent up to now is     5683.4 secs

     total energy              =   -3434.73312617 Ry
     estimated scf accuracy    <       0.00059325 Ry

     iteration #  5     ecut=    60.00 Ry     beta= 0.30
     Davidson diagonalization with overlap
     ethr =  2.05E-07,  avg # of iterations =  2.0

     negative rho (up, down):  1.418E-03 0.000E+00

     total cpu time spent up to now is     5836.6 secs

     total energy              =   -3434.73316954 Ry
     estimated scf accuracy    <       0.00010140 Ry

     iteration #  6     ecut=    60.00 Ry     beta= 0.30
     Davidson diagonalization with overlap
     ethr =  3.50E-08,  avg # of iterations =  2.3

     negative rho (up, down):  1.421E-03 0.000E+00

     total cpu time spent up to now is     5997.2 secs

     total energy              =   -3434.73318217 Ry
     estimated scf accuracy    <       0.00002178 Ry

     iteration #  7     ecut=    60.00 Ry     beta= 0.30
     Davidson diagonalization with overlap
     ethr =  7.51E-09,  avg # of iterations =  4.7

     negative rho (up, down):  1.423E-03 0.000E+00

     total cpu time spent up to now is     6166.4 secs

     total energy              =   -3434.73318324 Ry
     estimated scf accuracy    <       0.00000559 Ry

     iteration #  8     ecut=    60.00 Ry     beta= 0.30
     Davidson diagonalization with overlap
     ethr =  1.93E-09,  avg # of iterations =  4.9

     negative rho (up, down):  1.424E-03 0.000E+00

     total cpu time spent up to now is     6354.6 secs

     total energy              =   -3434.73318429 Ry
     estimated scf accuracy    <       0.00000211 Ry

     iteration #  9     ecut=    60.00 Ry     beta= 0.30
     Davidson diagonalization with overlap
     ethr =  7.26E-10,  avg # of iterations =  2.4

     negative rho (up, down):  1.425E-03 0.000E+00

     total cpu time spent up to now is     6523.9 secs

     total energy              =   -3434.73318431 Ry
     estimated scf accuracy    <       0.00000096 Ry

     iteration # 10     ecut=    60.00 Ry     beta= 0.30
     Davidson diagonalization with overlap
     ethr =  3.31E-10,  avg # of iterations =  4.7

     negative rho (up, down):  1.425E-03 0.000E+00

     total cpu time spent up to now is     6712.4 secs

     total energy              =   -3434.73318450 Ry
     estimated scf accuracy    <       0.00000041 Ry

     iteration # 11     ecut=    60.00 Ry     beta= 0.30
     Davidson diagonalization with overlap
     ethr =  1.41E-10,  avg # of iterations =  2.0

     negative rho (up, down):  1.426E-03 0.000E+00

     total cpu time spent up to now is     6869.2 secs

     total energy              =   -3434.73318450 Ry
     estimated scf accuracy    <       0.00000009 Ry

     iteration # 12     ecut=    60.00 Ry     beta= 0.30
     Davidson diagonalization with overlap
     ethr =  3.12E-11,  avg # of iterations =  5.1

     negative rho (up, down):  1.426E-03 0.000E+00

     total cpu time spent up to now is     7093.5 secs

     total energy              =   -3434.73318452 Ry
     estimated scf accuracy    <       0.00000016 Ry

     iteration # 13     ecut=    60.00 Ry     beta= 0.30
     Davidson diagonalization with overlap
     ethr =  3.12E-11,  avg # of iterations =  2.0

     negative rho (up, down):  1.426E-03 0.000E+00

     total cpu time spent up to now is     7261.9 secs

     total energy              =   -3434.73318453 Ry
     estimated scf accuracy    <       0.00000003 Ry

     iteration # 14     ecut=    60.00 Ry     beta= 0.30
     Davidson diagonalization with overlap
     ethr =  1.06E-11,  avg # of iterations =  4.4

     negative rho (up, down):  1.426E-03 0.000E+00

     total cpu time spent up to now is     7441.7 secs

     total energy              =   -3434.73318453 Ry
     estimated scf accuracy    <       0.00000009 Ry

     iteration # 15     ecut=    60.00 Ry     beta= 0.30
     Davidson diagonalization with overlap
     ethr =  1.06E-11,  avg # of iterations =  1.8

     negative rho (up, down):  1.426E-03 0.000E+00

     total cpu time spent up to now is     7599.6 secs

     total energy              =   -3434.73318453 Ry
     estimated scf accuracy    <          6.7E-09 Ry

     iteration # 16     ecut=    60.00 Ry     beta= 0.30
     Davidson diagonalization with overlap
     ethr =  2.32E-12,  avg # of iterations =  2.0

     negative rho (up, down):  1.426E-03 0.000E+00

     total cpu time spent up to now is     7760.4 secs

     total energy              =   -3434.73318453 Ry
     estimated scf accuracy    <          2.4E-09 Ry

     iteration # 17     ecut=    60.00 Ry     beta= 0.30
     Davidson diagonalization with overlap
     ethr =  8.35E-13,  avg # of iterations =  4.4

     negative rho (up, down):  1.426E-03 0.000E+00

     total cpu time spent up to now is     7940.0 secs

     total energy              =   -3434.73318453 Ry
     estimated scf accuracy    <          4.2E-10 Ry

     iteration # 18     ecut=    60.00 Ry     beta= 0.30
     Davidson diagonalization with overlap
     ethr =  1.44E-13,  avg # of iterations =  4.7

     negative rho (up, down):  1.426E-03 0.000E+00

     total cpu time spent up to now is     8117.5 secs

     total energy              =   -3434.73318453 Ry
     estimated scf accuracy    <          1.9E-10 Ry

     iteration # 19     ecut=    60.00 Ry     beta= 0.30
     Davidson diagonalization with overlap
     ethr =  1.00E-13,  avg # of iterations =  3.1

     negative rho (up, down):  1.426E-03 0.000E+00

     total cpu time spent up to now is     8282.7 secs

     End of self-consistent calculation

          k = 0.0000 0.0000 0.0000 (237007 PWs)   bands (ev):

   -27.8145 -27.5829 -26.3462 -26.1430 -16.9745 -15.3820 -13.1520 -11.8121
   -10.8054 -10.1658 -10.1231 -10.0957  -9.6814  -9.6034  -9.3148  -9.3132
    -9.3126  -9.3084  -9.3076  -9.3050  -9.0042  -8.6577  -8.6103  -8.6091
    -8.6084  -8.6055  -8.6044  -8.6015  -8.1369  -7.5307  -7.5265  -7.5257
    -7.5253  -7.5236  -7.5226  -7.5188  -7.4385  -7.0352  -6.6347  -6.3678
    -6.3676  -6.3673  -6.3670  -6.3659  -6.3656  -6.2579  -6.1906  -6.0808
    -6.0620  -6.0617  -6.0602  -6.0588  -6.0562  -5.9572  -5.7586  -5.7114
    -5.6783  -5.6776  -5.6770  -5.6761  -5.6737  -5.6729  -5.6440  -5.5353
    -5.0850  -4.9355  -4.9345  -4.9342  -4.9097  -4.9094  -4.9082  -4.6188
    -4.6172  -4.6168  -4.6158  -4.6153  -4.6137  -4.2602  -4.2589  -4.2582
    -4.2270  -4.2258  -4.2247  -4.2103  -4.1921  -4.1909  -4.1894  -4.1875
    -4.1854  -4.1683  -3.5839  -3.3531  -3.3504  -3.3486  -3.2017  -3.1978
    -3.1972  -3.1963  -3.1950  -3.1941  -3.0821  -3.0788  -3.0752  -2.1877
    -2.1858  -2.1836  -2.1828  -2.1811  -2.1707  -1.8688  -1.8655  -1.8612
    -1.5053  -1.5031  -1.5024  -1.5013  -1.4998  -1.4980  -1.4229  -1.4202
    -1.4187  -1.2045  -0.7451  -0.7442  -0.7426  -0.7419  -0.7406  -0.7392
    -0.6232  -0.6229  -0.6205  -0.6198  -0.6175  -0.6169  -0.0747  -0.0735
    -0.0710  -0.0701  -0.0683  -0.0670   0.1395   0.1450   0.1477   0.1497
     0.1522   0.1638   0.1688   0.1714   0.1730   0.2285   0.2305   0.2318
     0.2331   0.2359   0.2375   0.2384   0.2410   0.2438   0.8067   0.8100
     0.8129   0.8134   0.8154   0.8200   0.9415   0.9427   0.9438   0.9446
     0.9456   0.9480   1.1325   1.3041   1.3067   1.3103

          k = 0.0000 0.2887 0.0000 (236896 PWs)   bands (ev):

   -27.8145 -27.5829 -26.3462 -26.1430 -16.9745 -15.3820 -13.1520 -11.8121
   -10.7115 -10.1658 -10.1228 -10.0024  -9.9625  -9.6814  -9.6034  -9.5896
    -9.5890  -9.2563  -8.9113  -8.8851  -8.8842  -8.8465  -8.8460  -8.6572
    -8.4762  -8.1706  -8.1454  -8.1446  -8.1347  -7.8008  -7.7992  -7.7759
    -7.4421  -7.4349  -7.3719  -7.3714  -7.0659  -7.0649  -7.0339  -6.7019
    -6.6981  -6.6765  -6.6759  -6.6339  -6.3378  -6.3356  -6.2766  -6.2759
    -6.2756  -6.2545  -6.1855  -5.9794  -5.7590  -5.7115  -5.6079  -5.6061
    -5.6057  -5.6022  -5.5871  -5.5857  -5.5851  -5.5538  -5.5512  -5.5511
    -5.5342  -5.2420  -5.1898  -5.1893  -5.0850  -4.8676  -4.8669  -4.8239
    -4.5318  -4.5277  -4.5273  -4.5066  -4.5057  -4.4622  -4.4578  -4.1935
    -4.1661  -4.1631  -4.1190  -4.1186  -3.8280  -3.8276  -3.7414  -3.7375
    -3.4961  -3.4665  -3.4646  -3.4532  -3.4521  -3.4234  -3.3856  -3.1466
    -3.1180  -3.1171  -2.7935  -2.7194  -2.6352  -2.6336  -2.4455  -2.4405
    -2.3660  -2.3652  -2.3474  -2.3439  -2.1136  -2.1115  -2.0682  -2.0661
    -2.0262  -2.0244  -1.7519  -1.7473  -1.6731  -1.6721  -1.6638  -1.5644
    -1.5621  -1.4172  -1.1168  -1.0006  -0.9834  -0.9817  -0.9592  -0.9555
    -0.8526  -0.8520  -0.6802  -0.6788  -0.5367  -0.5345  -0.4233  -0.4037
    -0.4007  -0.3809  -0.3792  -0.1492  -0.1489  -0.1471  -0.0909  -0.0890
    -0.0872  -0.0793   0.0665   0.1552   0.1606   0.4642   0.4714   0.5634
     0.5657   0.5930   0.5954   0.7603   0.7674   0.7832   0.7872   0.9519
     0.9539   0.9563   0.9574   1.1056   1.1069   1.1448   1.1455   1.2171
     1.2770   1.2808   1.2891   1.3266   1.3322   1.4538

          k = 0.0000-0.5773 0.0000 (236880 PWs)   bands (ev):

   -27.8145 -27.5829 -26.3462 -26.1430 -16.9745 -15.3820 -13.1520 -11.8121
   -10.4330 -10.4274 -10.1657 -10.1228  -9.7246  -9.7205  -9.6836  -9.6827
    -9.6795  -9.6033  -8.9779  -8.9770  -8.6582  -8.6343  -8.6299  -8.2001
    -8.1995  -8.1987  -8.1985  -8.1368  -7.8930  -7.8914  -7.5007  -7.5004
    -7.5000  -7.4995  -7.4642  -7.4628  -7.4392  -7.1615  -7.1610  -7.0347
    -6.7689  -6.7663  -6.6357  -6.4296  -6.4271  -6.4255  -6.4240  -6.4238
    -6.4227  -6.2551  -6.1856  -6.0068  -6.0060  -6.0015  -6.0005  -5.9766
    -5.7585  -5.7129  -5.6967  -5.6966  -5.5354  -5.3182  -5.3171  -5.3131
    -5.3127  -5.2835  -5.2781  -5.0856  -4.9738  -4.9712  -4.9711  -4.9679
    -4.5528  -4.5483  -4.2662  -4.2648  -4.2622  -4.2609  -4.2584  -4.2563
    -4.1916  -3.8629  -3.8622  -3.8330  -3.8326  -3.2359  -3.2295  -3.2016
    -3.2009  -3.1593  -3.1589  -3.1580  -3.1573  -3.1506  -3.1496  -3.1221
    -3.1206  -3.1191  -3.1158  -2.8863  -2.8846  -2.8835  -2.8822  -2.5327
    -2.5277  -2.4828  -2.4816  -2.4543  -2.4526  -2.4505  -2.4491  -2.3057
    -2.3038  -2.0384  -2.0366  -1.7062  -1.7018  -1.4008  -1.3991  -1.3974
    -1.3961  -1.1610  -1.1603  -1.1580  -1.1553  -1.0676  -1.0661  -0.9832
    -0.9772  -0.8910  -0.8895  -0.8582  -0.8509  -0.7533  -0.7522  -0.7492
    -0.7482  -0.4426  -0.4407  -0.4013  -0.3992  -0.3139  -0.3097  -0.1717
    -0.1621   0.0974   0.0987   0.1000   0.1010   0.1158   0.1181   0.3254
     0.3262   0.3278   0.3289   0.7970   0.7989   0.9953   0.9980   0.9997
     1.0010   1.0222   1.0239   1.0277   1.0281   1.4642   1.4710   1.4756
     1.4784   1.4857   1.4969   1.4998   1.5018   1.5143

          k = 0.2500-0.1443 0.0000 (236890 PWs)   bands (ev):

   -27.8145 -27.5829 -26.3462 -26.1430 -16.9745 -15.3820 -13.1520 -11.8121
   -10.7115 -10.1658 -10.1228 -10.0025  -9.9624  -9.6814  -9.6035  -9.5897
    -9.5890  -9.2562  -8.9113  -8.8851  -8.8843  -8.8465  -8.8460  -8.6571
    -8.4761  -8.1698  -8.1462  -8.1444  -8.1348  -7.8008  -7.7992  -7.7758
    -7.4419  -7.4351  -7.3718  -7.3713  -7.0663  -7.0645  -7.0339  -6.7026
    -6.6992  -6.6765  -6.6760  -6.6318  -6.3368  -6.3351  -6.2766  -6.2761
    -6.2757  -6.2556  -6.1865  -5.9790  -5.7590  -5.7116  -5.6080  -5.6062
    -5.6057  -5.6020  -5.5866  -5.5861  -5.5854  -5.5537  -5.5516  -5.5513
    -5.5337  -5.2423  -5.1897  -5.1891  -5.0844  -4.8676  -4.8673  -4.8237
    -4.5317  -4.5279  -4.5277  -4.5064  -4.5055  -4.4622  -4.4580  -4.1939
    -4.1665  -4.1621  -4.1189  -4.1187  -3.8282  -3.8278  -3.7415  -3.7375
    -3.4962  -3.4664  -3.4645  -3.4529  -3.4521  -3.4234  -3.3854  -3.1472
    -3.1181  -3.1174  -2.7933  -2.7172  -2.6368  -2.6336  -2.4455  -2.4411
    -2.3661  -2.3653  -2.3472  -2.3438  -2.1143  -2.1119  -2.0703  -2.0661
    -2.0260  -2.0233  -1.7517  -1.7477  -1.6710  -1.6701  -1.6607  -1.5660
    -1.5620  -1.4166  -1.1168  -1.0006  -0.9835  -0.9811  -0.9628  -0.9555
    -0.8533  -0.8520  -0.6774  -0.6760  -0.5372  -0.5342  -0.4230  -0.4055
    -0.4010  -0.3808  -0.3790  -0.1497  -0.1491  -0.1473  -0.0921  -0.0895
    -0.0874  -0.0796   0.0677   0.1533   0.1627   0.4649   0.4706   0.5631
     0.5655   0.5917   0.5960   0.7600   0.7694   0.7787   0.7849   0.9502
     0.9537   0.9561   0.9578   1.1070   1.1081   1.1432   1.1442   1.2164
     1.2751   1.2814   1.2900   1.3242   1.3314   1.4534

          k = 0.2500-0.7217 0.0000 (236847 PWs)   bands (ev):

   -27.8145 -27.5829 -26.3462 -26.1430 -16.9745 -15.3820 -13.1520 -11.8121
   -10.5239 -10.1660 -10.1517 -10.1469 -10.1226  -9.8156  -9.6814  -9.6035
    -9.4445  -9.4402  -9.0320  -9.0312  -8.7256  -8.6571  -8.3562  -8.3528
    -8.3295  -8.3287  -8.2915  -8.1366  -7.9252  -7.9205  -7.5920  -7.4396
    -7.2535  -7.2485  -7.2475  -7.2269  -7.2228  -7.1888  -7.1879  -7.0356
    -6.8852  -6.8843  -6.8232  -6.8224  -6.6343  -6.5157  -6.4947  -6.4924
    -6.2567  -6.1891  -6.1530  -6.1496  -6.1301  -6.1295  -5.9802  -5.7878
    -5.7853  -5.7540  -5.7112  -5.5359  -5.4264  -5.4254  -5.3721  -5.0882
    -5.0668  -5.0642  -5.0609  -5.0104  -5.0094  -5.0074  -5.0038  -4.7032
    -4.7013  -4.6656  -4.6388  -4.3306  -4.3284  -4.1935  -3.9941  -3.9905
    -3.9886  -3.9544  -3.9352  -3.9189  -3.9164  -3.6465  -3.6449  -3.5871
    -3.5822  -3.3204  -3.2970  -3.2959  -3.2658  -3.2057  -3.0872  -2.9725
    -2.9649  -2.9232  -2.9188  -2.8676  -2.8655  -2.8139  -2.5539  -2.5511
    -2.5350  -2.5164  -2.2592  -2.2242  -2.2230  -2.1219  -2.1182  -2.0800
    -2.0762  -1.9220  -1.9189  -1.9126  -1.8316  -1.6055  -1.5436  -1.5392
    -1.4641  -1.4568  -1.4412  -1.4375  -1.2357  -1.2339  -1.1596  -1.0366
    -1.0322  -0.9416  -0.7216  -0.7162  -0.6985  -0.6419  -0.6408  -0.6040
    -0.6006  -0.5986  -0.5884  -0.5145  -0.3618  -0.3603  -0.0574  -0.0542
    -0.0095  -0.0085   0.0450   0.0481   0.2510   0.2543   0.3716   0.3733
     0.3854   0.3951   0.4015   0.4566   0.6185   0.6236   0.7075   0.7090
     0.7265   0.8940   1.0414   1.0429   1.1083   1.1681   1.1775   1.3888
     1.4037   1.6362   1.6446   1.6456   1.7111   1.7353

          k =-0.5000 0.2887 0.0000 (236880 PWs)   bands (ev):

   -27.8145 -27.5829 -26.3462 -26.1430 -16.9745 -15.3820 -13.1519 -11.8121
   -10.4325 -10.4279 -10.1658 -10.1228  -9.7243  -9.7208  -9.6836  -9.6826
    -9.6796  -9.6034  -8.9779  -8.9771  -8.6583  -8.6338  -8.6302  -8.1999
    -8.1997  -8.1987  -8.1985  -8.1369  -7.8930  -7.8913  -7.5009  -7.5002
    -7.5001  -7.4993  -7.4638  -7.4628  -7.4392  -7.1616  -7.1609  -7.0348
    -6.7686  -6.7665  -6.6346  -6.4289  -6.4269  -6.4255  -6.4243  -6.4238
    -6.4226  -6.2559  -6.1866  -6.0066  -6.0057  -6.0021  -6.0014  -5.9761
    -5.7586  -5.7115  -5.6975  -5.6961  -5.5360  -5.3179  -5.3173  -5.3133
    -5.3131  -5.2837  -5.2781  -5.0862  -4.9735  -4.9720  -4.9694  -4.9679
    -4.5530  -4.5486  -4.2662  -4.2650  -4.2625  -4.2609  -4.2583  -4.2563
    -4.1918  -3.8628  -3.8622  -3.8328  -3.8324  -3.2363  -3.2287  -3.2022
    -3.2017  -3.1589  -3.1588  -3.1578  -3.1574  -3.1493  -3.1483  -3.1220
    -3.1206  -3.1192  -3.1156  -2.8861  -2.8841  -2.8836  -2.8820  -2.5327
    -2.5282  -2.4838  -2.4824  -2.4560  -2.4544  -2.4506  -2.4495  -2.3078
    -2.3058  -2.0350  -2.0330  -1.7035  -1.6998  -1.4034  -1.4023  -1.3973
    -1.3960  -1.1612  -1.1597  -1.1587  -1.1549  -1.0679  -1.0664  -0.9798
    -0.9741  -0.8874  -0.8857  -0.8598  -0.8492  -0.7531  -0.7518  -0.7496
    -0.7491  -0.4441  -0.4419  -0.4022  -0.3997  -0.3137  -0.3106  -0.1710
    -0.1631   0.0976   0.0993   0.0998   0.1013   0.1155   0.1171   0.3245
     0.3256   0.3277   0.3279   0.7924   0.7944   0.9948   0.9963   1.0003
     1.0022   1.0208   1.0222   1.0266   1.0277   1.4577   1.4749   1.4761
     1.4813   1.4852   1.4967   1.4998   1.5018   1.5145

          k =-0.5000 0.5773 0.0000 (236845 PWs)   bands (ev):

   -27.8145 -27.5829 -26.3462 -26.1430 -16.9745 -15.3820 -13.1519 -11.8121
   -10.5239 -10.1661 -10.1520 -10.1465 -10.1226  -9.8156  -9.6814  -9.6035
    -9.4447  -9.4401  -9.0323  -9.0312  -8.7256  -8.6570  -8.3562  -8.3528
    -8.3294  -8.3290  -8.2913  -8.1364  -7.9255  -7.9199  -7.5918  -7.4397
    -7.2537  -7.2483  -7.2474  -7.2270  -7.2225  -7.1892  -7.1879  -7.0356
    -6.8853  -6.8840  -6.8233  -6.8222  -6.6346  -6.5153  -6.4951  -6.4924
    -6.2571  -6.1900  -6.1531  -6.1475  -6.1299  -6.1294  -5.9809  -5.7889
    -5.7844  -5.7541  -5.7110  -5.5362  -5.4263  -5.4253  -5.3721  -5.0907
    -5.0671  -5.0646  -5.0576  -5.0106  -5.0093  -5.0080  -5.0034  -4.7032
    -4.7008  -4.6657  -4.6391  -4.3310  -4.3282  -4.1932  -3.9934  -3.9909
    -3.9887  -3.9557  -3.9349  -3.9194  -3.9164  -3.6468  -3.6447  -3.5873
    -3.5815  -3.3203  -3.2971  -3.2959  -3.2656  -3.2055  -3.0853  -2.9719
    -2.9654  -2.9234  -2.9184  -2.8676  -2.8653  -2.8172  -2.5540  -2.5517
    -2.5349  -2.5169  -2.2587  -2.2233  -2.2220  -2.1205  -2.1181  -2.0781
    -2.0762  -1.9219  -1.9195  -1.9123  -1.8329  -1.6090  -1.5414  -1.5392
    -1.4607  -1.4567  -1.4438  -1.4395  -1.2348  -1.2324  -1.1581  -1.0352
    -1.0322  -0.9415  -0.7251  -0.7192  -0.7003  -0.6418  -0.6407  -0.6022
    -0.6004  -0.5972  -0.5897  -0.5120  -0.3613  -0.3601  -0.0576  -0.0533
    -0.0082  -0.0073   0.0449   0.0483   0.2510   0.2532   0.3720   0.3744
     0.3833   0.3957   0.4007   0.4575   0.6159   0.6208   0.7073   0.7093
     0.7221   0.8941   1.0416   1.0430   1.1110   1.1674   1.1741   1.3874
     1.4030   1.6371   1.6442   1.6460   1.7185   1.7328

          k =-0.2500-0.1443 0.0000 (236890 PWs)   bands (ev):

   -27.8145 -27.5829 -26.3462 -26.1430 -16.9745 -15.3820 -13.1519 -11.8121
   -10.7115 -10.1658 -10.1228 -10.0025  -9.9624  -9.6815  -9.6036  -9.5896
    -9.5891  -9.2563  -8.9113  -8.8851  -8.8844  -8.8464  -8.8461  -8.6571
    -8.4761  -8.1700  -8.1462  -8.1444  -8.1347  -7.8008  -7.7992  -7.7758
    -7.4419  -7.4352  -7.3718  -7.3714  -7.0658  -7.0651  -7.0337  -6.7027
    -6.6991  -6.6766  -6.6758  -6.6319  -6.3372  -6.3348  -6.2766  -6.2761
    -6.2757  -6.2552  -6.1866  -5.9794  -5.7588  -5.7116  -5.6080  -5.6064
    -5.6055  -5.6022  -5.5867  -5.5858  -5.5855  -5.5536  -5.5517  -5.5512
    -5.5337  -5.2423  -5.1896  -5.1892  -5.0844  -4.8675  -4.8673  -4.8237
    -4.5318  -4.5279  -4.5276  -4.5064  -4.5056  -4.4625  -4.4578  -4.1939
    -4.1663  -4.1623  -4.1187  -4.1185  -3.8282  -3.8278  -3.7416  -3.7374
    -3.4961  -3.4665  -3.4647  -3.4523  -3.4521  -3.4239  -3.3855  -3.1485
    -3.1179  -3.1174  -2.7932  -2.7149  -2.6368  -2.6352  -2.4459  -2.4409
    -2.3666  -2.3659  -2.3473  -2.3436  -2.1154  -2.1131  -2.0703  -2.0682
    -2.0242  -2.0233  -1.7520  -1.7476  -1.6687  -1.6678  -1.6576  -1.5658
    -1.5639  -1.4160  -1.1167  -1.0012  -0.9821  -0.9807  -0.9628  -0.9592
    -0.8533  -0.8524  -0.6742  -0.6729  -0.5368  -0.5347  -0.4231  -0.4060
    -0.4029  -0.3797  -0.3788  -0.1500  -0.1495  -0.1482  -0.0937  -0.0900
    -0.0871  -0.0792   0.0683   0.1557   0.1605   0.4644   0.4712   0.5632
     0.5659   0.5926   0.5946   0.7590   0.7710   0.7758   0.7794   0.9504
     0.9524   0.9567   0.9571   1.1079   1.1091   1.1417   1.1421   1.2164
     1.2760   1.2794   1.2892   1.3235   1.3297   1.4536

          k =-0.2500-0.7217 0.0000 (236847 PWs)   bands (ev):

   -27.8145 -27.5829 -26.3462 -26.1430 -16.9745 -15.3820 -13.1520 -11.8121
   -10.5239 -10.1660 -10.1514 -10.1472 -10.1226  -9.8157  -9.6814  -9.6035
    -9.4442  -9.4405  -9.0318  -9.0314  -8.7256  -8.6571  -8.3560  -8.3531
    -8.3293  -8.3289  -8.2915  -8.1365  -7.9250  -7.9207  -7.5919  -7.4397
    -7.2536  -7.2483  -7.2475  -7.2266  -7.2231  -7.1889  -7.1878  -7.0356
    -6.8856  -6.8839  -6.8230  -6.8225  -6.6343  -6.5157  -6.4951  -6.4920
    -6.2569  -6.1886  -6.1529  -6.1496  -6.1301  -6.1295  -5.9812  -5.7867
    -5.7838  -5.7560  -5.7112  -5.5359  -5.4267  -5.4250  -5.3721  -5.0876
    -5.0666  -5.0646  -5.0613  -5.0105  -5.0093  -5.0071  -5.0041  -4.7032
    -4.7014  -4.6659  -4.6389  -4.3310  -4.3279  -4.1935  -3.9953  -3.9906
    -3.9887  -3.9533  -3.9351  -3.9185  -3.9168  -3.6459  -3.6453  -3.5866
    -3.5822  -3.3204  -3.2971  -3.2959  -3.2656  -3.2056  -3.0899  -2.9720
    -2.9654  -2.9224  -2.9188  -2.8672  -2.8655  -2.8101  -2.5521  -2.5511
    -2.5353  -2.5160  -2.2593  -2.2256  -2.2243  -2.1219  -2.1200  -2.0800
    -2.0781  -1.9214  -1.9192  -1.9133  -1.8304  -1.6016  -1.5436  -1.5414
    -1.4641  -1.4604  -1.4388  -1.4355  -1.2378  -1.2346  -1.1620  -1.0368
    -1.0332  -0.9417  -0.7173  -0.7141  -0.6966  -0.6412  -0.6408  -0.6042
    -0.6020  -0.5975  -0.5896  -0.5173  -0.3616  -0.3604  -0.0591  -0.0545
    -0.0110  -0.0100   0.0447   0.0488   0.2525   0.2544   0.3700   0.3719
     0.3861   0.3963   0.4010   0.4552   0.6220   0.6261   0.7083   0.7089
     0.7318   0.8940   1.0412   1.0432   1.1046   1.1715   1.1784   1.3887
     1.4054   1.6395   1.6416   1.6444   1.7106   1.7375

          k = 0.5000 0.2887 0.0000 (236880 PWs)   bands (ev):

   -27.8145 -27.5829 -26.3462 -26.1430 -16.9745 -15.3820 -13.1519 -11.8121
   -10.4322 -10.4281 -10.1658 -10.1228  -9.7240  -9.7209  -9.6845  -9.6828
    -9.6789  -9.6034  -8.9778  -8.9771  -8.6584  -8.6339  -8.6299  -8.1999
    -8.1994  -8.1990  -8.1986  -8.1368  -7.8930  -7.8913  -7.5005  -7.5002
    -7.5002  -7.4995  -7.4638  -7.4628  -7.4392  -7.1615  -7.1610  -7.0349
    -6.7690  -6.7660  -6.6347  -6.4293  -6.4269  -6.4249  -6.4244  -6.4236
    -6.4229  -6.2556  -6.1867  -6.0061  -6.0056  -6.0018  -6.0018  -5.9771
    -5.7580  -5.7118  -5.6978  -5.6958  -5.5359  -5.3174  -5.3173  -5.3137
    -5.3132  -5.2832  -5.2787  -5.0861  -4.9730  -4.9726  -4.9692  -4.9681
    -4.5533  -4.5484  -4.2653  -4.2652  -4.2621  -4.2620  -4.2583  -4.2562
    -4.1918  -3.8630  -3.8625  -3.8328  -3.8326  -3.2358  -3.2292  -3.2033
    -3.2029  -3.1588  -3.1584  -3.1574  -3.1573  -3.1482  -3.1473  -3.1217
    -3.1212  -3.1184  -3.1160  -2.8850  -2.8834  -2.8828  -2.8820  -2.5330
    -2.5281  -2.4852  -2.4838  -2.4565  -2.4548  -2.4526  -2.4513  -2.3106
    -2.3086  -2.0310  -2.0290  -1.7012  -1.6978  -1.4034  -1.4024  -1.4003
    -1.3992  -1.1613  -1.1600  -1.1579  -1.1556  -1.0676  -1.0660  -0.9755
    -0.9722  -0.8830  -0.8814  -0.8586  -0.8502  -0.7519  -0.7517  -0.7501
    -0.7484  -0.4454  -0.4434  -0.4032  -0.4010  -0.3153  -0.3109  -0.1718
    -0.1626   0.0989   0.0990   0.1003   0.1010   0.1138   0.1158   0.3243
     0.3256   0.3271   0.3275   0.7874   0.7894   0.9959   0.9977   0.9991
     1.0023   1.0206   1.0211   1.0242   1.0274   1.4570   1.4754   1.4781
     1.4800   1.4844   1.4973   1.4990   1.5023   1.5152

     the Fermi energy is     0.0080 ev

!    total energy              =   -3434.73318453 Ry
     estimated scf accuracy    <          5.5E-11 Ry
     smearing contrib. (-TS)   =      -0.00794001 Ry
     internal energy E=F+TS    =   -3434.72524453 Ry

     The total energy is F=E-TS. E is the sum of the following terms:
     one-electron contribution =  -11758.13477082 Ry
     hartree contribution      =    5951.79601128 Ry
     xc contribution           =    -264.05948398 Ry
     ewald contribution        =    5434.54345446 Ry
     one-center paw contrib.   =   -2798.87045547 Ry

     convergence has been achieved in  19 iterations

     negative rho (up, down):  1.426E-03 0.000E+00

     Forces acting on atoms (cartesian axes, Ry/au):

     atom    1 type  1   force =    -0.00008371   -0.00008872   -0.00014496
     atom    2 type  1   force =     0.00015401    0.00002697    0.00051539
     atom    3 type  1   force =    -0.00019519    0.00007337    0.00065119
     atom    4 type  1   force =     0.00000263   -0.00005819    0.00021301
     atom    5 type  1   force =     0.00013693    0.00010440    0.00048077
     atom    6 type  1   force =     0.00002564    0.00003766    0.00131713
     atom    7 type  1   force =    -0.00022601    0.00011445    0.00110731
     atom    8 type  1   force =    -0.00006058   -0.00007628    0.00023891
     atom    9 type  1   force =    -0.00004457   -0.00028506    0.00055939
     atom   10 type  1   force =    -0.00002085   -0.00032572    0.00092134
     atom   11 type  1   force =    -0.00006882   -0.00011761    0.00025441
     atom   12 type  1   force =     0.00000601   -0.00007980   -0.00010424
     atom   13 type  1   force =    -0.00002339    0.00000352    0.00011015
     atom   14 type  1   force =    -0.00007289   -0.00002645    0.00008451
     atom   15 type  1   force =    -0.00000751   -0.00000037   -0.00006054
     atom   16 type  1   force =    -0.00000591   -0.00002643   -0.00008431
     atom   17 type  1   force =     0.00009164   -0.00017178    0.00074246
     atom   18 type  1   force =     0.00009834   -0.00004559    0.00018721
     atom   19 type  1   force =    -0.00013776   -0.00008119   -0.00004937
     atom   20 type  1   force =    -0.00019155   -0.00010694    0.00045976
     atom   21 type  1   force =    -0.00012860   -0.00008710    0.00045652
     atom   22 type  1   force =    -0.00004362   -0.00016166    0.00061357
     atom   23 type  1   force =     0.00016691   -0.00020569    0.00049208
     atom   24 type  1   force =    -0.00006503    0.00006978    0.00065937
     atom   25 type  1   force =    -0.00014769    0.00002306    0.00060566
     atom   26 type  1   force =     0.00004402    0.00003264    0.00090060
     atom   27 type  1   force =    -0.00004497    0.00002680    0.00030793
     atom   28 type  1   force =     0.00001943    0.00003400    0.00011840
     atom   29 type  1   force =    -0.00005973    0.00018939    0.00032210
     atom   30 type  1   force =     0.00000739   -0.00006022    0.00017637
     atom   31 type  1   force =     0.00002186   -0.00003963   -0.00008612
     atom   32 type  1   force =    -0.00011649   -0.00012717   -0.00011769
     atom   33 type  1   force =     0.00018402    0.00011463    0.00014916
     atom   34 type  1   force =     0.00009093   -0.00003898   -0.00025775
     atom   35 type  1   force =    -0.00027663   -0.00001223   -0.00010228
     atom   36 type  1   force =     0.00002433    0.00004527   -0.00014931
     atom   37 type  1   force =     0.00054035    0.00028620   -0.00049554
     atom   38 type  1   force =    -0.00021926    0.00014645   -0.00104875
     atom   39 type  1   force =    -0.00045497    0.00029883   -0.00003449
     atom   40 type  1   force =     0.00017033    0.00012766    0.00012083
     atom   41 type  1   force =    -0.00008094   -0.00032376   -0.00098887
     atom   42 type  1   force =    -0.00005647   -0.00003895   -0.00058121
     atom   43 type  1   force =     0.00006622    0.00008497   -0.00033568
     atom   44 type  1   force =    -0.00004346    0.00008552   -0.00033473
     atom   45 type  1   force =     0.00004291   -0.00057745    0.00011194
     atom   46 type  1   force =     0.00014374   -0.00004177   -0.00030519
     atom   47 type  1   force =    -0.00007018   -0.00006559   -0.00019945
     atom   48 type  1   force =    -0.00013279   -0.00025113   -0.00017908
     atom   49 type  1   force =    -0.00003116    0.00008859    0.00044964
     atom   50 type  1   force =     0.00028884    0.00027239   -0.00007095
     atom   51 type  1   force =    -0.00013584    0.00032556   -0.00020757
     atom   52 type  1   force =    -0.00011594    0.00016376   -0.00000520
     atom   53 type  1   force =     0.00039681    0.00018266   -0.00006818
     atom   54 type  1   force =     0.00012872    0.00006924   -0.00002560
     atom   55 type  1   force =    -0.00028993    0.00018215   -0.00012087
     atom   56 type  1   force =    -0.00016715    0.00015432    0.00020710
     atom   57 type  1   force =     0.00015352   -0.00029256   -0.00022653
     atom   58 type  1   force =    -0.00003931   -0.00041048   -0.00007919
     atom   59 type  1   force =    -0.00009404   -0.00015068   -0.00014658
     atom   60 type  1   force =     0.00012485   -0.00008204    0.00021997
     atom   61 type  1   force =     0.00002364   -0.00009657    0.00012015
     atom   62 type  1   force =     0.00002100   -0.00011688    0.00027503
     atom   63 type  1   force =    -0.00002009    0.00012681    0.00025280
     atom   64 type  1   force =     0.00011921    0.00010526    0.00032709
     atom   65 type  1   force =    -0.00013737    0.00024842   -0.00009597
     atom   66 type  1   force =    -0.00001682   -0.00016988   -0.00037400
     atom   67 type  1   force =    -0.00000375   -0.00044202   -0.00054703
     atom   68 type  1   force =     0.00019256    0.00016799   -0.00023008
     atom   69 type  1   force =     0.00000710    0.00001177   -0.00044138
     atom   70 type  1   force =     0.00005273    0.00012634   -0.00081200
     atom   71 type  1   force =     0.00001257    0.00006875   -0.00093883
     atom   72 type  1   force =     0.00010718   -0.00013274   -0.00024960
     atom   73 type  1   force =     0.00011085    0.00005058   -0.00075815
     atom   74 type  1   force =    -0.00010820   -0.00014815   -0.00102912
     atom   75 type  1   force =     0.00022643    0.00015303   -0.00083263
     atom   76 type  1   force =    -0.00010971    0.00024650   -0.00041542
     atom   77 type  1   force =    -0.00002485    0.00006360   -0.00087314
     atom   78 type  1   force =     0.00031563    0.00028179   -0.00080004
     atom   79 type  1   force =     0.00021844    0.00016243   -0.00031838
     atom   80 type  1   force =    -0.00026686    0.00025320   -0.00052842
     atom   81 type  2   force =    -0.00054968   -0.00072970    0.00029566
     atom   82 type  2   force =     0.00032497    0.00031465   -0.00165778
     atom   83 type  3   force =    -0.00046960    0.00011408   -0.00019677
     atom   84 type  3   force =    -0.00010337   -0.00167831    0.00064331
     atom   85 type  3   force =     0.00144352    0.00037542    0.00001510
     atom   86 type  2   force =     0.00059799   -0.00052336    0.00037813
     atom   87 type  4   force =    -0.00089809    0.00088086    0.00073677
     atom   88 type  3   force =    -0.00047692   -0.00102069    0.00091112
     atom   89 type  2   force =     0.00140368    0.00058709    0.00072327
     atom   90 type  4   force =    -0.00031858    0.00178625   -0.00120259
     atom   91 type  3   force =     0.00018654    0.00022720   -0.00112305
     atom   92 type  4   force =    -0.00089612   -0.00033840   -0.00167535
     atom   93 type  4   force =    -0.00098045    0.00154960   -0.00006103
     atom   94 type  3   force =     0.00083897   -0.00141192    0.00333840

     Total force =     0.008254     Total SCF correction =     0.000012


     Computing stress (Cartesian axis) and pressure


     negative rho (up, down):  1.426E-03 0.000E+00
          total   stress  (Ry/bohr**3)                   (kbar)     P=       -7.32
  -0.00007226   0.00000021   0.00000083          -10.63        0.03        0.12
   0.00000021  -0.00007242   0.00000031            0.03      -10.65        0.05
   0.00000083   0.00000031  -0.00000457            0.12        0.05       -0.67

     Energy error            =      9.4E-05 Ry
     Gradient error          =      3.3E-03 Ry/Bohr

     number of scf cycles    =  37
     number of bfgs steps    =  36

     energy             old  =   -3434.7330901219 Ry
     energy             new  =   -3434.7331845336 Ry

     CASE: energy            _new < energy            _old

     new trust radius        =       0.0534089574 bohr
     new conv_thr            =            1.0E-10 Ry


ATOMIC_POSITIONS (angstrom)
Al              11.4556900724        1.6532785662       14.8175662993
Al               2.8631954042        1.6511379899       14.8098995441
Al               5.7282928308        1.6503643730       14.8079940529
Al               8.5906854773        1.6522233789       14.8130655898
Al              12.8856044666        4.1333819884       14.8099027236
Al               4.2948313652        4.1321082045       14.7965678159
Al               7.1615064541        4.1322378173       14.7997515587
Al              10.0239180927        4.1345964992       14.8148326486
Al              14.3179126097        6.6146384026       14.8110017584
Al               5.7282112827        6.6152569808       14.8034199920
Al               8.5922035562        6.6139398469       14.8177334064
Al              11.4550690160        6.6138402905       14.8262566448
Al              15.7501562133        9.0925858441       14.8153122147
Al               7.1607469909        9.0926188148       14.8167135892
Al              10.0236407327        9.0924925263       14.8253030403
Al              12.8861707028        9.0924618326       14.8233159181
Al              -0.0025982757       -0.0037575043       17.1790074518
Al               2.8617438463       -0.0026193958       17.1860506322
Al               5.7267562974       -0.0006462972       17.1898953692
Al               8.5901834338       -0.0029045498       17.1833289397
Al               1.4326089889        2.4784718201       17.1791617923
Al               4.2946123956        2.4794872658       17.1798026099
Al               7.1550573594        2.4796205875       17.1792876133
Al              10.0203586371        2.4770734264       17.1793159198
Al               2.8647793114        4.9557874838       17.1807083574
Al               5.7250694428        4.9555895820       17.1775800293
Al               8.5872592433        4.9555978283       17.1836740571
Al              11.4541279908        4.9564005614       17.1870407466
Al               4.2949732971        7.4332442437       17.1818841005
Al               7.1558712480        7.4350108673       17.1846949743
Al              10.0203030725        7.4364924542       17.1933366116
Al              12.8878943663        7.4362620489       17.1913640207
Al               1.4265299296        0.8187228874       19.5244773496
Al               4.2907698520        0.8225980126       19.5328313767
Al               7.1564704671        0.8212967220       19.5306148313
Al              10.0179259997        0.8187690968       19.5264662974
Al               2.8567461634        3.2982529147       19.5327593389
Al               5.7245706203        3.2989571743       19.5369784931
Al               8.5882844313        3.2972636930       19.5285972209
Al              11.4498553633        3.2984846151       19.5254587201
Al               4.2925333180        5.7806791722       19.5370662003
Al               7.1535489501        5.7782072819       19.5356865791
Al              10.0167641083        5.7776132838       19.5335064517
Al              12.8852464651        5.7770383893       19.5347612440
Al               5.7225109772        8.2622218798       19.5268816335
Al               8.5844988708        8.2591595534       19.5323209263
Al              11.4514581978        8.2603307656       19.5316954322
Al              14.3163069511        8.2603129436       19.5309044284
Al              11.4483844137        1.6410976582       21.8696460279
Al               2.8554689010        1.6409265812       21.8778554174
Al               5.7221137421        1.6409515479       21.8826283852
Al               8.5835194750        1.6412663120       21.8779093077
Al              12.8777203302        4.1205197236       21.8796392811
Al               4.2885650804        4.1216586253       21.8775207845
Al               7.1546872050        4.1206465189       21.8818511571
Al              10.0156296071        4.1204470699       21.8764659809
Al              14.3114349730        6.6039375729       21.8825169223
Al               5.7209190057        6.6051104979       21.8811629718
Al               8.5825370575        6.6017783373       21.8824658159
Al              11.4469370293        6.6014478248       21.8767903800
Al              15.7435120523        9.0812280697       21.8755650532
Al               7.1520675420        9.0814415982       21.8746937929
Al              10.0159441812        9.0824054635       21.8752560222
Al              12.8791237209        9.0819473665       21.8755015804
Al              -0.0081810046       -0.0175087039       24.2414904628
Al               2.8545721016       -0.0151499216       24.2471922176
Al               5.7185814608       -0.0125803067       24.2507810852
Al               8.5806814788       -0.0170666094       24.2466815812
Al               1.4214999577        2.4637090991       24.2483603698
Al               4.2854966986        2.4645756880       24.2508770702
Al               7.1500151955        2.4649909308       24.2598694021
Al              10.0130780212        2.4646279527       24.2449728079
Al               2.8534288560        4.9441649919       24.2477477861
Al               5.7186760821        4.9455623181       24.2514526378
Al               8.5806502295        4.9433095669       24.2580477497
Al              11.4451783034        4.9430494664       24.2502474539
Al               4.2862920525        7.4248445270       24.2584853188
Al               7.1477908781        7.4238126466       24.2591995418
Al              10.0119022526        7.4245248270       24.2476876944
Al              12.8782978166        7.4241417250       24.2507667963
C                3.3060761599        4.7667106918       29.2879658118
C                4.7087991661        4.9847926379       28.7670262448
H                2.6003896672        4.9279646728       28.4641352610
H                3.1935866019        3.7425427774       29.6584063090
H                3.0760167272        5.4684227105       30.0986264942
C                5.8208518082        4.8025495553       29.7988032097
F                4.9232773290        4.1149963736       27.6980666916
H                5.6966381222        3.8180265786       30.2700666241
C                7.2634113439        4.8816356415       29.3171595351
F                4.7835742419        6.2685285549       28.2349789029
H                5.6833175767        5.5583791197       30.5850231577
F                7.5200508124        6.0418161005       28.6149223247
F                7.5810886182        3.8172165828       28.4930384962
H                7.9698200903        4.8561398428       30.1613006655



     Writing config-only to output data dir ./tmp/al_pvdf.save/ :
     XML data file
     NEW-OLD atomic charge density approx. for the potential

     negative rho (up, down):  1.352E-03 0.000E+00

     total cpu time spent up to now is     8548.0 secs

     Self-consistent Calculation

     iteration #  1     ecut=    60.00 Ry     beta= 0.30
     Davidson diagonalization with overlap
     ethr =  1.00E-06,  avg # of iterations =  6.0

     negative rho (up, down):  1.368E-03 0.000E+00

     total cpu time spent up to now is     8788.2 secs

     total energy              =   -3434.73318200 Ry
     estimated scf accuracy    <       0.00187928 Ry

     iteration #  2     ecut=    60.00 Ry     beta= 0.30
     Davidson diagonalization with overlap
     ethr =  6.48E-07,  avg # of iterations =  2.0

     negative rho (up, down):  1.386E-03 0.000E+00

     total cpu time spent up to now is     8947.4 secs

     total energy              =   -3434.73265158 Ry
     estimated scf accuracy    <       0.01460499 Ry

     iteration #  3     ecut=    60.00 Ry     beta= 0.30
     Davidson diagonalization with overlap
     ethr =  6.48E-07,  avg # of iterations =  5.5

     negative rho (up, down):  1.393E-03 0.000E+00

     total cpu time spent up to now is     9117.6 secs

     total energy              =   -3434.73305276 Ry
     estimated scf accuracy    <       0.00955920 Ry

     iteration #  4     ecut=    60.00 Ry     beta= 0.30
     Davidson diagonalization with overlap
     ethr =  6.48E-07,  avg # of iterations =  2.0

     negative rho (up, down):  1.402E-03 0.000E+00

     total cpu time spent up to now is     9274.2 secs

     total energy              =   -3434.73321664 Ry
     estimated scf accuracy    <       0.00061281 Ry

     iteration #  5     ecut=    60.00 Ry     beta= 0.30
     Davidson diagonalization with overlap
     ethr =  2.11E-07,  avg # of iterations =  3.8

     negative rho (up, down):  1.409E-03 0.000E+00

     total cpu time spent up to now is     9442.8 secs

     total energy              =   -3434.73326249 Ry
     estimated scf accuracy    <       0.00033073 Ry

     iteration #  6     ecut=    60.00 Ry     beta= 0.30
     Davidson diagonalization with overlap
     ethr =  1.14E-07,  avg # of iterations =  2.0

     negative rho (up, down):  1.416E-03 0.000E+00

     total cpu time spent up to now is     9596.3 secs

     total energy              =   -3434.73329087 Ry
     estimated scf accuracy    <       0.00004932 Ry

     iteration #  7     ecut=    60.00 Ry     beta= 0.30
     Davidson diagonalization with overlap
     ethr =  1.70E-08,  avg # of iterations =  2.8

     negative rho (up, down):  1.420E-03 0.000E+00

     total cpu time spent up to now is     9764.1 secs

     total energy              =   -3434.73329461 Ry
     estimated scf accuracy    <       0.00000836 Ry

     iteration #  8     ecut=    60.00 Ry     beta= 0.30
     Davidson diagonalization with overlap
     ethr =  2.88E-09,  avg # of iterations =  4.7

     negative rho (up, down):  1.422E-03 0.000E+00

     total cpu time spent up to now is     9952.2 secs

     total energy              =   -3434.73329599 Ry
     estimated scf accuracy    <       0.00000178 Ry

     iteration #  9     ecut=    60.00 Ry     beta= 0.30
     Davidson diagonalization with overlap
     ethr =  6.14E-10,  avg # of iterations =  4.8

     negative rho (up, down):  1.423E-03 0.000E+00

     total cpu time spent up to now is    10147.2 secs

     total energy              =   -3434.73329622 Ry
     estimated scf accuracy    <       0.00000104 Ry

     iteration # 10     ecut=    60.00 Ry     beta= 0.30
     Davidson diagonalization with overlap
     ethr =  3.58E-10,  avg # of iterations =  2.2

     negative rho (up, down):  1.424E-03 0.000E+00

     total cpu time spent up to now is    10315.6 secs

     total energy              =   -3434.73329636 Ry
     estimated scf accuracy    <       0.00000036 Ry

     iteration # 11     ecut=    60.00 Ry     beta= 0.30
     Davidson diagonalization with overlap
     ethr =  1.23E-10,  avg # of iterations =  2.0

     negative rho (up, down):  1.425E-03 0.000E+00

     total cpu time spent up to now is    10469.6 secs

     total energy              =   -3434.73329637 Ry
     estimated scf accuracy    <       0.00000009 Ry

     iteration # 12     ecut=    60.00 Ry     beta= 0.30
     Davidson diagonalization with overlap
     ethr =  2.99E-11,  avg # of iterations =  5.3

     negative rho (up, down):  1.425E-03 0.000E+00

     total cpu time spent up to now is    10676.9 secs

     total energy              =   -3434.73329639 Ry
     estimated scf accuracy    <       0.00000007 Ry

     iteration # 13     ecut=    60.00 Ry     beta= 0.30
     Davidson diagonalization with overlap
     ethr =  2.52E-11,  avg # of iterations =  2.0

     negative rho (up, down):  1.425E-03 0.000E+00

     total cpu time spent up to now is    10837.2 secs

     total energy              =   -3434.73329640 Ry
     estimated scf accuracy    <          7.9E-09 Ry

     iteration # 14     ecut=    60.00 Ry     beta= 0.30
     Davidson diagonalization with overlap
     ethr =  2.73E-12,  avg # of iterations =  4.9

     negative rho (up, down):  1.426E-03 0.000E+00

     total cpu time spent up to now is    11018.0 secs

     total energy              =   -3434.73329640 Ry
     estimated scf accuracy    <       0.00000003 Ry

     iteration # 15     ecut=    60.00 Ry     beta= 0.30
     Davidson diagonalization with overlap
     ethr =  2.73E-12,  avg # of iterations =  2.0

     negative rho (up, down):  1.426E-03 0.000E+00

     total cpu time spent up to now is    11173.9 secs

     total energy              =   -3434.73329640 Ry
     estimated scf accuracy    <          2.3E-09 Ry

     iteration # 16     ecut=    60.00 Ry     beta= 0.30
     Davidson diagonalization with overlap
     ethr =  8.05E-13,  avg # of iterations =  2.0

     negative rho (up, down):  1.426E-03 0.000E+00

     total cpu time spent up to now is    11335.0 secs

     total energy              =   -3434.73329640 Ry
     estimated scf accuracy    <          8.3E-10 Ry

     iteration # 17     ecut=    60.00 Ry     beta= 0.30
     Davidson diagonalization with overlap
     ethr =  2.85E-13,  avg # of iterations =  4.1

     negative rho (up, down):  1.426E-03 0.000E+00

     total cpu time spent up to now is    11506.2 secs

     total energy              =   -3434.73329640 Ry
     estimated scf accuracy    <          2.1E-10 Ry

     iteration # 18     ecut=    60.00 Ry     beta= 0.30
     Davidson diagonalization with overlap
     ethr =  1.00E-13,  avg # of iterations =  2.8

     negative rho (up, down):  1.426E-03 0.000E+00

     total cpu time spent up to now is    11676.7 secs

     End of self-consistent calculation

          k = 0.0000 0.0000 0.0000 (237007 PWs)   bands (ev):

   -27.8146 -27.5829 -26.3423 -26.1374 -16.9726 -15.3788 -13.1486 -11.8096
   -10.8077 -10.1625 -10.1219 -10.0971  -9.6772  -9.6012  -9.3158  -9.3148
    -9.3145  -9.3110  -9.3104  -9.3083  -9.0055  -8.6577  -8.6111  -8.6099
    -8.6096  -8.6073  -8.6063  -8.6037  -8.1367  -7.5320  -7.5277  -7.5269
    -7.5256  -7.5251  -7.5241  -7.5204  -7.4331  -7.0268  -6.6355  -6.3699
    -6.3697  -6.3694  -6.3689  -6.3685  -6.3681  -6.2556  -6.1899  -6.0807
    -6.0633  -6.0628  -6.0615  -6.0588  -6.0582  -5.9565  -5.7543  -5.7054
    -5.6798  -5.6791  -5.6784  -5.6772  -5.6754  -5.6745  -5.6445  -5.5266
    -5.0814  -4.9378  -4.9368  -4.9364  -4.9120  -4.9116  -4.9104  -4.6201
    -4.6186  -4.6183  -4.6169  -4.6166  -4.6149  -4.2619  -4.2604  -4.2597
    -4.2285  -4.2271  -4.2261  -4.2095  -4.1926  -4.1910  -4.1895  -4.1876
    -4.1850  -4.1689  -3.5847  -3.3544  -3.3517  -3.3499  -3.2028  -3.1993
    -3.1988  -3.1973  -3.1964  -3.1952  -3.0834  -3.0801  -3.0765  -2.1883
    -2.1862  -2.1840  -2.1832  -2.1820  -2.1723  -1.8701  -1.8668  -1.8624
    -1.5058  -1.5039  -1.5032  -1.5015  -1.5004  -1.4984  -1.4242  -1.4213
    -1.4199  -1.2044  -0.7467  -0.7458  -0.7451  -0.7442  -0.7432  -0.7418
    -0.6253  -0.6248  -0.6224  -0.6217  -0.6199  -0.6191  -0.0762  -0.0752
    -0.0727  -0.0716  -0.0696  -0.0684   0.1393   0.1452   0.1478   0.1496
     0.1534   0.1633   0.1685   0.1710   0.1728   0.2283   0.2302   0.2314
     0.2320   0.2351   0.2362   0.2372   0.2397   0.2426   0.8060   0.8094
     0.8117   0.8123   0.8145   0.8194   0.9396   0.9411   0.9427   0.9434
     0.9446   0.9470   1.1327   1.3027   1.3054   1.3089

          k = 0.0000 0.2887 0.0000 (236896 PWs)   bands (ev):

   -27.8146 -27.5829 -26.3423 -26.1374 -16.9726 -15.3788 -13.1486 -11.8096
   -10.7137 -10.1625 -10.1217 -10.0039  -9.9647  -9.6772  -9.6013  -9.5918
    -9.5912  -9.2577  -8.9125  -8.8866  -8.8856  -8.8487  -8.8482  -8.6572
    -8.4785  -8.1717  -8.1467  -8.1460  -8.1348  -7.8021  -7.8004  -7.7773
    -7.4405  -7.4322  -7.3741  -7.3736  -7.0669  -7.0660  -7.0260  -6.7029
    -6.6995  -6.6779  -6.6773  -6.6348  -6.3389  -6.3366  -6.2789  -6.2781
    -6.2778  -6.2521  -6.1856  -5.9769  -5.7546  -5.7055  -5.6091  -5.6073
    -5.6070  -5.6034  -5.5885  -5.5871  -5.5866  -5.5543  -5.5534  -5.5531
    -5.5259  -5.2433  -5.1921  -5.1915  -5.0814  -4.8691  -4.8683  -4.8242
    -4.5332  -4.5290  -4.5286  -4.5081  -4.5071  -4.4626  -4.4579  -4.1921
    -4.1674  -4.1643  -4.1212  -4.1209  -3.8292  -3.8289  -3.7418  -3.7376
    -3.4969  -3.4679  -3.4659  -3.4546  -3.4536  -3.4255  -3.3859  -3.1480
    -3.1193  -3.1184  -2.7943  -2.7208  -2.6366  -2.6350  -2.4463  -2.4412
    -2.3681  -2.3673  -2.3478  -2.3441  -2.1152  -2.1129  -2.0694  -2.0673
    -2.0284  -2.0266  -1.7526  -1.7480  -1.6745  -1.6734  -1.6649  -1.5654
    -1.5632  -1.4180  -1.1167  -1.0010  -0.9857  -0.9837  -0.9601  -0.9563
    -0.8539  -0.8531  -0.6814  -0.6799  -0.5379  -0.5357  -0.4231  -0.4050
    -0.4019  -0.3812  -0.3795  -0.1505  -0.1501  -0.1484  -0.0920  -0.0898
    -0.0883  -0.0794   0.0646   0.1542   0.1597   0.4637   0.4713   0.5619
     0.5645   0.5916   0.5940   0.7596   0.7664   0.7821   0.7862   0.9508
     0.9529   0.9558   0.9567   1.1035   1.1049   1.1433   1.1440   1.2174
     1.2758   1.2797   1.2889   1.3248   1.3305   1.4530

          k = 0.0000-0.5773 0.0000 (236880 PWs)   bands (ev):

   -27.8146 -27.5829 -26.3423 -26.1374 -16.9726 -15.3788 -13.1486 -11.8096
   -10.4346 -10.4303 -10.1624 -10.1216  -9.7255  -9.7223  -9.6850  -9.6847
    -9.6763  -9.6012  -8.9793  -8.9784  -8.6582  -8.6352  -8.6314  -8.2024
    -8.2018  -8.2009  -8.2006  -8.1365  -7.8943  -7.8926  -7.5022  -7.5019
    -7.5014  -7.5008  -7.4661  -7.4652  -7.4336  -7.1629  -7.1618  -7.0264
    -6.7702  -6.7678  -6.6364  -6.4308  -6.4284  -6.4268  -6.4254  -6.4249
    -6.4236  -6.2526  -6.1857  -6.0083  -6.0076  -6.0042  -6.0034  -5.9744
    -5.7541  -5.7078  -5.6981  -5.6968  -5.5267  -5.3192  -5.3180  -5.3150
    -5.3146  -5.2833  -5.2790  -5.0820  -4.9751  -4.9725  -4.9723  -4.9692
    -4.5532  -4.5485  -4.2672  -4.2658  -4.2638  -4.2625  -4.2596  -4.2578
    -4.1903  -3.8651  -3.8645  -3.8352  -3.8348  -3.2361  -3.2307  -3.2032
    -3.2024  -3.1612  -3.1610  -3.1603  -3.1596  -3.1520  -3.1509  -3.1225
    -3.1210  -3.1192  -3.1160  -2.8876  -2.8862  -2.8852  -2.8835  -2.5335
    -2.5284  -2.4831  -2.4822  -2.4554  -2.4540  -2.4518  -2.4508  -2.3071
    -2.3051  -2.0398  -2.0378  -1.7083  -1.7039  -1.4020  -1.4002  -1.3985
    -1.3973  -1.1617  -1.1611  -1.1586  -1.1561  -1.0699  -1.0681  -0.9846
    -0.9785  -0.8925  -0.8908  -0.8575  -0.8513  -0.7538  -0.7528  -0.7493
    -0.7486  -0.4439  -0.4420  -0.4026  -0.4005  -0.3146  -0.3106  -0.1717
    -0.1617   0.0965   0.0974   0.0988   0.0995   0.1147   0.1167   0.3233
     0.3241   0.3258   0.3272   0.7959   0.7980   0.9947   0.9974   0.9989
     1.0000   1.0207   1.0227   1.0268   1.0271   1.4651   1.4709   1.4752
     1.4782   1.4842   1.4965   1.4993   1.5011   1.5134

          k = 0.2500-0.1443 0.0000 (236890 PWs)   bands (ev):

   -27.8146 -27.5829 -26.3423 -26.1374 -16.9726 -15.3788 -13.1486 -11.8096
   -10.7137 -10.1625 -10.1217 -10.0039  -9.9646  -9.6772  -9.6014  -9.5919
    -9.5912  -9.2577  -8.9125  -8.8866  -8.8857  -8.8487  -8.8482  -8.6571
    -8.4783  -8.1710  -8.1474  -8.1458  -8.1349  -7.8022  -7.8003  -7.7772
    -7.4403  -7.4323  -7.3741  -7.3735  -7.0673  -7.0655  -7.0260  -6.7036
    -6.7003  -6.6780  -6.6774  -6.6328  -6.3378  -6.3362  -6.2789  -6.2782
    -6.2779  -6.2532  -6.1865  -5.9766  -5.7546  -5.7055  -5.6092  -5.6075
    -5.6069  -5.6032  -5.5882  -5.5875  -5.5868  -5.5544  -5.5537  -5.5533
    -5.5255  -5.2436  -5.1920  -5.1913  -5.0809  -4.8691  -4.8688  -4.8240
    -4.5331  -4.5291  -4.5290  -4.5079  -4.5070  -4.4626  -4.4581  -4.1926
    -4.1678  -4.1632  -4.1212  -4.1209  -3.8295  -3.8291  -3.7419  -3.7376
    -3.4969  -3.4679  -3.4657  -3.4543  -3.4536  -3.4255  -3.3857  -3.1486
    -3.1193  -3.1188  -2.7940  -2.7185  -2.6381  -2.6350  -2.4463  -2.4417
    -2.3682  -2.3674  -2.3477  -2.3439  -2.1159  -2.1133  -2.0715  -2.0673
    -2.0281  -2.0254  -1.7525  -1.7483  -1.6724  -1.6714  -1.6619  -1.5670
    -1.5630  -1.4173  -1.1166  -1.0010  -0.9857  -0.9832  -0.9637  -0.9563
    -0.8545  -0.8532  -0.6787  -0.6771  -0.5384  -0.5355  -0.4229  -0.4068
    -0.4022  -0.3810  -0.3792  -0.1510  -0.1504  -0.1486  -0.0936  -0.0901
    -0.0883  -0.0797   0.0657   0.1523   0.1618   0.4643   0.4706   0.5615
     0.5643   0.5904   0.5946   0.7592   0.7683   0.7776   0.7839   0.9490
     0.9529   0.9557   0.9570   1.1049   1.1062   1.1418   1.1427   1.2166
     1.2739   1.2803   1.2898   1.3224   1.3298   1.4526

          k = 0.2500-0.7217 0.0000 (236847 PWs)   bands (ev):

   -27.8146 -27.5829 -26.3423 -26.1374 -16.9726 -15.3788 -13.1486 -11.8096
   -10.5261 -10.1628 -10.1533 -10.1496 -10.1214  -9.8170  -9.6772  -9.6013
    -9.4456  -9.4421  -9.0342  -9.0335  -8.7268  -8.6571  -8.3572  -8.3543
    -8.3309  -8.3302  -8.2937  -8.1363  -7.9268  -7.9233  -7.5934  -7.4341
    -7.2546  -7.2496  -7.2488  -7.2279  -7.2246  -7.1909  -7.1903  -7.0273
    -6.8863  -6.8855  -6.8254  -6.8246  -6.6351  -6.5170  -6.4961  -6.4939
    -6.2543  -6.1887  -6.1540  -6.1511  -6.1316  -6.1310  -5.9777  -5.7886
    -5.7863  -5.7504  -5.7052  -5.5272  -5.4276  -5.4267  -5.3724  -5.0850
    -5.0681  -5.0653  -5.0621  -5.0124  -5.0118  -5.0073  -5.0046  -4.7041
    -4.7030  -4.6679  -4.6411  -4.3320  -4.3299  -4.1920  -3.9956  -3.9916
    -3.9901  -3.9558  -3.9374  -3.9190  -3.9168  -3.6476  -3.6463  -3.5887
    -3.5850  -3.3211  -3.2983  -3.2972  -3.2673  -3.2059  -3.0885  -2.9728
    -2.9661  -2.9243  -2.9206  -2.8676  -2.8661  -2.8152  -2.5560  -2.5532
    -2.5372  -2.5186  -2.2605  -2.2245  -2.2235  -2.1232  -2.1196  -2.0810
    -2.0773  -1.9226  -1.9198  -1.9142  -1.8330  -1.6068  -1.5448  -1.5404
    -1.4649  -1.4576  -1.4433  -1.4396  -1.2370  -1.2347  -1.1607  -1.0376
    -1.0337  -0.9415  -0.7230  -0.7175  -0.6997  -0.6430  -0.6421  -0.6056
    -0.6018  -0.5984  -0.5888  -0.5157  -0.3629  -0.3617  -0.0581  -0.0550
    -0.0099  -0.0093   0.0437   0.0466   0.2504   0.2535   0.3705   0.3718
     0.3851   0.3954   0.4014   0.4564   0.6166   0.6217   0.7063   0.7076
     0.7252   0.8935   1.0402   1.0416   1.1072   1.1672   1.1767   1.3890
     1.4035   1.6367   1.6430   1.6450   1.7119   1.7321

          k =-0.5000 0.2887 0.0000 (236880 PWs)   bands (ev):

   -27.8146 -27.5829 -26.3423 -26.1374 -16.9726 -15.3788 -13.1486 -11.8096
   -10.4341 -10.4306 -10.1625 -10.1216  -9.7254  -9.7225  -9.6852  -9.6845
    -9.6763  -9.6013  -8.9794  -8.9785  -8.6583  -8.6347  -8.6317  -8.2021
    -8.2019  -8.2009  -8.2007  -8.1366  -7.8944  -7.8925  -7.5024  -7.5017
    -7.5014  -7.5007  -7.4658  -7.4651  -7.4337  -7.1630  -7.1617  -7.0266
    -6.7699  -6.7680  -6.6354  -6.4298  -6.4281  -6.4269  -6.4258  -6.4250
    -6.4235  -6.2534  -6.1866  -6.0082  -6.0074  -6.0048  -6.0041  -5.9739
    -5.7542  -5.7058  -5.6986  -5.6973  -5.5272  -5.3190  -5.3184  -5.3151
    -5.3150  -5.2835  -5.2790  -5.0827  -4.9748  -4.9735  -4.9705  -4.9692
    -4.5534  -4.5487  -4.2671  -4.2661  -4.2639  -4.2625  -4.2595  -4.2578
    -4.1905  -3.8651  -3.8644  -3.8350  -3.8346  -3.2366  -3.2299  -3.2038
    -3.2032  -3.1609  -3.1608  -3.1602  -3.1596  -3.1507  -3.1496  -3.1223
    -3.1212  -3.1191  -3.1159  -2.8874  -2.8855  -2.8853  -2.8834  -2.5336
    -2.5289  -2.4841  -2.4830  -2.4571  -2.4559  -2.4519  -2.4511  -2.3092
    -2.3070  -2.0364  -2.0342  -1.7056  -1.7019  -1.4045  -1.4035  -1.3984
    -1.3972  -1.1619  -1.1606  -1.1593  -1.1557  -1.0702  -1.0683  -0.9812
    -0.9755  -0.8889  -0.8869  -0.8591  -0.8495  -0.7534  -0.7523  -0.7498
    -0.7495  -0.4455  -0.4432  -0.4035  -0.4010  -0.3144  -0.3115  -0.1711
    -0.1626   0.0966   0.0980   0.0985   0.0998   0.1145   0.1156   0.3224
     0.3235   0.3258   0.3262   0.7913   0.7936   0.9944   0.9957   0.9995
     1.0011   1.0195   1.0208   1.0256   1.0267   1.4585   1.4745   1.4758
     1.4811   1.4839   1.4962   1.4991   1.5014   1.5134

          k =-0.5000 0.5773 0.0000 (236845 PWs)   bands (ev):

   -27.8146 -27.5829 -26.3423 -26.1374 -16.9726 -15.3788 -13.1486 -11.8096
   -10.5261 -10.1629 -10.1536 -10.1493 -10.1215  -9.8171  -9.6772  -9.6014
    -9.4457  -9.4420  -9.0346  -9.0333  -8.7268  -8.6570  -8.3572  -8.3543
    -8.3308  -8.3305  -8.2935  -8.1362  -7.9271  -7.9228  -7.5932  -7.4341
    -7.2549  -7.2495  -7.2486  -7.2279  -7.2244  -7.1912  -7.1904  -7.0273
    -6.8867  -6.8850  -6.8256  -6.8244  -6.6353  -6.5165  -6.4965  -6.4940
    -6.2547  -6.1895  -6.1541  -6.1493  -6.1314  -6.1308  -5.9784  -5.7899
    -5.7853  -5.7505  -5.7051  -5.5275  -5.4275  -5.4266  -5.3725  -5.0878
    -5.0682  -5.0658  -5.0585  -5.0126  -5.0118  -5.0078  -5.0042  -4.7040
    -4.7026  -4.6680  -4.6414  -4.3324  -4.3297  -4.1918  -3.9949  -3.9920
    -3.9902  -3.9571  -3.9371  -3.9196  -3.9167  -3.6481  -3.6459  -3.5889
    -3.5844  -3.3210  -3.2983  -3.2972  -3.2670  -3.2057  -3.0867  -2.9722
    -2.9667  -2.9243  -2.9204  -2.8678  -2.8657  -2.8185  -2.5563  -2.5538
    -2.5372  -2.5191  -2.2601  -2.2235  -2.2227  -2.1217  -2.1195  -2.0792
    -2.0772  -1.9226  -1.9203  -1.9138  -1.8343  -1.6103  -1.5426  -1.5404
    -1.4614  -1.4575  -1.4459  -1.4416  -1.2359  -1.2333  -1.1593  -1.0361
    -1.0338  -0.9414  -0.7265  -0.7205  -0.7015  -0.6429  -0.6421  -0.6037
    -0.6019  -0.5966  -0.5902  -0.5132  -0.3622  -0.3617  -0.0582  -0.0542
    -0.0086  -0.0080   0.0436   0.0468   0.2503   0.2524   0.3709   0.3730
     0.3831   0.3958   0.4008   0.4573   0.6139   0.6190   0.7060   0.7081
     0.7209   0.8936   1.0405   1.0416   1.1099   1.1663   1.1734   1.3877
     1.4029   1.6374   1.6438   1.6445   1.7193   1.7318

          k =-0.2500-0.1443 0.0000 (236890 PWs)   bands (ev):

   -27.8146 -27.5829 -26.3423 -26.1374 -16.9726 -15.3788 -13.1486 -11.8096
   -10.7137 -10.1625 -10.1217 -10.0039  -9.9646  -9.6773  -9.6014  -9.5919
    -9.5912  -9.2577  -8.9125  -8.8866  -8.8857  -8.8487  -8.8482  -8.6572
    -8.4783  -8.1711  -8.1474  -8.1457  -8.1348  -7.8022  -7.8003  -7.7772
    -7.4403  -7.4323  -7.3740  -7.3735  -7.0669  -7.0661  -7.0259  -6.7037
    -6.7003  -6.6781  -6.6773  -6.6328  -6.3384  -6.3358  -6.2789  -6.2783
    -6.2779  -6.2528  -6.1866  -5.9769  -5.7544  -5.7055  -5.6093  -5.6077
    -5.6066  -5.6034  -5.5883  -5.5873  -5.5869  -5.5542  -5.5537  -5.5533
    -5.5254  -5.2436  -5.1919  -5.1914  -5.0808  -4.8690  -4.8687  -4.8239
    -4.5331  -4.5292  -4.5289  -4.5079  -4.5070  -4.4629  -4.4579  -4.1925
    -4.1676  -4.1634  -4.1209  -4.1208  -3.8295  -3.8292  -3.7420  -3.7375
    -3.4969  -3.4680  -3.4659  -3.4538  -3.4536  -3.4260  -3.3858  -3.1499
    -3.1191  -3.1187  -2.7940  -2.7163  -2.6381  -2.6366  -2.4466  -2.4416
    -2.3688  -2.3680  -2.3478  -2.3438  -2.1170  -2.1144  -2.0716  -2.0694
    -2.0263  -2.0254  -1.7528  -1.7482  -1.6701  -1.6690  -1.6588  -1.5668
    -1.5649  -1.4168  -1.1166  -1.0016  -0.9844  -0.9828  -0.9637  -0.9601
    -0.8545  -0.8536  -0.6755  -0.6740  -0.5380  -0.5359  -0.4229  -0.4074
    -0.4040  -0.3799  -0.3791  -0.1512  -0.1507  -0.1494  -0.0949  -0.0911
    -0.0880  -0.0793   0.0664   0.1547   0.1596   0.4638   0.4712   0.5617
     0.5647   0.5913   0.5933   0.7583   0.7699   0.7746   0.7785   0.9493
     0.9514   0.9562   0.9565   1.1058   1.1071   1.1403   1.1406   1.2167
     1.2748   1.2784   1.2891   1.3217   1.3281   1.4528

          k =-0.2500-0.7217 0.0000 (236847 PWs)   bands (ev):

   -27.8146 -27.5829 -26.3423 -26.1374 -16.9726 -15.3788 -13.1486 -11.8096
   -10.5261 -10.1628 -10.1531 -10.1498 -10.1214  -9.8171  -9.6772  -9.6013
    -9.4453  -9.4424  -9.0341  -9.0336  -8.7268  -8.6571  -8.3569  -8.3546
    -8.3307  -8.3303  -8.2937  -8.1363  -7.9266  -7.9235  -7.5934  -7.4341
    -7.2549  -7.2493  -7.2489  -7.2276  -7.2250  -7.1910  -7.1901  -7.0273
    -6.8867  -6.8851  -6.8253  -6.8247  -6.6351  -6.5169  -6.4965  -6.4935
    -6.2545  -6.1882  -6.1539  -6.1512  -6.1315  -6.1310  -5.9787  -5.7878
    -5.7849  -5.7520  -5.7052  -5.5272  -5.4279  -5.4264  -5.3724  -5.0844
    -5.0679  -5.0656  -5.0625  -5.0126  -5.0116  -5.0070  -5.0049  -4.7040
    -4.7031  -4.6682  -4.6411  -4.3324  -4.3294  -4.1920  -3.9968  -3.9917
    -3.9901  -3.9547  -3.9373  -3.9185  -3.9172  -3.6471  -3.6467  -3.5882
    -3.5850  -3.3212  -3.2983  -3.2972  -3.2671  -3.2058  -3.0912  -2.9724
    -2.9665  -2.9235  -2.9207  -2.8674  -2.8659  -2.8114  -2.5543  -2.5532
    -2.5375  -2.5183  -2.2606  -2.2258  -2.2250  -2.1232  -2.1214  -2.0810
    -2.0792  -1.9220  -1.9200  -1.9149  -1.8318  -1.6028  -1.5448  -1.5426
    -1.4649  -1.4612  -1.4410  -1.4375  -1.2392  -1.2353  -1.1632  -1.0378
    -1.0346  -0.9416  -0.7187  -0.7154  -0.6979  -0.6422  -0.6421  -0.6058
    -0.6035  -0.5972  -0.5898  -0.5185  -0.3626  -0.3618  -0.0598  -0.0554
    -0.0115  -0.0107   0.0434   0.0473   0.2519   0.2536   0.3689   0.3705
     0.3859   0.3965   0.4008   0.4550   0.6199   0.6243   0.7071   0.7075
     0.7306   0.8934   1.0401   1.0419   1.1035   1.1705   1.1777   1.3889
     1.4052   1.6400   1.6415   1.6426   1.7110   1.7350

          k = 0.5000 0.2887 0.0000 (236880 PWs)   bands (ev):

   -27.8146 -27.5829 -26.3423 -26.1374 -16.9726 -15.3788 -13.1486 -11.8096
   -10.4339 -10.4308 -10.1624 -10.1216  -9.7250  -9.7227  -9.6853  -9.6850
    -9.6761  -9.6013  -8.9794  -8.9785  -8.6584  -8.6349  -8.6315  -8.2022
    -8.2015  -8.2011  -8.2008  -8.1366  -7.8944  -7.8924  -7.5022  -7.5017
    -7.5016  -7.5007  -7.4659  -7.4650  -7.4337  -7.1629  -7.1618  -7.0266
    -6.7704  -6.7675  -6.6354  -6.4305  -6.4280  -6.4261  -6.4259  -6.4246
    -6.4240  -6.2532  -6.1866  -6.0078  -6.0073  -6.0046  -6.0044  -5.9748
    -5.7536  -5.7061  -5.6989  -5.6970  -5.5272  -5.3185  -5.3183  -5.3156
    -5.3151  -5.2830  -5.2795  -5.0825  -4.9742  -4.9741  -4.9702  -4.9695
    -4.5537  -4.5485  -4.2663  -4.2662  -4.2636  -4.2635  -4.2597  -4.2576
    -4.1904  -3.8653  -3.8647  -3.8351  -3.8348  -3.2362  -3.2303  -3.2050
    -3.2044  -3.1609  -3.1605  -3.1597  -3.1594  -3.1496  -3.1485  -3.1221
    -3.1215  -3.1182  -3.1165  -2.8863  -2.8852  -2.8841  -2.8834  -2.5339
    -2.5288  -2.4854  -2.4845  -2.4575  -2.4563  -2.4539  -2.4529  -2.3120
    -2.3099  -2.0324  -2.0302  -1.7033  -1.6998  -1.4044  -1.4036  -1.4015
    -1.4003  -1.1622  -1.1607  -1.1583  -1.1566  -1.0699  -1.0680  -0.9769
    -0.9734  -0.8845  -0.8826  -0.8582  -0.8503  -0.7524  -0.7522  -0.7503
    -0.7488  -0.4468  -0.4447  -0.4046  -0.4022  -0.3160  -0.3119  -0.1718
    -0.1621   0.0979   0.0980   0.0989   0.0996   0.1127   0.1144   0.3222
     0.3234   0.3252   0.3258   0.7863   0.7886   0.9955   0.9967   0.9987
     1.0012   1.0192   1.0198   1.0232   1.0265   1.4575   1.4749   1.4778
     1.4803   1.4831   1.4969   1.4983   1.5021   1.5136

     the Fermi energy is     0.0071 ev

!    total energy              =   -3434.73329640 Ry
     estimated scf accuracy    <          9.9E-11 Ry
     smearing contrib. (-TS)   =      -0.00797481 Ry
     internal energy E=F+TS    =   -3434.72532159 Ry

     The total energy is F=E-TS. E is the sum of the following terms:
     one-electron contribution =  -11742.28493928 Ry
     hartree contribution      =    5943.86896013 Ry
     xc contribution           =    -264.06452648 Ry
     ewald contribution        =    5426.62641288 Ry
     one-center paw contrib.   =   -2798.87122884 Ry

     convergence has been achieved in  18 iterations

     negative rho (up, down):  1.426E-03 0.000E+00

     Forces acting on atoms (cartesian axes, Ry/au):

     atom    1 type  1   force =    -0.00010313   -0.00011062   -0.00028793
     atom    2 type  1   force =     0.00013701    0.00002541    0.00044631
     atom    3 type  1   force =    -0.00017311    0.00008060    0.00063866
     atom    4 type  1   force =     0.00001160   -0.00005636    0.00013187
     atom    5 type  1   force =     0.00013342    0.00008441    0.00045813
     atom    6 type  1   force =     0.00004562    0.00004394    0.00133640
     atom    7 type  1   force =    -0.00023817    0.00009655    0.00109770
     atom    8 type  1   force =    -0.00007189   -0.00007394    0.00019692
     atom    9 type  1   force =    -0.00003445   -0.00026314    0.00053582
     atom   10 type  1   force =    -0.00003612   -0.00033405    0.00090072
     atom   11 type  1   force =    -0.00003888   -0.00010250    0.00023381
     atom   12 type  1   force =    -0.00002234   -0.00004761   -0.00012592
     atom   13 type  1   force =    -0.00001878    0.00001565    0.00002897
     atom   14 type  1   force =    -0.00007118   -0.00002647    0.00003111
     atom   15 type  1   force =    -0.00000522   -0.00004284   -0.00009330
     atom   16 type  1   force =    -0.00002300   -0.00004572   -0.00011404
     atom   17 type  1   force =     0.00009462   -0.00014348    0.00066943
     atom   18 type  1   force =     0.00008865   -0.00004289    0.00012687
     atom   19 type  1   force =    -0.00015399   -0.00010812   -0.00009548
     atom   20 type  1   force =    -0.00016918   -0.00009712    0.00036823
     atom   21 type  1   force =    -0.00014739   -0.00010787    0.00044847
     atom   22 type  1   force =    -0.00004560   -0.00018197    0.00039915
     atom   23 type  1   force =     0.00017605   -0.00021844    0.00037517
     atom   24 type  1   force =    -0.00004148    0.00005322    0.00059296
     atom   25 type  1   force =    -0.00015834    0.00002549    0.00038371
     atom   26 type  1   force =     0.00004003    0.00003050    0.00057932
     atom   27 type  1   force =    -0.00002285    0.00005019    0.00016608
     atom   28 type  1   force =     0.00001196    0.00003589    0.00005570
     atom   29 type  1   force =    -0.00006394    0.00020312    0.00023977
     atom   30 type  1   force =     0.00003279   -0.00004447    0.00007838
     atom   31 type  1   force =     0.00003284   -0.00003207   -0.00015761
     atom   32 type  1   force =    -0.00014251   -0.00011602   -0.00015848
     atom   33 type  1   force =     0.00013932    0.00014838    0.00039235
     atom   34 type  1   force =     0.00008981   -0.00015451   -0.00010753
     atom   35 type  1   force =    -0.00022893   -0.00001873    0.00007294
     atom   36 type  1   force =     0.00003583    0.00005556    0.00017144
     atom   37 type  1   force =     0.00048530    0.00025004   -0.00039745
     atom   38 type  1   force =    -0.00019977    0.00013974   -0.00094343
     atom   39 type  1   force =    -0.00043420    0.00025582    0.00013166
     atom   40 type  1   force =     0.00016929    0.00008261    0.00034077
     atom   41 type  1   force =    -0.00009305   -0.00028539   -0.00088783
     atom   42 type  1   force =     0.00001566   -0.00000414   -0.00046708
     atom   43 type  1   force =     0.00011497    0.00013275   -0.00008828
     atom   44 type  1   force =    -0.00012605    0.00015727   -0.00019291
     atom   45 type  1   force =     0.00000647   -0.00053333    0.00030398
     atom   46 type  1   force =     0.00018691   -0.00003078   -0.00002972
     atom   47 type  1   force =    -0.00009381   -0.00008183    0.00015007
     atom   48 type  1   force =    -0.00010582   -0.00023113    0.00004261
     atom   49 type  1   force =    -0.00008387    0.00001915    0.00044758
     atom   50 type  1   force =     0.00015419    0.00016277   -0.00008099
     atom   51 type  1   force =    -0.00009038    0.00019458   -0.00026030
     atom   52 type  1   force =     0.00002443    0.00005459   -0.00004361
     atom   53 type  1   force =     0.00024214    0.00011363   -0.00010338
     atom   54 type  1   force =     0.00004140    0.00001658   -0.00005205
     atom   55 type  1   force =    -0.00014868    0.00011297   -0.00017330
     atom   56 type  1   force =    -0.00009467    0.00013241    0.00017122
     atom   57 type  1   force =     0.00009228   -0.00017125   -0.00023916
     atom   58 type  1   force =    -0.00002340   -0.00023881   -0.00015474
     atom   59 type  1   force =    -0.00001045   -0.00009959   -0.00019642
     atom   60 type  1   force =     0.00010881   -0.00004172    0.00022479
     atom   61 type  1   force =     0.00001006    0.00006464    0.00012401
     atom   62 type  1   force =     0.00002199   -0.00000391    0.00022825
     atom   63 type  1   force =    -0.00002362    0.00008375    0.00026532
     atom   64 type  1   force =     0.00011505    0.00010413    0.00030194
     atom   65 type  1   force =    -0.00020391    0.00029838   -0.00011971
     atom   66 type  1   force =    -0.00001331   -0.00012624   -0.00041614
     atom   67 type  1   force =    -0.00005723   -0.00042988   -0.00058986
     atom   68 type  1   force =     0.00028769    0.00023201   -0.00032753
     atom   69 type  1   force =     0.00003872    0.00000656   -0.00053016
     atom   70 type  1   force =     0.00007764    0.00006304   -0.00074173
     atom   71 type  1   force =     0.00000699    0.00008283   -0.00095601
     atom   72 type  1   force =     0.00009665   -0.00023875   -0.00028420
     atom   73 type  1   force =     0.00006254    0.00009884   -0.00067342
     atom   74 type  1   force =    -0.00002952   -0.00007057   -0.00081430
     atom   75 type  1   force =     0.00015122    0.00019403   -0.00079387
     atom   76 type  1   force =    -0.00008559    0.00025347   -0.00051205
     atom   77 type  1   force =    -0.00001102    0.00001367   -0.00088287
     atom   78 type  1   force =     0.00030834    0.00019356   -0.00088961
     atom   79 type  1   force =     0.00024558    0.00015919   -0.00030689
     atom   80 type  1   force =    -0.00028938    0.00021015   -0.00054730
     atom   81 type  2   force =    -0.00070835   -0.00069541    0.00026678
     atom   82 type  2   force =     0.00019854    0.00047952   -0.00188786
     atom   83 type  3   force =    -0.00010739    0.00007652    0.00019781
     atom   84 type  3   force =    -0.00030431   -0.00251562    0.00046125
     atom   85 type  3   force =     0.00143477    0.00104337   -0.00008203
     atom   86 type  2   force =     0.00014474   -0.00073816    0.00030524
     atom   87 type  4   force =    -0.00070755    0.00025711    0.00061658
     atom   88 type  3   force =    -0.00015806   -0.00099278    0.00081487
     atom   89 type  2   force =     0.00071465    0.00016760    0.00030888
     atom   90 type  4   force =    -0.00014261    0.00242945   -0.00093323
     atom   91 type  3   force =     0.00013154    0.00085139   -0.00068248
     atom   92 type  4   force =    -0.00072058   -0.00038251   -0.00061818
     atom   93 type  4   force =    -0.00033580    0.00110927    0.00020971
     atom   94 type  3   force =     0.00065475   -0.00096557    0.00197064

     Total force =     0.007407     Total SCF correction =     0.000018


     Computing stress (Cartesian axis) and pressure


     negative rho (up, down):  1.426E-03 0.000E+00
          total   stress  (Ry/bohr**3)                   (kbar)     P=       -7.29
  -0.00007216   0.00000018   0.00000073          -10.61        0.03        0.11
   0.00000018  -0.00007207   0.00000044            0.03      -10.60        0.06
   0.00000073   0.00000044  -0.00000446            0.11        0.06       -0.66

     Energy error            =      1.1E-04 Ry
     Gradient error          =      2.5E-03 Ry/Bohr

     number of scf cycles    =  38
     number of bfgs steps    =  37

     energy             old  =   -3434.7331845336 Ry
     energy             new  =   -3434.7332964027 Ry

     CASE: energy            _new < energy            _old

     new trust radius        =       0.0756775978 bohr
     new conv_thr            =       0.0000000001 Ry


ATOMIC_POSITIONS (angstrom)
Al              11.4557108089        1.6532026118       14.8157956810
Al               2.8635314738        1.6512962449       14.8077575861
Al               5.7277415278        1.6507138004       14.8051258703
Al               8.5903684187        1.6520995470       14.8107572933
Al              12.8859744862        4.1334279170       14.8067958911
Al               4.2947733489        4.1320075301       14.7957433252
Al               7.1609137129        4.1323262493       14.7984314947
Al              10.0237091393        4.1342035811       14.8116165535
Al              14.3179783779        6.6136534892       14.8079607766
Al               5.7280677621        6.6144364556       14.8015952250
Al               8.5915894737        6.6133413798       14.8138680578
Al              11.4551679602        6.6132101871       14.8211765694
Al              15.7500146845        9.0921712619       14.8127449230
Al               7.1604614542        9.0923533855       14.8133489264
Al              10.0235026385        9.0926876483       14.8205961689
Al              12.8862873350        9.0924713149       14.8186060183
Al              -0.0026107579       -0.0046419498       17.1759805980
Al               2.8619606992       -0.0029751995       17.1815701482
Al               5.7265149461       -0.0006137400       17.1844899730
Al               8.5893240983       -0.0034765795       17.1796933513
Al               1.4326302234        2.4784270484       17.1754580132
Al               4.2944716677        2.4793816608       17.1781696229
Al               7.1548130886        2.4792289937       17.1765318739
Al              10.0198360861        2.4771298338       17.1762452572
Al               2.8645936698        4.9554828893       17.1789907474
Al               5.7248923064        4.9553362895       17.1776785054
Al               8.5866991235        4.9551516424       17.1804701835
Al              11.4541014411        4.9561760805       17.1823377739
Al               4.2947134035        7.4328960357       17.1783815553
Al               7.1554887023        7.4343398515       17.1806635169
Al              10.0200096915        7.4359562593       17.1876082539
Al              12.8877952424        7.4355157434       17.1856345324
Al               1.4270879325        0.8182440750       19.5182211225
Al               4.2907956086        0.8230060611       19.5267446718
Al               7.1554238321        0.8209328769       19.5247579693
Al              10.0175828887        0.8184127127       19.5192715715
Al               2.8572884833        3.2984452486       19.5276342739
Al               5.7243093053        3.2986289418       19.5315054038
Al               8.5874774285        3.2975219153       19.5232571731
Al              11.4500635874        3.2987671710       19.5193623063
Al               4.2922965888        5.7802081384       19.5315616720
Al               7.1528827186        5.7778526017       19.5303684292
Al              10.0162453355        5.7771480033       19.5262356722
Al              12.8853392554        5.7763623868       19.5285752640
Al               5.7226871564        8.2608307596       19.5212336960
Al               8.5843261798        8.2586490874       19.5247089180
Al              11.4513146076        8.2599722976       19.5229521994
Al              14.3155447578        8.2594768827       19.5240916878
Al              11.4487279477        1.6414980428       21.8641229228
Al               2.8564329638        1.6416540932       21.8724728972
Al               5.7215366741        1.6419149237       21.8776156586
Al               8.5821561052        1.6418363521       21.8726788467
Al              12.8789855771        4.1209425524       21.8747459953
Al               4.2891605884        4.1217827837       21.8717128957
Al               7.1533652343        4.1210237226       21.8765423544
Al              10.0150677204        4.1206492507       21.8712606649
Al              14.3117706236        6.6026427595       21.8765908038
Al               5.7206262127        6.6034096002       21.8765494358
Al               8.5816626933        6.6012172454       21.8768188931
Al              11.4468920819        6.6008231241       21.8704792512
Al              15.7433660222        9.0797277599       21.8696468400
Al               7.1521468349        9.0800321391       21.8696722122
Al              10.0160021254        9.0825369582       21.8687316840
Al              12.8790626932        9.0816903358       21.8699365571
Al              -0.0080341366       -0.0178013104       24.2359688625
Al               2.8547279203       -0.0158469138       24.2417821945
Al               5.7187394460       -0.0133180813       24.2452661363
Al               8.5800043443       -0.0175431005       24.2422241155
Al               1.4210371236        2.4635383364       24.2439868009
Al               4.2849728296        2.4646505530       24.2442529535
Al               7.1498215593        2.4646121678       24.2542623131
Al              10.0130641458        2.4651578214       24.2397284580
Al               2.8537574906        4.9436948440       24.2409160127
Al               5.7178698852        4.9445352859       24.2429304321
Al               8.5811524024        4.9431224887       24.2513783886
Al              11.4450940255        4.9434228448       24.2459087924
Al               4.2859790808        7.4250537511       24.2525483631
Al               7.1479214481        7.4241915160       24.2549446911
Al              10.0118209523        7.4244978021       24.2411650341
Al              12.8781182953        7.4242270761       24.2446692746
C                3.3076190881        4.7672740020       29.3107428139
C                4.7109915103        4.9878987140       28.7907568249
H                2.6014347468        4.9268100817       28.4867553097
H                3.1984485263        3.7432742106       29.6837888677
H                3.0768773927        5.4662291617       30.1234850330
C                5.8210105637        4.8063842280       29.8260769993
F                4.9268524884        4.1186418597       27.7229451487
H                5.6925889791        3.8231282969       30.2996054060
C                7.2656708383        4.8838490934       29.3505955140
F                4.7842854851        6.2709811532       28.2561542726
H                5.6804278573        5.5631469375       30.6102006522
F                7.5243460837        6.0379911492       28.6392231484
F                7.5815511459        3.8159510970       28.5313173935
H                7.9674740329        4.8592096371       30.2011607129



     Writing config-only to output data dir ./tmp/al_pvdf.save/ :
     XML data file
     NEW-OLD atomic charge density approx. for the potential

     negative rho (up, down):  1.300E-03 0.000E+00

     total cpu time spent up to now is    11946.4 secs

     Self-consistent Calculation

     iteration #  1     ecut=    60.00 Ry     beta= 0.30
     Davidson diagonalization with overlap
     ethr =  1.00E-06,  avg # of iterations =  6.0

     negative rho (up, down):  1.325E-03 0.000E+00

     total cpu time spent up to now is    12211.7 secs

     total energy              =   -3434.73322008 Ry
     estimated scf accuracy    <       0.00369016 Ry

     iteration #  2     ecut=    60.00 Ry     beta= 0.30
     Davidson diagonalization with overlap
     ethr =  1.27E-06,  avg # of iterations =  2.1

     negative rho (up, down):  1.359E-03 0.000E+00

     total cpu time spent up to now is    12395.1 secs

     total energy              =   -3434.73206602 Ry
     estimated scf accuracy    <       0.03380226 Ry

     iteration #  3     ecut=    60.00 Ry     beta= 0.30
     Davidson diagonalization with overlap
     ethr =  1.27E-06,  avg # of iterations =  5.4

     negative rho (up, down):  1.369E-03 0.000E+00

     total cpu time spent up to now is    12606.3 secs

     total energy              =   -3434.73302014 Ry
     estimated scf accuracy    <       0.01558937 Ry

     iteration #  4     ecut=    60.00 Ry     beta= 0.30
     Davidson diagonalization with overlap
     ethr =  1.27E-06,  avg # of iterations =  2.0

     negative rho (up, down):  1.384E-03 0.000E+00

     total cpu time spent up to now is    12795.0 secs

     total energy              =   -3434.73329745 Ry
     estimated scf accuracy    <       0.00085413 Ry

     iteration #  5     ecut=    60.00 Ry     beta= 0.30
     Davidson diagonalization with overlap
     ethr =  2.95E-07,  avg # of iterations =  4.1

     negative rho (up, down):  1.396E-03 0.000E+00

     total cpu time spent up to now is    13002.0 secs

     total energy              =   -3434.73335998 Ry
     estimated scf accuracy    <       0.00058961 Ry

     iteration #  6     ecut=    60.00 Ry     beta= 0.30
     Davidson diagonalization with overlap
     ethr =  2.03E-07,  avg # of iterations =  2.2

     negative rho (up, down):  1.409E-03 0.000E+00

     total cpu time spent up to now is    13190.0 secs

     total energy              =   -3434.73340972 Ry
     estimated scf accuracy    <       0.00009615 Ry

     iteration #  7     ecut=    60.00 Ry     beta= 0.30
     Davidson diagonalization with overlap
     ethr =  3.32E-08,  avg # of iterations =  2.0

     negative rho (up, down):  1.414E-03 0.000E+00

     total cpu time spent up to now is    13385.0 secs

     total energy              =   -3434.73341715 Ry
     estimated scf accuracy    <       0.00001463 Ry

     iteration #  8     ecut=    60.00 Ry     beta= 0.30
     Davidson diagonalization with overlap
     ethr =  5.04E-09,  avg # of iterations =  4.7

     negative rho (up, down):  1.418E-03 0.000E+00

     total cpu time spent up to now is    13610.2 secs

     total energy              =   -3434.73341913 Ry
     estimated scf accuracy    <       0.00000653 Ry

     iteration #  9     ecut=    60.00 Ry     beta= 0.30
     Davidson diagonalization with overlap
     ethr =  2.25E-09,  avg # of iterations =  2.6

     negative rho (up, down):  1.420E-03 0.000E+00

     total cpu time spent up to now is    13837.7 secs

     total energy              =   -3434.73341987 Ry
     estimated scf accuracy    <       0.00000140 Ry

     iteration # 10     ecut=    60.00 Ry     beta= 0.30
     Davidson diagonalization with overlap
     ethr =  4.83E-10,  avg # of iterations =  5.0

     negative rho (up, down):  1.422E-03 0.000E+00

     total cpu time spent up to now is    14068.5 secs

     total energy              =   -3434.73342015 Ry
     estimated scf accuracy    <       0.00000046 Ry

     iteration # 11     ecut=    60.00 Ry     beta= 0.30
     Davidson diagonalization with overlap
     ethr =  1.60E-10,  avg # of iterations =  3.9

     negative rho (up, down):  1.423E-03 0.000E+00

     total cpu time spent up to now is    14278.3 secs

     total energy              =   -3434.73342018 Ry
     estimated scf accuracy    <       0.00000012 Ry

     iteration # 12     ecut=    60.00 Ry     beta= 0.30
     Davidson diagonalization with overlap
     ethr =  4.07E-11,  avg # of iterations =  5.1

     negative rho (up, down):  1.424E-03 0.000E+00

     total cpu time spent up to now is    14525.3 secs

     total energy              =   -3434.73342021 Ry
     estimated scf accuracy    <       0.00000006 Ry

     iteration # 13     ecut=    60.00 Ry     beta= 0.30
     Davidson diagonalization with overlap
     ethr =  2.05E-11,  avg # of iterations =  2.8

     negative rho (up, down):  1.424E-03 0.000E+00

     total cpu time spent up to now is    14736.6 secs

     total energy              =   -3434.73342021 Ry
     estimated scf accuracy    <       0.00000007 Ry

     iteration # 14     ecut=    60.00 Ry     beta= 0.30
     Davidson diagonalization with overlap
     ethr =  2.05E-11,  avg # of iterations =  2.0

     negative rho (up, down):  1.425E-03 0.000E+00

     total cpu time spent up to now is    14932.2 secs

     total energy              =   -3434.73342021 Ry
     estimated scf accuracy    <       0.00000017 Ry

     iteration # 15     ecut=    60.00 Ry     beta= 0.30
     Davidson diagonalization with overlap
     ethr =  2.05E-11,  avg # of iterations =  1.5

     negative rho (up, down):  1.425E-03 0.000E+00

     total cpu time spent up to now is    15109.0 secs

     total energy              =   -3434.73342022 Ry
     estimated scf accuracy    <       0.00000001 Ry

     iteration # 16     ecut=    60.00 Ry     beta= 0.30
     Davidson diagonalization with overlap
     ethr =  4.13E-12,  avg # of iterations =  2.0

     negative rho (up, down):  1.425E-03 0.000E+00

     total cpu time spent up to now is    15294.5 secs

     total energy              =   -3434.73342022 Ry
     estimated scf accuracy    <          8.5E-10 Ry

     iteration # 17     ecut=    60.00 Ry     beta= 0.30
     Davidson diagonalization with overlap
     ethr =  2.92E-13,  avg # of iterations =  5.6

     negative rho (up, down):  1.425E-03 0.000E+00

     total cpu time spent up to now is    15570.1 secs

     total energy              =   -3434.73342022 Ry
     estimated scf accuracy    <          1.1E-09 Ry

     iteration # 18     ecut=    60.00 Ry     beta= 0.30
     Davidson diagonalization with overlap
     ethr =  2.92E-13,  avg # of iterations =  2.0

     negative rho (up, down):  1.426E-03 0.000E+00

     total cpu time spent up to now is    15724.2 secs

     End of self-consistent calculation

          k = 0.0000 0.0000 0.0000 (237007 PWs)   bands (ev):

   -27.8177 -27.5812 -26.3377 -26.1293 -16.9652 -15.3701 -13.1407 -11.8048
   -10.8116 -10.1569 -10.1204 -10.0998  -9.6710  -9.5964  -9.3179  -9.3177
    -9.3168  -9.3160  -9.3157  -9.3147  -9.0078  -8.6545  -8.6126  -8.6118
    -8.6109  -8.6107  -8.6100  -8.6083  -8.1351  -7.5338  -7.5296  -7.5289
    -7.5278  -7.5271  -7.5262  -7.5239  -7.4246  -7.0131  -6.6366  -6.3739
    -6.3736  -6.3732  -6.3729  -6.3726  -6.3723  -6.2530  -6.1888  -6.0808
    -6.0654  -6.0646  -6.0634  -6.0613  -6.0591  -5.9544  -5.7479  -5.6961
    -5.6824  -5.6820  -5.6808  -5.6792  -5.6788  -5.6778  -5.6449  -5.5153
    -5.0753  -4.9417  -4.9409  -4.9404  -4.9160  -4.9156  -4.9143  -4.6223
    -4.6211  -4.6209  -4.6191  -4.6189  -4.6174  -4.2648  -4.2633  -4.2625
    -4.2312  -4.2298  -4.2288  -4.2075  -4.1928  -4.1910  -4.1895  -4.1877
    -4.1840  -4.1684  -3.5858  -3.3568  -3.3542  -3.3524  -3.2043  -3.2017
    -3.2012  -3.1989  -3.1987  -3.1972  -3.0857  -3.0825  -3.0788  -2.1893
    -2.1868  -2.1850  -2.1841  -2.1824  -2.1747  -1.8722  -1.8689  -1.8643
    -1.5064  -1.5052  -1.5042  -1.5020  -1.5010  -1.4989  -1.4262  -1.4230
    -1.4218  -1.2037  -0.7499  -0.7493  -0.7485  -0.7481  -0.7479  -0.7466
    -0.6290  -0.6284  -0.6258  -0.6254  -0.6245  -0.6225  -0.0788  -0.0785
    -0.0762  -0.0743  -0.0720  -0.0708   0.1394   0.1457   0.1483   0.1497
     0.1551   0.1631   0.1683   0.1707   0.1730   0.2281   0.2290   0.2294
     0.2315   0.2337   0.2344   0.2352   0.2372   0.2403   0.8050   0.8083
     0.8102   0.8106   0.8128   0.8181   0.9367   0.9385   0.9408   0.9413
     0.9428   0.9448   1.1335   1.3003   1.3032   1.3068

          k = 0.0000 0.2887 0.0000 (236896 PWs)   bands (ev):

   -27.8177 -27.5812 -26.3376 -26.1293 -16.9652 -15.3701 -13.1407 -11.8048
   -10.7177 -10.1569 -10.1200 -10.0067  -9.9686  -9.6710  -9.5967  -9.5958
    -9.5949  -9.2605  -8.9148  -8.8894  -8.8884  -8.8527  -8.8520  -8.6539
    -8.4825  -8.1737  -8.1492  -8.1486  -8.1337  -7.8045  -7.8026  -7.7801
    -7.4413  -7.4247  -7.3781  -7.3776  -7.0691  -7.0679  -7.0127  -6.7045
    -6.7020  -6.6807  -6.6800  -6.6360  -6.3406  -6.3383  -6.2829  -6.2821
    -6.2818  -6.2493  -6.1856  -5.9722  -5.7481  -5.6960  -5.6113  -5.6094
    -5.6092  -5.6054  -5.5913  -5.5899  -5.5894  -5.5575  -5.5572  -5.5544
    -5.5148  -5.2453  -5.1961  -5.1955  -5.0753  -4.8719  -4.8711  -4.8243
    -4.5356  -4.5313  -4.5310  -4.5110  -4.5099  -4.4628  -4.4580  -4.1884
    -4.1693  -4.1662  -4.1252  -4.1249  -3.8316  -3.8313  -3.7420  -3.7377
    -3.4980  -3.4704  -3.4683  -3.4574  -3.4564  -3.4294  -3.3861  -3.1504
    -3.1213  -3.1205  -2.7953  -2.7233  -2.6389  -2.6373  -2.4473  -2.4423
    -2.3718  -2.3711  -2.3482  -2.3443  -2.1178  -2.1153  -2.0715  -2.0692
    -2.0322  -2.0304  -1.7537  -1.7491  -1.6771  -1.6759  -1.6670  -1.5673
    -1.5650  -1.4191  -1.1160  -1.0014  -0.9897  -0.9875  -0.9616  -0.9578
    -0.8559  -0.8550  -0.6835  -0.6820  -0.5399  -0.5379  -0.4224  -0.4074
    -0.4043  -0.3813  -0.3796  -0.1528  -0.1523  -0.1504  -0.0949  -0.0910
    -0.0893  -0.0790   0.0610   0.1526   0.1581   0.4631   0.4712   0.5591
     0.5620   0.5891   0.5917   0.7585   0.7643   0.7804   0.7845   0.9486
     0.9509   0.9555   0.9562   1.0999   1.1013   1.1408   1.1416   1.2183
     1.2738   1.2779   1.2888   1.3218   1.3275   1.4518

          k = 0.0000-0.5773 0.0000 (236880 PWs)   bands (ev):

   -27.8177 -27.5812 -26.3376 -26.1293 -16.9652 -15.3701 -13.1407 -11.8048
   -10.4372 -10.4356 -10.1568 -10.1200  -9.7274  -9.7260  -9.6890  -9.6883
    -9.6705  -9.5964  -8.9821  -8.9811  -8.6551  -8.6368  -8.6342  -8.2065
    -8.2058  -8.2049  -8.2045  -8.1350  -7.8967  -7.8948  -7.5051  -7.5047
    -7.5042  -7.5034  -7.4697  -7.4694  -7.4251  -7.1653  -7.1629  -7.0128
    -6.7727  -6.7708  -6.6374  -6.4325  -6.4305  -6.4290  -6.4280  -6.4270
    -6.4255  -6.2498  -6.1856  -6.0110  -6.0103  -6.0093  -6.0088  -5.9699
    -5.7477  -5.7037  -5.7007  -5.6935  -5.5154  -5.3209  -5.3198  -5.3188
    -5.3185  -5.2828  -5.2799  -5.0759  -4.9771  -4.9746  -4.9742  -4.9713
    -4.5534  -4.5485  -4.2687  -4.2676  -4.2667  -4.2655  -4.2613  -4.2603
    -4.1865  -3.8692  -3.8685  -3.8392  -3.8387  -3.2365  -3.2325  -3.2062
    -3.2053  -3.1650  -3.1645  -3.1643  -3.1638  -3.1546  -3.1535  -3.1227
    -3.1212  -3.1192  -3.1161  -2.8900  -2.8886  -2.8881  -2.8854  -2.5346
    -2.5295  -2.4839  -2.4825  -2.4574  -2.4567  -2.4544  -2.4539  -2.3097
    -2.3076  -2.0421  -2.0401  -1.7117  -1.7079  -1.4038  -1.4025  -1.4003
    -1.3995  -1.1628  -1.1622  -1.1597  -1.1573  -1.0739  -1.0718  -0.9870
    -0.9810  -0.8948  -0.8929  -0.8563  -0.8511  -0.7542  -0.7534  -0.7497
    -0.7492  -0.4461  -0.4442  -0.4050  -0.4031  -0.3155  -0.3122  -0.1712
    -0.1608   0.0951   0.0955   0.0965   0.0971   0.1126   0.1142   0.3197
     0.3204   0.3224   0.3240   0.7941   0.7965   0.9938   0.9963   0.9979
     0.9987   1.0183   1.0204   1.0247   1.0252   1.4666   1.4710   1.4750
     1.4778   1.4819   1.4960   1.4987   1.5003   1.5123

          k = 0.2500-0.1443 0.0000 (236890 PWs)   bands (ev):

   -27.8177 -27.5812 -26.3376 -26.1293 -16.9652 -15.3701 -13.1407 -11.8048
   -10.7177 -10.1569 -10.1200 -10.0067  -9.9686  -9.6710  -9.5970  -9.5959
    -9.5947  -9.2604  -8.9148  -8.8894  -8.8885  -8.8527  -8.8520  -8.6539
    -8.4823  -8.1732  -8.1497  -8.1484  -8.1340  -7.8045  -7.8026  -7.7800
    -7.4412  -7.4247  -7.3781  -7.3774  -7.0694  -7.0676  -7.0127  -6.7053
    -6.7025  -6.6807  -6.6801  -6.6343  -6.3395  -6.3381  -6.2830  -6.2822
    -6.2818  -6.2504  -6.1862  -5.9719  -5.7481  -5.6961  -5.6114  -5.6097
    -5.6090  -5.6052  -5.5912  -5.5903  -5.5894  -5.5578  -5.5575  -5.5544
    -5.5145  -5.2455  -5.1960  -5.1952  -5.0749  -4.8718  -4.8716  -4.8241
    -4.5355  -4.5314  -4.5313  -4.5107  -4.5098  -4.4629  -4.4580  -4.1889
    -4.1698  -4.1650  -4.1252  -4.1249  -3.8319  -3.8315  -3.7422  -3.7375
    -3.4980  -3.4704  -3.4681  -3.4571  -3.4564  -3.4293  -3.3859  -3.1510
    -3.1213  -3.1209  -2.7951  -2.7211  -2.6404  -2.6373  -2.4474  -2.4427
    -2.3720  -2.3711  -2.3481  -2.3441  -2.1186  -2.1156  -2.0736  -2.0693
    -2.0320  -2.0293  -1.7536  -1.7494  -1.6750  -1.6739  -1.6640  -1.5689
    -1.5650  -1.4184  -1.1159  -1.0014  -0.9898  -0.9869  -0.9652  -0.9578
    -0.8564  -0.8551  -0.6808  -0.6792  -0.5404  -0.5376  -0.4222  -0.4092
    -0.4046  -0.3811  -0.3794  -0.1532  -0.1526  -0.1506  -0.0966  -0.0918
    -0.0888  -0.0793   0.0622   0.1507   0.1602   0.4635   0.4707   0.5587
     0.5619   0.5880   0.5922   0.7583   0.7661   0.7759   0.7822   0.9468
     0.9511   0.9555   0.9563   1.1012   1.1026   1.1393   1.1403   1.2176
     1.2719   1.2785   1.2897   1.3193   1.3268   1.4516

          k = 0.2500-0.7217 0.0000 (236847 PWs)   bands (ev):

   -27.8177 -27.5812 -26.3376 -26.1293 -16.9652 -15.3701 -13.1407 -11.8048
   -10.5301 -10.1579 -10.1561 -10.1541 -10.1198  -9.8198  -9.6710  -9.5965
    -9.4475  -9.4456  -9.0381  -9.0376  -8.7291  -8.6539  -8.3590  -8.3571
    -8.3335  -8.3330  -8.2977  -8.1349  -7.9297  -7.9284  -7.5961  -7.4255
    -7.2565  -7.2519  -7.2511  -7.2299  -7.2282  -7.1947  -7.1944  -7.0136
    -6.8884  -6.8871  -6.8293  -6.8287  -6.6363  -6.5193  -6.4987  -6.4968
    -6.2517  -6.1879  -6.1558  -6.1539  -6.1344  -6.1338  -5.9731  -5.7902
    -5.7880  -5.7447  -5.6958  -5.5158  -5.4297  -5.4293  -5.3727  -5.0803
    -5.0703  -5.0669  -5.0636  -5.0164  -5.0158  -5.0071  -5.0052  -4.7057
    -4.7054  -4.6719  -4.6451  -4.3347  -4.3328  -4.1881  -3.9985  -3.9933
    -3.9924  -3.9586  -3.9414  -3.9189  -3.9172  -3.6495  -3.6485  -3.5916
    -3.5901  -3.3222  -3.3005  -3.2998  -3.2701  -3.2060  -3.0910  -2.9733
    -2.9678  -2.9263  -2.9242  -2.8675  -2.8665  -2.8175  -2.5599  -2.5571
    -2.5413  -2.5226  -2.2630  -2.2252  -2.2239  -2.1254  -2.1221  -2.0828
    -2.0792  -1.9234  -1.9211  -1.9171  -1.8358  -1.6088  -1.5468  -1.5424
    -1.4662  -1.4589  -1.4467  -1.4437  -1.2394  -1.2359  -1.1626  -1.0392
    -1.0362  -0.9408  -0.7254  -0.7202  -0.7020  -0.6451  -0.6443  -0.6085
    -0.6044  -0.5975  -0.5886  -0.5178  -0.3650  -0.3635  -0.0591  -0.0565
    -0.0109  -0.0099   0.0412   0.0439   0.2495   0.2522   0.3685   0.3693
     0.3846   0.3962   0.4016   0.4563   0.6132   0.6182   0.7044   0.7055
     0.7233   0.8928   1.0381   1.0391   1.1054   1.1656   1.1752   1.3899
     1.4035   1.6379   1.6393   1.6453   1.7131   1.7273

          k =-0.5000 0.2887 0.0000 (236880 PWs)   bands (ev):

   -27.8177 -27.5812 -26.3376 -26.1293 -16.9652 -15.3701 -13.1406 -11.8048
   -10.4370 -10.4357 -10.1569 -10.1200  -9.7275  -9.7260  -9.6892  -9.6882
    -9.6704  -9.5965  -8.9821  -8.9813  -8.6552  -8.6363  -8.6345  -8.2061
    -8.2060  -8.2048  -8.2047  -8.1351  -7.8967  -7.8947  -7.5052  -7.5047
    -7.5040  -7.5035  -7.4695  -7.4692  -7.4251  -7.1652  -7.1631  -7.0129
    -6.7725  -6.7709  -6.6365  -6.4312  -6.4302  -6.4292  -6.4285  -6.4273
    -6.4256  -6.2507  -6.1863  -6.0111  -6.0103  -6.0097  -6.0092  -5.9696
    -5.7478  -5.7015  -5.7002  -5.6952  -5.5158  -5.3208  -5.3204  -5.3188
    -5.3186  -5.2831  -5.2797  -5.0766  -4.9766  -4.9757  -4.9723  -4.9714
    -4.5537  -4.5486  -4.2688  -4.2681  -4.2666  -4.2657  -4.2611  -4.2602
    -4.1867  -3.8692  -3.8684  -3.8391  -3.8385  -3.2371  -3.2315  -3.2068
    -3.2061  -3.1648  -3.1645  -3.1641  -3.1636  -3.1533  -3.1522  -3.1225
    -3.1216  -3.1188  -3.1161  -2.8899  -2.8882  -2.8875  -2.8855  -2.5347
    -2.5299  -2.4848  -2.4834  -2.4593  -2.4587  -2.4546  -2.4538  -2.3118
    -2.3095  -2.0388  -2.0365  -1.7090  -1.7060  -1.4063  -1.4057  -1.4001
    -1.3995  -1.1629  -1.1619  -1.1602  -1.1569  -1.0743  -1.0719  -0.9836
    -0.9781  -0.8913  -0.8891  -0.8581  -0.8491  -0.7537  -0.7529  -0.7502
    -0.7502  -0.4477  -0.4454  -0.4060  -0.4035  -0.3154  -0.3130  -0.1708
    -0.1615   0.0951   0.0961   0.0963   0.0976   0.1124   0.1131   0.3187
     0.3197   0.3225   0.3230   0.7895   0.7921   0.9938   0.9946   0.9984
     0.9995   1.0173   1.0183   1.0237   1.0248   1.4600   1.4742   1.4758
     1.4808   1.4823   1.4957   1.4983   1.5010   1.5120

          k =-0.5000 0.5773 0.0000 (236845 PWs)   bands (ev):

   -27.8177 -27.5812 -26.3376 -26.1293 -16.9652 -15.3701 -13.1406 -11.8048
   -10.5301 -10.1583 -10.1557 -10.1541 -10.1198  -9.8198  -9.6710  -9.5965
    -9.4474  -9.4458  -9.0386  -9.0373  -8.7291  -8.6538  -8.3588  -8.3573
    -8.3336  -8.3331  -8.2975  -8.1347  -7.9297  -7.9281  -7.5960  -7.4255
    -7.2568  -7.2517  -7.2510  -7.2297  -7.2282  -7.1949  -7.1947  -7.0136
    -6.8891  -6.8863  -6.8296  -6.8283  -6.6365  -6.5189  -6.4990  -6.4970
    -6.2520  -6.1885  -6.1557  -6.1526  -6.1343  -6.1335  -5.9736  -5.7916
    -5.7869  -5.7448  -5.6957  -5.5161  -5.4296  -5.4292  -5.3727  -5.0833
    -5.0704  -5.0680  -5.0593  -5.0163  -5.0160  -5.0075  -5.0050  -4.7054
    -4.7052  -4.6720  -4.6454  -4.3349  -4.3328  -4.1878  -3.9978  -3.9937
    -3.9926  -3.9599  -3.9411  -3.9196  -3.9169  -3.6502  -3.6479  -3.5916
    -3.5897  -3.3221  -3.3005  -3.2998  -3.2699  -3.2059  -3.0892  -2.9725
    -2.9685  -2.9262  -2.9242  -2.8681  -2.8658  -2.8208  -2.5601  -2.5576
    -2.5412  -2.5231  -2.2625  -2.2243  -2.2230  -2.1239  -2.1220  -2.0810
    -2.0791  -1.9234  -1.9215  -1.9167  -1.8370  -1.6123  -1.5446  -1.5424
    -1.4628  -1.4589  -1.4494  -1.4456  -1.2381  -1.2347  -1.1612  -1.0377
    -1.0364  -0.9407  -0.7289  -0.7231  -0.7037  -0.6450  -0.6442  -0.6066
    -0.6046  -0.5955  -0.5903  -0.5153  -0.3645  -0.3632  -0.0591  -0.0558
    -0.0098  -0.0085   0.0412   0.0440   0.2494   0.2512   0.3689   0.3705
     0.3829   0.3963   0.4011   0.4572   0.6105   0.6156   0.7039   0.7062
     0.7190   0.8929   1.0384   1.0391   1.1081   1.1646   1.1721   1.3886
     1.4028   1.6384   1.6403   1.6448   1.7207   1.7313

          k =-0.2500-0.1443 0.0000 (236890 PWs)   bands (ev):

   -27.8177 -27.5812 -26.3376 -26.1293 -16.9652 -15.3701 -13.1407 -11.8048
   -10.7177 -10.1569 -10.1200 -10.0067  -9.9685  -9.6711  -9.5972  -9.5958
    -9.5947  -9.2604  -8.9148  -8.8895  -8.8884  -8.8527  -8.8520  -8.6539
    -8.4823  -8.1733  -8.1498  -8.1484  -8.1338  -7.8046  -7.8025  -7.7800
    -7.4412  -7.4247  -7.3781  -7.3774  -7.0692  -7.0679  -7.0126  -6.7054
    -6.7024  -6.6809  -6.6800  -6.6343  -6.3402  -6.3375  -6.2829  -6.2823
    -6.2818  -6.2501  -6.1863  -5.9722  -5.7479  -5.6961  -5.6115  -5.6098
    -5.6087  -5.6053  -5.5912  -5.5901  -5.5895  -5.5577  -5.5574  -5.5544
    -5.5144  -5.2456  -5.1960  -5.1953  -5.0749  -4.8718  -4.8715  -4.8241
    -4.5355  -4.5315  -4.5313  -4.5109  -4.5098  -4.4632  -4.4578  -4.1889
    -4.1696  -4.1652  -4.1249  -4.1248  -3.8319  -3.8316  -3.7422  -3.7375
    -3.4980  -3.4704  -3.4683  -3.4566  -3.4563  -3.4298  -3.3860  -3.1523
    -3.1211  -3.1208  -2.7950  -2.7189  -2.6404  -2.6389  -2.4477  -2.4426
    -2.3726  -2.3717  -2.3482  -2.3439  -2.1197  -2.1167  -2.0736  -2.0714
    -2.0302  -2.0293  -1.7539  -1.7492  -1.6728  -1.6715  -1.6609  -1.5687
    -1.5668  -1.4179  -1.1159  -1.0020  -0.9885  -0.9865  -0.9652  -0.9616
    -0.8564  -0.8555  -0.6777  -0.6759  -0.5401  -0.5380  -0.4222  -0.4098
    -0.4064  -0.3800  -0.3793  -0.1534  -0.1529  -0.1515  -0.0974  -0.0932
    -0.0886  -0.0788   0.0629   0.1530   0.1580   0.4632   0.4711   0.5589
     0.5623   0.5889   0.5909   0.7574   0.7678   0.7729   0.7769   0.9472
     0.9494   0.9557   0.9561   1.1021   1.1036   1.1379   1.1381   1.2177
     1.2727   1.2765   1.2890   1.3186   1.3252   1.4517

          k =-0.2500-0.7217 0.0000 (236847 PWs)   bands (ev):

   -27.8177 -27.5812 -26.3376 -26.1293 -16.9652 -15.3701 -13.1407 -11.8048
   -10.5301 -10.1580 -10.1559 -10.1542 -10.1198  -9.8198  -9.6710  -9.5965
    -9.4472  -9.4459  -9.0382  -9.0375  -8.7290  -8.6539  -8.3586  -8.3575
    -8.3336  -8.3329  -8.2977  -8.1348  -7.9295  -7.9287  -7.5961  -7.4255
    -7.2567  -7.2515  -7.2512  -7.2296  -7.2285  -7.1949  -7.1943  -7.0136
    -6.8887  -6.8868  -6.8294  -6.8287  -6.6363  -6.5192  -6.4990  -6.4966
    -6.2518  -6.1875  -6.1556  -6.1541  -6.1344  -6.1337  -5.9740  -5.7897
    -5.7867  -5.7459  -5.6958  -5.5158  -5.4300  -5.4290  -5.3727  -5.0796
    -5.0703  -5.0669  -5.0643  -5.0164  -5.0157  -5.0067  -5.0056  -4.7059
    -4.7053  -4.6722  -4.6452  -4.3349  -4.3325  -4.1881  -3.9997  -3.9934
    -3.9925  -3.9574  -3.9413  -3.9184  -3.9176  -3.6491  -3.6487  -3.5911
    -3.5902  -3.3222  -3.3006  -3.2998  -3.2700  -3.2060  -3.0937  -2.9731
    -2.9680  -2.9254  -2.9244  -2.8676  -2.8661  -2.8138  -2.5582  -2.5570
    -2.5415  -2.5222  -2.2631  -2.2261  -2.2258  -2.1254  -2.1238  -2.0828
    -2.0810  -1.9229  -1.9212  -1.9178  -1.8345  -1.6049  -1.5469  -1.5446
    -1.4662  -1.4626  -1.4446  -1.4415  -1.2416  -1.2364  -1.1651  -1.0397
    -1.0369  -0.9409  -0.7212  -0.7178  -0.7002  -0.6448  -0.6439  -0.6088
    -0.6061  -0.5968  -0.5891  -0.5206  -0.3648  -0.3636  -0.0607  -0.0570
    -0.0125  -0.0115   0.0412   0.0444   0.2509   0.2524   0.3670   0.3679
     0.3857   0.3972   0.4009   0.4550   0.6164   0.6208   0.7050   0.7056
     0.7287   0.8927   1.0380   1.0394   1.1017   1.1689   1.1763   1.3899
     1.4051   1.6385   1.6406   1.6429   1.7117   1.7317

          k = 0.5000 0.2887 0.0000 (236880 PWs)   bands (ev):

   -27.8177 -27.5812 -26.3376 -26.1293 -16.9652 -15.3701 -13.1406 -11.8048
   -10.4367 -10.4360 -10.1568 -10.1200  -9.7270  -9.7263  -9.6891  -9.6884
    -9.6704  -9.5965  -8.9822  -8.9811  -8.6553  -8.6365  -8.6342  -8.2065
    -8.2053  -8.2051  -8.2048  -8.1351  -7.8968  -7.8947  -7.5053  -7.5047
    -7.5041  -7.5033  -7.4697  -7.4690  -7.4251  -7.1652  -7.1631  -7.0129
    -6.7729  -6.7705  -6.6366  -6.4324  -6.4299  -6.4288  -6.4282  -6.4266
    -6.4261  -6.2504  -6.1863  -6.0106  -6.0103  -6.0097  -6.0095  -5.9703
    -5.7471  -5.7019  -5.7005  -5.6948  -5.5158  -5.3205  -5.3202  -5.3193
    -5.3186  -5.2827  -5.2802  -5.0765  -4.9764  -4.9761  -4.9721  -4.9715
    -4.5539  -4.5485  -4.2681  -4.2679  -4.2665  -4.2663  -4.2615  -4.2600
    -4.1866  -3.8694  -3.8686  -3.8393  -3.8387  -3.2369  -3.2317  -3.2081
    -3.2072  -3.1646  -3.1641  -3.1639  -3.1634  -3.1523  -3.1510  -3.1226
    -3.1216  -3.1178  -3.1169  -2.8887  -2.8880  -2.8863  -2.8857  -2.5350
    -2.5298  -2.4857  -2.4852  -2.4594  -2.4591  -2.4565  -2.4560  -2.3145
    -2.3123  -2.0350  -2.0326  -1.7069  -1.7038  -1.4063  -1.4057  -1.4034
    -1.4025  -1.1636  -1.1615  -1.1590  -1.1580  -1.0740  -1.0716  -0.9794
    -0.9759  -0.8870  -0.8847  -0.8576  -0.8495  -0.7529  -0.7526  -0.7505
    -0.7496  -0.4490  -0.4468  -0.4071  -0.4046  -0.3169  -0.3134  -0.1714
    -0.1612   0.0962   0.0963   0.0967   0.0973   0.1107   0.1117   0.3186
     0.3196   0.3218   0.3227   0.7844   0.7871   0.9947   0.9955   0.9979
     0.9995   1.0168   1.0175   1.0213   1.0247   1.4583   1.4745   1.4773
     1.4806   1.4817   1.4960   1.4976   1.5018   1.5114

     the Fermi energy is     0.0055 ev

!    total energy              =   -3434.73342022 Ry
     estimated scf accuracy    <          8.2E-11 Ry
     smearing contrib. (-TS)   =      -0.00804472 Ry
     internal energy E=F+TS    =   -3434.72537550 Ry

     The total energy is F=E-TS. E is the sum of the following terms:
     one-electron contribution =  -11721.10364167 Ry
     hartree contribution      =    5933.27284852 Ry
     xc contribution           =    -264.07234837 Ry
     ewald contribution        =    5416.05052801 Ry
     one-center paw contrib.   =   -2798.87276200 Ry

     convergence has been achieved in  18 iterations

     negative rho (up, down):  1.426E-03 0.000E+00

     Forces acting on atoms (cartesian axes, Ry/au):

     atom    1 type  1   force =    -0.00012083   -0.00013519   -0.00039118
     atom    2 type  1   force =     0.00008024    0.00002370    0.00035110
     atom    3 type  1   force =    -0.00011112    0.00008923    0.00060394
     atom    4 type  1   force =     0.00001843   -0.00004482    0.00006157
     atom    5 type  1   force =     0.00010841    0.00002075    0.00042865
     atom    6 type  1   force =     0.00007148    0.00004196    0.00130877
     atom    7 type  1   force =    -0.00023237    0.00004066    0.00103784
     atom    8 type  1   force =    -0.00008780   -0.00007428    0.00016555
     atom    9 type  1   force =    -0.00000503   -0.00019584    0.00048746
     atom   10 type  1   force =    -0.00006648   -0.00030675    0.00083572
     atom   11 type  1   force =     0.00000623   -0.00007255    0.00020924
     atom   12 type  1   force =    -0.00007040    0.00000167   -0.00013303
     atom   13 type  1   force =    -0.00000889    0.00002292   -0.00003173
     atom   14 type  1   force =    -0.00006770   -0.00002868    0.00000105
     atom   15 type  1   force =    -0.00000765   -0.00011017   -0.00011612
     atom   16 type  1   force =    -0.00004651   -0.00007331   -0.00011882
     atom   17 type  1   force =     0.00008304   -0.00007545    0.00045705
     atom   18 type  1   force =     0.00005164   -0.00004387    0.00000252
     atom   19 type  1   force =    -0.00015913   -0.00015605   -0.00017676
     atom   20 type  1   force =    -0.00011225   -0.00007486    0.00016059
     atom   21 type  1   force =    -0.00016967   -0.00013846    0.00038212
     atom   22 type  1   force =    -0.00004788   -0.00020027    0.00000196
     atom   23 type  1   force =     0.00016568   -0.00022311    0.00014328
     atom   24 type  1   force =     0.00000794    0.00000692    0.00040555
     atom   25 type  1   force =    -0.00016496    0.00002259   -0.00002763
     atom   26 type  1   force =     0.00002324    0.00001909   -0.00001162
     atom   27 type  1   force =     0.00002679    0.00007830   -0.00008440
     atom   28 type  1   force =    -0.00001280    0.00002584   -0.00006586
     atom   29 type  1   force =    -0.00007157    0.00020061    0.00007753
     atom   30 type  1   force =     0.00007556   -0.00000577   -0.00009297
     atom   31 type  1   force =     0.00004630   -0.00001995   -0.00028951
     atom   32 type  1   force =    -0.00017944   -0.00007840   -0.00022877
     atom   33 type  1   force =     0.00004637    0.00017060    0.00075467
     atom   34 type  1   force =     0.00007313   -0.00034174    0.00015383
     atom   35 type  1   force =    -0.00011732   -0.00004588    0.00035547
     atom   36 type  1   force =     0.00004804    0.00005906    0.00069488
     atom   37 type  1   force =     0.00030471    0.00014305   -0.00016134
     atom   38 type  1   force =    -0.00013024    0.00009592   -0.00060982
     atom   39 type  1   force =    -0.00032042    0.00014428    0.00040247
     atom   40 type  1   force =     0.00013860   -0.00000073    0.00067062
     atom   41 type  1   force =    -0.00010597   -0.00016494   -0.00057199
     atom   42 type  1   force =     0.00014409    0.00006465   -0.00020199
     atom   43 type  1   force =     0.00018207    0.00019079    0.00032312
     atom   44 type  1   force =    -0.00026241    0.00025809    0.00006205
     atom   45 type  1   force =    -0.00004995   -0.00037238    0.00059030
     atom   46 type  1   force =     0.00023236   -0.00000528    0.00041965
     atom   47 type  1   force =    -0.00011746   -0.00009806    0.00068463
     atom   48 type  1   force =    -0.00005811   -0.00015743    0.00039947
     atom   49 type  1   force =    -0.00015152   -0.00009048    0.00034558
     atom   50 type  1   force =    -0.00009111   -0.00004147   -0.00012854
     atom   51 type  1   force =    -0.00000176   -0.00004899   -0.00036579
     atom   52 type  1   force =     0.00025289   -0.00012891   -0.00014262
     atom   53 type  1   force =    -0.00004902   -0.00001359   -0.00019105
     atom   54 type  1   force =    -0.00010387   -0.00006775   -0.00016878
     atom   55 type  1   force =     0.00010099   -0.00001440   -0.00030174
     atom   56 type  1   force =     0.00005073    0.00008211    0.00004290
     atom   57 type  1   force =    -0.00002036    0.00005928   -0.00028911
     atom   58 type  1   force =     0.00000587    0.00007772   -0.00031214
     atom   59 type  1   force =     0.00013910    0.00001297   -0.00030900
     atom   60 type  1   force =     0.00006647    0.00004058    0.00014319
     atom   61 type  1   force =    -0.00001234    0.00032343    0.00006617
     atom   62 type  1   force =     0.00002507    0.00018462    0.00007939
     atom   63 type  1   force =    -0.00001780   -0.00000183    0.00019030
     atom   64 type  1   force =     0.00009203    0.00008647    0.00016656
     atom   65 type  1   force =    -0.00027338    0.00033660   -0.00016513
     atom   66 type  1   force =     0.00000164   -0.00001883   -0.00046142
     atom   67 type  1   force =    -0.00013077   -0.00032442   -0.00061957
     atom   68 type  1   force =     0.00039654    0.00030896   -0.00046638
     atom   69 type  1   force =     0.00009290    0.00001179   -0.00062969
     atom   70 type  1   force =     0.00011460   -0.00003277   -0.00053643
     atom   71 type  1   force =    -0.00000168    0.00010427   -0.00088868
     atom   72 type  1   force =     0.00006612   -0.00035072   -0.00032473
     atom   73 type  1   force =    -0.00000691    0.00016950   -0.00045153
     atom   74 type  1   force =     0.00010110    0.00006789   -0.00034778
     atom   75 type  1   force =    -0.00000204    0.00023925   -0.00065916
     atom   76 type  1   force =    -0.00001685    0.00023506   -0.00062923
     atom   77 type  1   force =     0.00002110   -0.00006678   -0.00082008
     atom   78 type  1   force =     0.00024735    0.00001768   -0.00094968
     atom   79 type  1   force =     0.00025295    0.00013284   -0.00028990
     atom   80 type  1   force =    -0.00026093    0.00010863   -0.00054743
     atom   81 type  2   force =    -0.00014933   -0.00097942    0.00085473
     atom   82 type  2   force =    -0.00021397    0.00050030   -0.00174819
     atom   83 type  3   force =     0.00006645    0.00000437    0.00061503
     atom   84 type  3   force =    -0.00036001   -0.00235199   -0.00030854
     atom   85 type  3   force =     0.00122487    0.00165431   -0.00041277
     atom   86 type  2   force =    -0.00077814   -0.00003192    0.00023278
     atom   87 type  4   force =    -0.00028885   -0.00058343   -0.00003166
     atom   88 type  3   force =     0.00025231   -0.00072269    0.00044229
     atom   89 type  2   force =    -0.00037608   -0.00060430    0.00031639
     atom   90 type  4   force =     0.00005419    0.00226016   -0.00006588
     atom   91 type  3   force =     0.00003035    0.00138511   -0.00020556
     atom   92 type  4   force =    -0.00031368   -0.00018592    0.00120333
     atom   93 type  4   force =     0.00088064   -0.00013085    0.00037470
     atom   94 type  3   force =     0.00005415   -0.00008895   -0.00062424

     Total force =     0.006844     Total SCF correction =     0.000015


     Computing stress (Cartesian axis) and pressure


     negative rho (up, down):  1.426E-03 0.000E+00
          total   stress  (Ry/bohr**3)                   (kbar)     P=       -7.25
  -0.00007198   0.00000009   0.00000054          -10.59        0.01        0.08
   0.00000009  -0.00007166   0.00000075            0.01      -10.54        0.11
   0.00000054   0.00000075  -0.00000420            0.08        0.11       -0.62

     Energy error            =      1.2E-04 Ry
     Gradient error          =      2.4E-03 Ry/Bohr

     number of scf cycles    =  39
     number of bfgs steps    =  38

     energy             old  =   -3434.7332964027 Ry
     energy             new  =   -3434.7334202220 Ry

     CASE: energy            _new < energy            _old

     new trust radius        =       0.0233819613 bohr
     new conv_thr            =       0.0000000001 Ry


ATOMIC_POSITIONS (angstrom)
Al              11.4556331036        1.6530817432       14.8149884246
Al               2.8637341013        1.6513719788       14.8075618070
Al               5.7274183131        1.6509008522       14.8049108455
Al               8.5902710961        1.6520059550       14.8101852764
Al              12.8861986367        4.1334868756       14.8062929057
Al               4.2947780358        4.1320005739       14.7969563452
Al               7.1605124926        4.1324139357       14.7992165651
Al              10.0235875724        4.1339918477       14.8108074602
Al              14.3179736221        6.6131092516       14.8075887199
Al               5.7279742791        6.6138916183       14.8020016250
Al               8.5913599131        6.6130626652       14.8128986691
Al              11.4551666322        6.6129526941       14.8194267968
Al              15.7499502828        9.0920438987       14.8119854601
Al               7.1602963658        9.0922494152       14.8123124501
Al              10.0234382844        9.0927055218       14.8189989668
Al              12.8863161680        9.0924381311       14.8169973509
Al              -0.0025241796       -0.0050225594       17.1757185753
Al               2.8620774710       -0.0031597838       17.1803539538
Al               5.7263211326       -0.0007726391       17.1827883691
Al               8.5889078435       -0.0037555389       17.1789642709
Al               1.4324311908        2.4782706336       17.1747489856
Al               4.2943455773        2.4790968674       17.1781130102
Al               7.1549687034        2.4788199018       17.1760846762
Al              10.0196813494        2.4771717502       17.1758955159
Al               2.8642963298        4.9554258643       17.1789041887
Al               5.7248945008        4.9553119467       17.1783683351
Al               8.5866031094        4.9550649417       17.1797252464
Al              11.4540734454        4.9561295987       17.1809833230
Al               4.2945482311        7.4330841741       17.1775723527
Al               7.1554430288        7.4341870910       17.1795582313
Al              10.0199708911        7.4357762294       17.1857505858
Al              12.8875931344        7.4352257522       17.1837723141
Al               1.4273892681        0.8182076046       19.5168789781
Al               4.2908692347        0.8229304435       19.5249201140
Al               7.1549076938        0.8207302202       19.5231843338
Al              10.0175279641        0.8183512798       19.5174112705
Al               2.8578141058        3.2986919603       19.5257659358
Al               5.7240766380        3.2985812769       19.5289270614
Al               8.5869166527        3.2978291768       19.5218573792
Al              11.4502763976        3.2989525798       19.5180159607
Al               4.2920942401        5.7798790477       19.5290464914
Al               7.1527630426        5.7778118417       19.5283305487
Al              10.0162363245        5.7771243799       19.5240687286
Al              12.8851949518        5.7763124089       19.5266536203
Al               5.7227780292        8.2599869374       19.5199406126
Al               8.5844469353        8.2585105039       19.5225007283
Al              11.4512096095        8.2598026662       19.5205960791
Al              14.3151781587        8.2590658891       19.5222038747
Al              11.4487884863        1.6416923272       21.8630116312
Al               2.8568533617        1.6420217901       21.8706407055
Al               5.7212914218        1.6423637925       21.8755700659
Al               8.5817297263        1.6420970281       21.8710312635
Al              12.8795857328        4.1211835369       21.8730667077
Al               4.2893976583        4.1218351661       21.8692801086
Al               7.1528223560        4.1212360021       21.8742376516
Al              10.0148378803        4.1208538284       21.8698381148
Al              14.3119545881        6.6021214730       21.8743275383
Al               5.7205099260        6.6026889355       21.8745669078
Al               8.5814263640        6.6010040815       21.8748213883
Al              11.4469780642        6.6006215217       21.8688722119
Al              15.7433423177        9.0792954912       21.8679986121
Al               7.1521986241        9.0795868690       21.8684491997
Al              10.0160067783        9.0826302708       21.8670892341
Al              12.8791578569        9.0817064056       21.8686302472
Al              -0.0081380088       -0.0176805745       24.2344870776
Al               2.8547359046       -0.0161826728       24.2399798581
Al               5.7187702030       -0.0139006949       24.2432174428
Al               8.5799972885       -0.0174928984       24.2408421793
Al               1.4209732939        2.4635505456       24.2423194880
Al               4.2848707780        2.4646310622       24.2410241823
Al               7.1497178216        2.4645415181       24.2513285572
Al              10.0131036903        2.4652261248       24.2380895212
Al               2.8538885676        4.9436528530       24.2377196557
Al               5.7176316272        4.9441562757       24.2386109146
Al               8.5814553426        4.9432390831       24.2483748099
Al              11.4449884854        4.9437597278       24.2443466309
Al               4.2858832722        7.4251023966       24.2497225993
Al               7.1482163100        7.4244815817       24.2527859049
Al              10.0119773659        7.4246170247       24.2391321586
Al              12.8778787731        7.4244650995       24.2425015515
C                3.3080810397        4.7667932443       29.3180552073
C                4.7115590018        4.9892347553       28.7972765867
H                2.6018452540        4.9265557465       28.4936357375
H                3.1996036993        3.7423890291       29.6915495917
H                3.0780107413        5.4660679980       30.1308604430
C                5.8208258027        4.8075210762       29.8345139789
F                4.9277380105        4.1197949433       27.7304465568
H                5.6913852639        3.8243453514       30.3092138520
C                7.2663232718        4.8843777760       29.3612661429
F                4.7844093627        6.2728029261       28.2622788739
H                5.6797933350        5.5650989302       30.6175476663
F                7.5252645283        6.0366438255       28.6468576981
F                7.5817939966        3.8158168585       28.5429714222
H                7.9668944796        4.8598461335       30.2135039336



     Writing config-only to output data dir ./tmp/al_pvdf.save/ :
     XML data file
     NEW-OLD atomic charge density approx. for the potential

     negative rho (up, down):  1.406E-03 0.000E+00

     total cpu time spent up to now is    15985.6 secs

     Self-consistent Calculation

     iteration #  1     ecut=    60.00 Ry     beta= 0.30
     Davidson diagonalization with overlap
     ethr =  1.00E-06,  avg # of iterations =  4.0

     negative rho (up, down):  1.410E-03 0.000E+00

     total cpu time spent up to now is    16194.4 secs

     total energy              =   -3434.73344828 Ry
     estimated scf accuracy    <       0.00034325 Ry

     iteration #  2     ecut=    60.00 Ry     beta= 0.30
     Davidson diagonalization with overlap
     ethr =  1.18E-07,  avg # of iterations =  3.6

     negative rho (up, down):  1.414E-03 0.000E+00

     total cpu time spent up to now is    16360.7 secs

     total energy              =   -3434.73339447 Ry
     estimated scf accuracy    <       0.00106361 Ry

     iteration #  3     ecut=    60.00 Ry     beta= 0.30
     Davidson diagonalization with overlap
     ethr =  1.18E-07,  avg # of iterations =  7.2

     negative rho (up, down):  1.417E-03 0.000E+00

     total cpu time spent up to now is    16532.8 secs

     total energy              =   -3434.73338025 Ry
     estimated scf accuracy    <       0.00442164 Ry

     iteration #  4     ecut=    60.00 Ry     beta= 0.30
     Davidson diagonalization with overlap
     ethr =  1.18E-07,  avg # of iterations =  3.7

     negative rho (up, down):  1.419E-03 0.000E+00

     total cpu time spent up to now is    16696.5 secs

     total energy              =   -3434.73344092 Ry
     estimated scf accuracy    <       0.00050869 Ry

     iteration #  5     ecut=    60.00 Ry     beta= 0.30
     Davidson diagonalization with overlap
     ethr =  1.18E-07,  avg # of iterations =  2.2

     negative rho (up, down):  1.421E-03 0.000E+00

     total cpu time spent up to now is    16852.7 secs

     total energy              =   -3434.73347392 Ry
     estimated scf accuracy    <       0.00002721 Ry

     iteration #  6     ecut=    60.00 Ry     beta= 0.30
     Davidson diagonalization with overlap
     ethr =  9.38E-09,  avg # of iterations =  5.3

     negative rho (up, down):  1.423E-03 0.000E+00

     total cpu time spent up to now is    17043.0 secs

     total energy              =   -3434.73347831 Ry
     estimated scf accuracy    <       0.00001243 Ry

     iteration #  7     ecut=    60.00 Ry     beta= 0.30
     Davidson diagonalization with overlap
     ethr =  4.29E-09,  avg # of iterations =  2.0

     negative rho (up, down):  1.424E-03 0.000E+00

     total cpu time spent up to now is    17193.3 secs

     total energy              =   -3434.73347897 Ry
     estimated scf accuracy    <       0.00000205 Ry

     iteration #  8     ecut=    60.00 Ry     beta= 0.30
     Davidson diagonalization with overlap
     ethr =  7.08E-10,  avg # of iterations =  4.7

     negative rho (up, down):  1.424E-03 0.000E+00

     total cpu time spent up to now is    17381.3 secs

     total energy              =   -3434.73347929 Ry
     estimated scf accuracy    <       0.00000082 Ry

     iteration #  9     ecut=    60.00 Ry     beta= 0.30
     Davidson diagonalization with overlap
     ethr =  2.82E-10,  avg # of iterations =  2.4

     negative rho (up, down):  1.425E-03 0.000E+00

     total cpu time spent up to now is    17545.1 secs

     total energy              =   -3434.73347935 Ry
     estimated scf accuracy    <       0.00000041 Ry

     iteration # 10     ecut=    60.00 Ry     beta= 0.30
     Davidson diagonalization with overlap
     ethr =  1.40E-10,  avg # of iterations =  2.0

     negative rho (up, down):  1.425E-03 0.000E+00

     total cpu time spent up to now is    17698.7 secs

     total energy              =   -3434.73347938 Ry
     estimated scf accuracy    <       0.00000009 Ry

     iteration # 11     ecut=    60.00 Ry     beta= 0.30
     Davidson diagonalization with overlap
     ethr =  3.00E-11,  avg # of iterations =  4.9

     negative rho (up, down):  1.425E-03 0.000E+00

     total cpu time spent up to now is    17901.1 secs

     total energy              =   -3434.73347940 Ry
     estimated scf accuracy    <       0.00000005 Ry

     iteration # 12     ecut=    60.00 Ry     beta= 0.30
     Davidson diagonalization with overlap
     ethr =  1.80E-11,  avg # of iterations =  2.1

     negative rho (up, down):  1.425E-03 0.000E+00

     total cpu time spent up to now is    18056.4 secs

     total energy              =   -3434.73347940 Ry
     estimated scf accuracy    <          8.6E-09 Ry

     iteration # 13     ecut=    60.00 Ry     beta= 0.30
     Davidson diagonalization with overlap
     c_bands:  1 eigenvalues not converged
     ethr =  2.98E-12,  avg # of iterations =  7.6

     negative rho (up, down):  1.425E-03 0.000E+00

     total cpu time spent up to now is    18277.4 secs

     total energy              =   -3434.73347940 Ry
     estimated scf accuracy    <       0.00000014 Ry

     iteration # 14     ecut=    60.00 Ry     beta= 0.30
     Davidson diagonalization with overlap
     ethr =  2.98E-12,  avg # of iterations =  4.7

     negative rho (up, down):  1.425E-03 0.000E+00

     total cpu time spent up to now is    18440.7 secs

     total energy              =   -3434.73347940 Ry
     estimated scf accuracy    <       0.00000001 Ry

     iteration # 15     ecut=    60.00 Ry     beta= 0.30
     Davidson diagonalization with overlap
     ethr =  2.98E-12,  avg # of iterations =  1.0

     negative rho (up, down):  1.425E-03 0.000E+00

     total cpu time spent up to now is    18585.2 secs

     total energy              =   -3434.73347940 Ry
     estimated scf accuracy    <          8.5E-10 Ry

     iteration # 16     ecut=    60.00 Ry     beta= 0.30
     Davidson diagonalization with overlap
     ethr =  2.92E-13,  avg # of iterations =  5.1

     negative rho (up, down):  1.425E-03 0.000E+00

     total cpu time spent up to now is    18785.3 secs

     total energy              =   -3434.73347940 Ry
     estimated scf accuracy    <          3.5E-10 Ry

     iteration # 17     ecut=    60.00 Ry     beta= 0.30
     Davidson diagonalization with overlap
     ethr =  1.21E-13,  avg # of iterations =  2.0

     negative rho (up, down):  1.425E-03 0.000E+00

     total cpu time spent up to now is    18972.8 secs

     total energy              =   -3434.73347940 Ry
     estimated scf accuracy    <          2.8E-10 Ry

     iteration # 18     ecut=    60.00 Ry     beta= 0.30
     Davidson diagonalization with overlap
     ethr =  1.00E-13,  avg # of iterations =  1.1

     negative rho (up, down):  1.425E-03 0.000E+00

     total cpu time spent up to now is    19133.1 secs

     End of self-consistent calculation

          k = 0.0000 0.0000 0.0000 (237007 PWs)   bands (ev):

   -27.8176 -27.5795 -26.3344 -26.1283 -16.9598 -15.3648 -13.1357 -11.8029
   -10.8137 -10.1542 -10.1190 -10.1013  -9.6685  -9.5926  -9.3196  -9.3191
    -9.3188  -9.3184  -9.3181  -9.3173  -9.0090  -8.6514  -8.6137  -8.6131
    -8.6128  -8.6122  -8.6115  -8.6110  -8.1331  -7.5344  -7.5304  -7.5298
    -7.5292  -7.5287  -7.5270  -7.5262  -7.4214  -7.0110  -6.6342  -6.3761
    -6.3756  -6.3754  -6.3749  -6.3748  -6.3744  -6.2508  -6.1871  -6.0810
    -6.0661  -6.0653  -6.0641  -6.0623  -6.0596  -5.9533  -5.7465  -5.6925
    -5.6839  -5.6836  -5.6821  -5.6812  -5.6804  -5.6798  -5.6449  -5.5147
    -5.0728  -4.9437  -4.9430  -4.9426  -4.9181  -4.9177  -4.9165  -4.6234
    -4.6224  -4.6221  -4.6205  -4.6202  -4.6190  -4.2665  -4.2650  -4.2643
    -4.2329  -4.2315  -4.2305  -4.2061  -4.1923  -4.1908  -4.1893  -4.1874
    -4.1839  -4.1674  -3.5862  -3.3582  -3.3556  -3.3538  -3.2047  -3.2026
    -3.2022  -3.1998  -3.1996  -3.1982  -3.0869  -3.0837  -3.0801  -2.1896
    -2.1871  -2.1851  -2.1846  -2.1826  -2.1755  -1.8730  -1.8697  -1.8652
    -1.5064  -1.5056  -1.5043  -1.5024  -1.5011  -1.4991  -1.4269  -1.4238
    -1.4226  -1.2030  -0.7520  -0.7513  -0.7505  -0.7502  -0.7497  -0.7492
    -0.6309  -0.6303  -0.6279  -0.6274  -0.6268  -0.6243  -0.0805  -0.0799
    -0.0780  -0.0759  -0.0736  -0.0723   0.1399   0.1463   0.1490   0.1503
     0.1553   0.1635   0.1684   0.1709   0.1734   0.2277   0.2278   0.2288
     0.2316   0.2327   0.2337   0.2343   0.2357   0.2387   0.8047   0.8077
     0.8095   0.8099   0.8121   0.8172   0.9355   0.9372   0.9396   0.9400
     0.9415   0.9433   1.1344   1.2991   1.3019   1.3056

          k = 0.0000 0.2887 0.0000 (236896 PWs)   bands (ev):

   -27.8176 -27.5795 -26.3344 -26.1283 -16.9598 -15.3648 -13.1357 -11.8029
   -10.7198 -10.1542 -10.1186 -10.0084  -9.9706  -9.6685  -9.5979  -9.5974
    -9.5925  -9.2621  -8.9161  -8.8911  -8.8901  -8.8547  -8.8541  -8.6508
    -8.4846  -8.1749  -8.1508  -8.1502  -8.1319  -7.8057  -7.8040  -7.7818
    -7.4419  -7.4215  -7.3802  -7.3797  -7.0703  -7.0692  -7.0106  -6.7052
    -6.7034  -6.6824  -6.6816  -6.6337  -6.3413  -6.3390  -6.2850  -6.2842
    -6.2839  -6.2471  -6.1841  -5.9702  -5.7467  -5.6924  -5.6125  -5.6107
    -5.6100  -5.6063  -5.5930  -5.5916  -5.5910  -5.5596  -5.5593  -5.5544
    -5.5142  -5.2462  -5.1982  -5.1976  -5.0728  -4.8736  -4.8729  -4.8241
    -4.5369  -4.5326  -4.5323  -4.5126  -4.5117  -4.4626  -4.4578  -4.1862
    -4.1700  -4.1670  -4.1273  -4.1269  -3.8330  -3.8327  -3.7418  -3.7376
    -3.4984  -3.4716  -3.4697  -3.4590  -3.4581  -3.4314  -3.3859  -3.1514
    -3.1221  -3.1214  -2.7957  -2.7248  -2.6400  -2.6385  -2.4476  -2.4427
    -2.3738  -2.3731  -2.3480  -2.3442  -2.1189  -2.1164  -2.0725  -2.0702
    -2.0342  -2.0324  -1.7540  -1.7495  -1.6786  -1.6775  -1.6681  -1.5684
    -1.5661  -1.4195  -1.1153  -1.0014  -0.9917  -0.9895  -0.9624  -0.9585
    -0.8566  -0.8558  -0.6846  -0.6832  -0.5409  -0.5390  -0.4217  -0.4087
    -0.4058  -0.3812  -0.3794  -0.1541  -0.1536  -0.1512  -0.0965  -0.0924
    -0.0888  -0.0784   0.0592   0.1518   0.1573   0.4631   0.4713   0.5576
     0.5605   0.5879   0.5905   0.7582   0.7631   0.7796   0.7837   0.9475
     0.9498   0.9555   0.9563   1.0980   1.0995   1.1397   1.1404   1.2192
     1.2729   1.2770   1.2889   1.3203   1.3260   1.4514

          k = 0.0000-0.5773 0.0000 (236880 PWs)   bands (ev):

   -27.8176 -27.5795 -26.3344 -26.1283 -16.9598 -15.3647 -13.1357 -11.8028
   -10.4387 -10.4382 -10.1541 -10.1185  -9.7287  -9.7280  -9.6911  -9.6903
    -9.6680  -9.5925  -8.9838  -8.9828  -8.6523  -8.6376  -8.6356  -8.2085
    -8.2079  -8.2070  -8.2066  -8.1330  -7.8979  -7.8962  -7.5068  -7.5064
    -7.5058  -7.5051  -7.4719  -7.4715  -7.4219  -7.1663  -7.1634  -7.0107
    -6.7743  -6.7726  -6.6350  -6.4331  -6.4312  -6.4301  -6.4294  -6.4283
    -6.4269  -6.2476  -6.1842  -6.0126  -6.0121  -6.0116  -6.0115  -5.9680
    -5.7463  -5.7039  -5.7021  -5.6908  -5.5148  -5.3220  -5.3212  -5.3210
    -5.3207  -5.2825  -5.2799  -5.0734  -4.9777  -4.9754  -4.9750  -4.9723
    -4.5532  -4.5484  -4.2696  -4.2687  -4.2682  -4.2673  -4.2619  -4.2613
    -4.1841  -3.8713  -3.8706  -3.8413  -3.8408  -3.2366  -3.2330  -3.2079
    -3.2070  -3.1671  -3.1666  -3.1662  -3.1658  -3.1562  -3.1552  -3.1224
    -3.1211  -3.1190  -3.1161  -2.8912  -2.8895  -2.8893  -2.8864  -2.5349
    -2.5299  -2.4841  -2.4824  -2.4588  -2.4582  -2.4562  -2.4554  -2.3111
    -2.3092  -2.0433  -2.0415  -1.7134  -1.7101  -1.4048  -1.4038  -1.4012
    -1.4007  -1.1631  -1.1625  -1.1601  -1.1578  -1.0760  -1.0738  -0.9883
    -0.9827  -0.8958  -0.8939  -0.8556  -0.8504  -0.7541  -0.7533  -0.7499
    -0.7495  -0.4470  -0.4453  -0.4064  -0.4046  -0.3157  -0.3130  -0.1705
    -0.1602   0.0945   0.0948   0.0956   0.0962   0.1114   0.1128   0.3179
     0.3186   0.3206   0.3222   0.7932   0.7955   0.9935   0.9958   0.9974
     0.9981   1.0171   1.0191   1.0234   1.0240   1.4675   1.4715   1.4752
     1.4777   1.4811   1.4960   1.4984   1.4995   1.5112

          k = 0.2500-0.1443 0.0000 (236890 PWs)   bands (ev):

   -27.8176 -27.5795 -26.3344 -26.1283 -16.9598 -15.3648 -13.1357 -11.8029
   -10.7198 -10.1542 -10.1186 -10.0084  -9.9706  -9.6685  -9.5980  -9.5975
    -9.5925  -9.2621  -8.9161  -8.8910  -8.8902  -8.8548  -8.8541  -8.6507
    -8.4844  -8.1744  -8.1512  -8.1501  -8.1322  -7.8057  -7.8039  -7.7817
    -7.4418  -7.4216  -7.3802  -7.3795  -7.0706  -7.0689  -7.0106  -6.7061
    -6.7037  -6.6824  -6.6818  -6.6321  -6.3401  -6.3389  -6.2851  -6.2843
    -6.2839  -6.2483  -6.1847  -5.9699  -5.7467  -5.6925  -5.6125  -5.6107
    -5.6100  -5.6061  -5.5929  -5.5919  -5.5911  -5.5598  -5.5596  -5.5544
    -5.5139  -5.2463  -5.1981  -5.1974  -5.0724  -4.8735  -4.8733  -4.8239
    -4.5368  -4.5327  -4.5326  -4.5124  -4.5115  -4.4627  -4.4579  -4.1867
    -4.1705  -4.1657  -4.1273  -4.1270  -3.8333  -3.8329  -3.7420  -3.7374
    -3.4984  -3.4716  -3.4695  -3.4587  -3.4581  -3.4313  -3.3858  -3.1521
    -3.1222  -3.1218  -2.7955  -2.7226  -2.6415  -2.6385  -2.4477  -2.4431
    -2.3740  -2.3732  -2.3480  -2.3440  -2.1197  -2.1168  -2.0745  -2.0703
    -2.0339  -2.0313  -1.7539  -1.7498  -1.6764  -1.6754  -1.6652  -1.5699
    -1.5660  -1.4188  -1.1153  -1.0015  -0.9918  -0.9889  -0.9659  -0.9585
    -0.8572  -0.8559  -0.6818  -0.6804  -0.5414  -0.5387  -0.4215  -0.4105
    -0.4061  -0.3810  -0.3793  -0.1544  -0.1539  -0.1514  -0.0982  -0.0931
    -0.0883  -0.0788   0.0604   0.1499   0.1593   0.4635   0.4708   0.5571
     0.5604   0.5868   0.5910   0.7580   0.7649   0.7752   0.7814   0.9456
     0.9501   0.9556   0.9563   1.0994   1.1007   1.1382   1.1391   1.2185
     1.2710   1.2775   1.2897   1.3178   1.3253   1.4512

          k = 0.2500-0.7217 0.0000 (236847 PWs)   bands (ev):

   -27.8176 -27.5795 -26.3344 -26.1283 -16.9598 -15.3648 -13.1357 -11.8029
   -10.5322 -10.1585 -10.1575 -10.1535 -10.1184  -9.8214  -9.6685  -9.5927
    -9.4487  -9.4477  -9.0402  -9.0397  -8.7303  -8.6507  -8.3599  -8.3587
    -8.3352  -8.3347  -8.2998  -8.1328  -7.9315  -7.9308  -7.5978  -7.4222
    -7.2571  -7.2531  -7.2525  -7.2312  -7.2302  -7.1969  -7.1964  -7.0115
    -6.8892  -6.8877  -6.8314  -6.8308  -6.6339  -6.5205  -6.5003  -6.4985
    -6.2495  -6.1864  -6.1569  -6.1554  -6.1360  -6.1355  -5.9711  -5.7908
    -5.7888  -5.7435  -5.6922  -5.5152  -5.4309  -5.4307  -5.3725  -5.0789
    -5.0716  -5.0677  -5.0639  -5.0185  -5.0178  -5.0069  -5.0051  -4.7067
    -4.7061  -4.6741  -4.6472  -4.3363  -4.3346  -4.1856  -4.0002  -3.9940
    -3.9934  -3.9603  -3.9435  -3.9186  -3.9171  -3.6502  -3.6495  -3.5934
    -3.5925  -3.3225  -3.3018  -3.3012  -3.2718  -3.2059  -3.0924  -2.9735
    -2.9683  -2.9277  -2.9262  -2.8673  -2.8665  -2.8188  -2.5618  -2.5591
    -2.5434  -2.5246  -2.2644  -2.2254  -2.2239  -2.1265  -2.1233  -2.0838
    -2.0803  -1.9236  -1.9216  -1.9188  -1.8374  -1.6097  -1.5478  -1.5434
    -1.4669  -1.4596  -1.4484  -1.4459  -1.2407  -1.2363  -1.1634  -1.0401
    -1.0374  -0.9401  -0.7267  -0.7218  -0.7032  -0.6462  -0.6455  -0.6100
    -0.6058  -0.5970  -0.5878  -0.5188  -0.3659  -0.3642  -0.0594  -0.0573
    -0.0114  -0.0100   0.0397   0.0422   0.2492   0.2517   0.3674   0.3681
     0.3845   0.3968   0.4021   0.4565   0.6116   0.6163   0.7037   0.7046
     0.7226   0.8926   1.0369   1.0377   1.1047   1.1649   1.1742   1.3908
     1.4037   1.6373   1.6387   1.6459   1.7015   1.7139

          k =-0.5000 0.2887 0.0000 (236880 PWs)   bands (ev):

   -27.8176 -27.5795 -26.3344 -26.1283 -16.9598 -15.3647 -13.1357 -11.8029
   -10.4388 -10.4381 -10.1542 -10.1185  -9.7289  -9.7279  -9.6912  -9.6903
    -9.6680  -9.5927  -8.9837  -8.9830  -8.6524  -8.6372  -8.6358  -8.2082
    -8.2080  -8.2069  -8.2069  -8.1331  -7.8979  -7.8961  -7.5069  -7.5064
    -7.5056  -7.5052  -7.4716  -7.4712  -7.4219  -7.1661  -7.1637  -7.0108
    -6.7741  -6.7727  -6.6341  -6.4316  -6.4311  -6.4304  -6.4299  -6.4286
    -6.4270  -6.2485  -6.1848  -6.0128  -6.0125  -6.0118  -6.0116  -5.9677
    -5.7464  -5.7027  -5.7013  -5.6919  -5.5152  -5.3220  -5.3217  -5.3209
    -5.3208  -5.2829  -5.2796  -5.0741  -4.9773  -4.9765  -4.9731  -4.9724
    -4.5535  -4.5484  -4.2696  -4.2692  -4.2681  -4.2675  -4.2618  -4.2612
    -4.1843  -3.8713  -3.8705  -3.8412  -3.8406  -3.2373  -3.2320  -3.2085
    -3.2079  -3.1669  -3.1666  -3.1660  -3.1656  -3.1549  -3.1540  -3.1222
    -3.1215  -3.1186  -3.1161  -2.8911  -2.8894  -2.8885  -2.8865  -2.5350
    -2.5303  -2.4850  -2.4833  -2.4608  -2.4601  -2.4563  -2.4552  -2.3131
    -2.3111  -2.0400  -2.0380  -1.7107  -1.7082  -1.4074  -1.4068  -1.4011
    -1.4006  -1.1632  -1.1623  -1.1606  -1.1574  -1.0763  -1.0739  -0.9849
    -0.9798  -0.8923  -0.8901  -0.8575  -0.8483  -0.7536  -0.7529  -0.7505
    -0.7504  -0.4485  -0.4465  -0.4073  -0.4051  -0.3157  -0.3137  -0.1702
    -0.1608   0.0944   0.0952   0.0955   0.0967   0.1112   0.1118   0.3169
     0.3178   0.3206   0.3213   0.7887   0.7912   0.9936   0.9942   0.9981
     0.9987   1.0161   1.0169   1.0224   1.0237   1.4607   1.4743   1.4759
     1.4805   1.4822   1.4953   1.4981   1.5006   1.5101

          k =-0.5000 0.5773 0.0000 (236845 PWs)   bands (ev):

   -27.8176 -27.5795 -26.3344 -26.1283 -16.9598 -15.3647 -13.1357 -11.8029
   -10.5321 -10.1586 -10.1574 -10.1535 -10.1184  -9.8214  -9.6685  -9.5927
    -9.4485  -9.4480  -9.0406  -9.0394  -8.7303  -8.6506  -8.3597  -8.3589
    -8.3353  -8.3347  -8.2996  -8.1327  -7.9312  -7.9308  -7.5977  -7.4222
    -7.2574  -7.2530  -7.2523  -7.2308  -7.2303  -7.1971  -7.1966  -7.0115
    -6.8900  -6.8868  -6.8317  -6.8304  -6.6341  -6.5202  -6.5005  -6.4988
    -6.2499  -6.1869  -6.1566  -6.1542  -6.1360  -6.1351  -5.9716  -5.7922
    -5.7876  -5.7435  -5.6921  -5.5155  -5.4309  -5.4305  -5.3726  -5.0818
    -5.0715  -5.0693  -5.0592  -5.0185  -5.0180  -5.0071  -5.0050  -4.7065
    -4.7058  -4.6742  -4.6475  -4.3364  -4.3346  -4.1854  -3.9996  -3.9943
    -3.9936  -3.9616  -3.9432  -3.9193  -3.9168  -3.6510  -3.6488  -3.5930
    -3.5924  -3.3225  -3.3017  -3.3014  -3.2716  -3.2057  -3.0906  -2.9727
    -2.9691  -2.9274  -2.9263  -2.8680  -2.8658  -2.8220  -2.5621  -2.5596
    -2.5433  -2.5251  -2.2639  -2.2246  -2.2229  -2.1250  -2.1233  -2.0821
    -2.0802  -1.9237  -1.9220  -1.9185  -1.8387  -1.6132  -1.5456  -1.5434
    -1.4634  -1.4596  -1.4511  -1.4478  -1.2393  -1.2353  -1.1620  -1.0386
    -1.0375  -0.9400  -0.7302  -0.7247  -0.7049  -0.6463  -0.6454  -0.6080
    -0.6059  -0.5949  -0.5897  -0.5163  -0.3656  -0.3638  -0.0594  -0.0566
    -0.0103  -0.0085   0.0398   0.0423   0.2491   0.2508   0.3677   0.3692
     0.3829   0.3969   0.4015   0.4574   0.6089   0.6136   0.7031   0.7053
     0.7182   0.8927   1.0372   1.0378   1.1074   1.1639   1.1711   1.3895
     1.4030   1.6378   1.6399   1.6451   1.7213   1.7304

          k =-0.2500-0.1443 0.0000 (236890 PWs)   bands (ev):

   -27.8176 -27.5795 -26.3344 -26.1283 -16.9598 -15.3648 -13.1357 -11.8029
   -10.7198 -10.1542 -10.1186 -10.0083  -9.9706  -9.6685  -9.5981  -9.5974
    -9.5924  -9.2621  -8.9161  -8.8911  -8.8901  -8.8548  -8.8541  -8.6507
    -8.4844  -8.1745  -8.1513  -8.1500  -8.1321  -7.8058  -7.8039  -7.7817
    -7.4418  -7.4216  -7.3802  -7.3795  -7.0704  -7.0692  -7.0105  -6.7062
    -6.7035  -6.6825  -6.6816  -6.6321  -6.3409  -6.3382  -6.2850  -6.2844
    -6.2839  -6.2479  -6.1848  -5.9702  -5.7464  -5.6925  -5.6127  -5.6107
    -5.6099  -5.6062  -5.5930  -5.5918  -5.5911  -5.5598  -5.5595  -5.5543
    -5.5139  -5.2464  -5.1981  -5.1974  -5.0724  -4.8735  -4.8732  -4.8239
    -4.5368  -4.5328  -4.5326  -4.5126  -4.5115  -4.4629  -4.4577  -4.1867
    -4.1703  -4.1659  -4.1270  -4.1269  -3.8333  -3.8329  -3.7420  -3.7373
    -3.4984  -3.4717  -3.4697  -3.4582  -3.4580  -3.4318  -3.3859  -3.1534
    -3.1219  -3.1217  -2.7954  -2.7204  -2.6415  -2.6400  -2.4480  -2.4430
    -2.3745  -2.3737  -2.3481  -2.3439  -2.1207  -2.1179  -2.0746  -2.0723
    -2.0322  -2.0313  -1.7542  -1.7497  -1.6743  -1.6731  -1.6621  -1.5697
    -1.5678  -1.4183  -1.1152  -1.0021  -0.9906  -0.9884  -0.9659  -0.9623
    -0.8572  -0.8563  -0.6788  -0.6771  -0.5410  -0.5391  -0.4215  -0.4110
    -0.4079  -0.3799  -0.3791  -0.1546  -0.1541  -0.1524  -0.0988  -0.0945
    -0.0883  -0.0784   0.0611   0.1523   0.1571   0.4632   0.4712   0.5573
     0.5608   0.5877   0.5897   0.7571   0.7665   0.7723   0.7761   0.9461
     0.9483   0.9557   0.9562   1.1003   1.1017   1.1367   1.1370   1.2186
     1.2718   1.2756   1.2890   1.3171   1.3236   1.4513

          k =-0.2500-0.7217 0.0000 (236847 PWs)   bands (ev):

   -27.8176 -27.5795 -26.3344 -26.1283 -16.9598 -15.3647 -13.1357 -11.8029
   -10.5322 -10.1586 -10.1574 -10.1535 -10.1184  -9.8214  -9.6684  -9.5927
    -9.4486  -9.4479  -9.0403  -9.0396  -8.7303  -8.6507  -8.3595  -8.3591
    -8.3353  -8.3346  -8.2998  -8.1328  -7.9314  -7.9309  -7.5978  -7.4222
    -7.2573  -7.2529  -7.2524  -7.2311  -7.2303  -7.1969  -7.1964  -7.0115
    -6.8895  -6.8874  -6.8315  -6.8307  -6.6339  -6.5205  -6.5004  -6.4985
    -6.2497  -6.1859  -6.1567  -6.1555  -6.1361  -6.1353  -5.9720  -5.7905
    -5.7874  -5.7446  -5.6922  -5.5152  -5.4313  -5.4303  -5.3725  -5.0782
    -5.0716  -5.0674  -5.0648  -5.0185  -5.0178  -5.0065  -5.0055  -4.7069
    -4.7059  -4.6743  -4.6473  -4.3363  -4.3344  -4.1856  -4.0014  -3.9941
    -3.9934  -3.9591  -3.9434  -3.9182  -3.9174  -3.6500  -3.6495  -3.5930
    -3.5924  -3.3226  -3.3019  -3.3012  -3.2717  -3.2058  -3.0950  -2.9735
    -2.9683  -2.9268  -2.9264  -2.8675  -2.8660  -2.8152  -2.5602  -2.5590
    -2.5436  -2.5243  -2.2645  -2.2264  -2.2257  -2.1265  -2.1250  -2.0839
    -2.0821  -1.9233  -1.9216  -1.9195  -1.8362  -1.6057  -1.5479  -1.5456
    -1.4668  -1.4633  -1.4463  -1.4437  -1.2429  -1.2367  -1.1658  -1.0408
    -1.0379  -0.9402  -0.7226  -0.7193  -0.7014  -0.6461  -0.6450  -0.6103
    -0.6074  -0.5966  -0.5882  -0.5215  -0.3658  -0.3642  -0.0611  -0.0577
    -0.0129  -0.0116   0.0398   0.0426   0.2505   0.2520   0.3659   0.3665
     0.3857   0.3978   0.4013   0.4552   0.6148   0.6189   0.7041   0.7048
     0.7279   0.8925   1.0367   1.0381   1.1011   1.1683   1.1753   1.3908
     1.4052   1.6366   1.6408   1.6440   1.7002   1.7127

          k = 0.5000 0.2887 0.0000 (236880 PWs)   bands (ev):

   -27.8176 -27.5795 -26.3344 -26.1283 -16.9598 -15.3647 -13.1357 -11.8029
   -10.4387 -10.4381 -10.1541 -10.1185  -9.7288  -9.7279  -9.6912  -9.6904
    -9.6680  -9.5927  -8.9839  -8.9828  -8.6525  -8.6374  -8.6355  -8.2086
    -8.2074  -8.2071  -8.2069  -8.1331  -7.8980  -7.8960  -7.5070  -7.5064
    -7.5057  -7.5049  -7.4717  -7.4711  -7.4219  -7.1661  -7.1637  -7.0108
    -6.7744  -6.7724  -6.6342  -6.4330  -6.4307  -6.4302  -6.4293  -6.4280
    -6.4274  -6.2482  -6.1848  -6.0126  -6.0123  -6.0120  -6.0116  -5.9683
    -5.7457  -5.7029  -5.7017  -5.6917  -5.5152  -5.3219  -5.3217  -5.3210
    -5.3207  -5.2826  -5.2799  -5.0740  -4.9772  -4.9767  -4.9731  -4.9723
    -4.5537  -4.5483  -4.2692  -4.2688  -4.2683  -4.2679  -4.2621  -4.2610
    -4.1842  -3.8715  -3.8707  -3.8414  -3.8408  -3.2373  -3.2320  -3.2098
    -3.2089  -3.1665  -3.1662  -3.1659  -3.1655  -3.1539  -3.1527  -3.1224
    -3.1213  -3.1176  -3.1169  -2.8898  -2.8892  -2.8873  -2.8867  -2.5353
    -2.5302  -2.4859  -2.4851  -2.4607  -2.4605  -2.4582  -2.4577  -2.3158
    -2.3138  -2.0362  -2.0340  -1.7086  -1.7060  -1.4074  -1.4068  -1.4044
    -1.4036  -1.1640  -1.1618  -1.1595  -1.1586  -1.0760  -1.0736  -0.9809
    -0.9775  -0.8880  -0.8857  -0.8573  -0.8485  -0.7531  -0.7523  -0.7504
    -0.7501  -0.4498  -0.4478  -0.4084  -0.4062  -0.3173  -0.3141  -0.1707
    -0.1605   0.0955   0.0956   0.0957   0.0963   0.1096   0.1103   0.3169
     0.3176   0.3200   0.3210   0.7837   0.7863   0.9943   0.9953   0.9976
     0.9988   1.0155   1.0163   1.0200   1.0235   1.4590   1.4746   1.4771
     1.4801   1.4824   1.4951   1.4975   1.5011   1.5088

     the Fermi energy is     0.0048 ev

!    total energy              =   -3434.73347940 Ry
     estimated scf accuracy    <          4.5E-11 Ry
     smearing contrib. (-TS)   =      -0.00808868 Ry
     internal energy E=F+TS    =   -3434.72539072 Ry

     The total energy is F=E-TS. E is the sum of the following terms:
     one-electron contribution =  -11715.31161091 Ry
     hartree contribution      =    5930.37371083 Ry
     xc contribution           =    -264.07605757 Ry
     ewald contribution        =    5413.16227702 Ry
     one-center paw contrib.   =   -2798.87371009 Ry

     convergence has been achieved in  18 iterations

     negative rho (up, down):  1.425E-03 0.000E+00

     Forces acting on atoms (cartesian axes, Ry/au):

     atom    1 type  1   force =    -0.00011519   -0.00013434   -0.00034816
     atom    2 type  1   force =     0.00003342    0.00002123    0.00031171
     atom    3 type  1   force =    -0.00006695    0.00008507    0.00056369
     atom    4 type  1   force =     0.00001533   -0.00003508    0.00006516
     atom    5 type  1   force =     0.00007995   -0.00002880    0.00040838
     atom    6 type  1   force =     0.00007237    0.00002970    0.00122876
     atom    7 type  1   force =    -0.00020541   -0.00000205    0.00096075
     atom    8 type  1   force =    -0.00008977   -0.00007853    0.00016659
     atom    9 type  1   force =     0.00001337   -0.00014309    0.00044555
     atom   10 type  1   force =    -0.00008060   -0.00025892    0.00076835
     atom   11 type  1   force =     0.00001917   -0.00005693    0.00019020
     atom   12 type  1   force =    -0.00008801    0.00001458   -0.00012865
     atom   13 type  1   force =    -0.00000360    0.00001602   -0.00001645
     atom   14 type  1   force =    -0.00006599   -0.00003044    0.00001809
     atom   15 type  1   force =    -0.00001505   -0.00013074   -0.00011621
     atom   16 type  1   force =    -0.00005065   -0.00007910   -0.00010023
     atom   17 type  1   force =     0.00006484   -0.00003083    0.00032561
     atom   18 type  1   force =     0.00001739   -0.00005021   -0.00004032
     atom   19 type  1   force =    -0.00014153   -0.00018182   -0.00018456
     atom   20 type  1   force =    -0.00007188   -0.00006129    0.00006092
     atom   21 type  1   force =    -0.00017509   -0.00014945    0.00033078
     atom   22 type  1   force =    -0.00005068   -0.00020140   -0.00015840
     atom   23 type  1   force =     0.00014714   -0.00021543    0.00004679
     atom   24 type  1   force =     0.00003688   -0.00002726    0.00029341
     atom   25 type  1   force =    -0.00016519    0.00001758   -0.00019416
     atom   26 type  1   force =     0.00001197    0.00001188   -0.00025895
     atom   27 type  1   force =     0.00006261    0.00007986   -0.00016562
     atom   28 type  1   force =    -0.00003417    0.00001019   -0.00010170
     atom   29 type  1   force =    -0.00007524    0.00018676    0.00001716
     atom   30 type  1   force =     0.00009388    0.00002631   -0.00013878
     atom   31 type  1   force =     0.00004912   -0.00001322   -0.00031888
     atom   32 type  1   force =    -0.00019015   -0.00004379   -0.00023006
     atom   33 type  1   force =    -0.00000399    0.00014944    0.00083789
     atom   34 type  1   force =     0.00005375   -0.00040415    0.00023907
     atom   35 type  1   force =    -0.00004789   -0.00007002    0.00043081
     atom   36 type  1   force =     0.00004791    0.00004945    0.00086220
     atom   37 type  1   force =     0.00016625    0.00006545   -0.00004268
     atom   38 type  1   force =    -0.00007602    0.00005261   -0.00038933
     atom   39 type  1   force =    -0.00021114    0.00007221    0.00047284
     atom   40 type  1   force =     0.00010102   -0.00003722    0.00074620
     atom   41 type  1   force =    -0.00010577   -0.00007602   -0.00036574
     atom   42 type  1   force =     0.00019794    0.00009868   -0.00007196
     atom   43 type  1   force =     0.00019527    0.00019282    0.00045623
     atom   44 type  1   force =    -0.00030845    0.00027867    0.00015155
     atom   45 type  1   force =    -0.00006567   -0.00023873    0.00064754
     atom   46 type  1   force =     0.00022490    0.00001155    0.00056121
     atom   47 type  1   force =    -0.00011168   -0.00009377    0.00083333
     atom   48 type  1   force =    -0.00003745   -0.00009446    0.00050357
     atom   49 type  1   force =    -0.00016174   -0.00012533    0.00025067
     atom   50 type  1   force =    -0.00019009   -0.00012958   -0.00015754
     atom   51 type  1   force =     0.00003658   -0.00015417   -0.00041101
     atom   52 type  1   force =     0.00033035   -0.00019388   -0.00019586
     atom   53 type  1   force =    -0.00017511   -0.00006513   -0.00023582
     atom   54 type  1   force =    -0.00015401   -0.00009349   -0.00025734
     atom   55 type  1   force =     0.00019505   -0.00006532   -0.00037080
     atom   56 type  1   force =     0.00011938    0.00005313   -0.00004355
     atom   57 type  1   force =    -0.00006850    0.00015920   -0.00031791
     atom   58 type  1   force =     0.00001891    0.00020613   -0.00038739
     atom   59 type  1   force =     0.00020065    0.00007253   -0.00036130
     atom   60 type  1   force =     0.00004124    0.00008239    0.00006419
     atom   61 type  1   force =    -0.00001911    0.00040780    0.00001083
     atom   62 type  1   force =     0.00002506    0.00025460   -0.00001730
     atom   63 type  1   force =    -0.00000786   -0.00004298    0.00011081
     atom   64 type  1   force =     0.00007135    0.00006842    0.00006096
     atom   65 type  1   force =    -0.00026295    0.00030840   -0.00017494
     atom   66 type  1   force =     0.00001181    0.00005185   -0.00045341
     atom   67 type  1   force =    -0.00014384   -0.00021110   -0.00059514
     atom   68 type  1   force =     0.00039202    0.00031100   -0.00049535
     atom   69 type  1   force =     0.00011818    0.00002814   -0.00063150
     atom   70 type  1   force =     0.00012653   -0.00006359   -0.00039567
     atom   71 type  1   force =    -0.00000440    0.00010968   -0.00079601
     atom   72 type  1   force =     0.00004232   -0.00033342   -0.00031964
     atom   73 type  1   force =    -0.00002763    0.00018816   -0.00030949
     atom   74 type  1   force =     0.00015159    0.00012880   -0.00009141
     atom   75 type  1   force =    -0.00008184    0.00023461   -0.00055341
     atom   76 type  1   force =     0.00003063    0.00019817   -0.00063996
     atom   77 type  1   force =     0.00004107   -0.00009492   -0.00073871
     atom   78 type  1   force =     0.00018378   -0.00007012   -0.00091289
     atom   79 type  1   force =     0.00022168    0.00010369   -0.00027243
     atom   80 type  1   force =    -0.00019175    0.00004792   -0.00051626
     atom   81 type  2   force =     0.00004348   -0.00052102    0.00039026
     atom   82 type  2   force =    -0.00026728    0.00023524   -0.00083965
     atom   83 type  3   force =     0.00021312   -0.00015771    0.00110431
     atom   84 type  3   force =    -0.00020436   -0.00176156   -0.00063350
     atom   85 type  3   force =     0.00104128    0.00151519   -0.00051044
     atom   86 type  2   force =    -0.00088188   -0.00000525    0.00010404
     atom   87 type  4   force =    -0.00008654   -0.00063210   -0.00048934
     atom   88 type  3   force =     0.00025969   -0.00010135    0.00003918
     atom   89 type  2   force =    -0.00087844   -0.00080383   -0.00009404
     atom   90 type  4   force =    -0.00005355    0.00132203    0.00044293
     atom   91 type  3   force =    -0.00011200    0.00149086   -0.00000714
     atom   92 type  4   force =    -0.00012022   -0.00002979    0.00187693
     atom   93 type  4   force =     0.00121940   -0.00064044    0.00050166
     atom   94 type  3   force =    -0.00009330    0.00021520   -0.00130413

     Total force =     0.006514     Total SCF correction =     0.000011


     Computing stress (Cartesian axis) and pressure


     negative rho (up, down):  1.425E-03 0.000E+00
          total   stress  (Ry/bohr**3)                   (kbar)     P=       -7.23
  -0.00007187   0.00000004   0.00000046          -10.57        0.01        0.07
   0.00000004  -0.00007162   0.00000091            0.01      -10.54        0.13
   0.00000046   0.00000091  -0.00000400            0.07        0.13       -0.59

     Energy error            =      5.9E-05 Ry
     Gradient error          =      1.9E-03 Ry/Bohr

     number of scf cycles    =  40
     number of bfgs steps    =  39

     energy             old  =   -3434.7334202220 Ry
     energy             new  =   -3434.7334794003 Ry

     CASE: energy            _new < energy            _old

     new trust radius        =       0.0257201575 bohr
     new conv_thr            =            1.0E-10 Ry


ATOMIC_POSITIONS (angstrom)
Al              11.4554885951        1.6528831197       14.8136658537
Al               2.8639589545        1.6514559460       14.8072563748
Al               5.7270523424        1.6511283661       14.8047390123
Al               8.5901825346        1.6518890615       14.8093513989
Al              12.8864682351        4.1335319800       14.8057476626
Al               4.2948206302        4.1320084241       14.7985697446
Al               7.1599940169        4.1325023772       14.8002553878
Al              10.0234164333        4.1337350390       14.8098120955
Al              14.3179702767        6.6124808688       14.8071940275
Al               5.7278368147        6.6131962661       14.8025575630
Al               8.5911436037        6.6127514842       14.8117630946
Al              11.4551162654        6.6127026839       14.8173425000
Al              15.7498822544        9.0919239440       14.8109195963
Al               7.1600946086        9.0921265218       14.8110022594
Al              10.0233655014        9.0926475939       14.8170710152
Al              12.8863142026        9.0923567007       14.8150659551
Al              -0.0024002220       -0.0054303902       17.1754160745
Al               2.8622007280       -0.0033782747       17.1788847695
Al               5.7260432203       -0.0010438581       17.1807564765
Al               8.5884451824       -0.0040769367       17.1780443317
Al               1.4321246519        2.4780196920       17.1739757502
Al               4.2941889815        2.4786881220       17.1777188665
Al               7.1552132624        2.4782797353       17.1754149856
Al              10.0195424389        2.4771969559       17.1754791116
Al               2.8639016627        4.9553760994       17.1784630158
Al               5.7249051117        4.9552909517       17.1786636637
Al               8.5865379812        4.9550202489       17.1786501613
Al              11.4540222584        4.9560842894       17.1793414376
Al               4.2943384145        7.4333816631       17.1765233997
Al               7.1554474034        7.4340432343       17.1781407767
Al              10.0199578531        7.4355852714       17.1834959034
Al              12.8872796712        7.4349088714       17.1815545381
Al               1.4276984482        0.8182501304       19.5158351402
Al               4.2909734872        0.8226350054       19.5230559509
Al               7.1543392927        0.8204873302       19.5216733869
Al              10.0174907215        0.8183065233       19.5158395754
Al               2.8584768853        3.2989916530       19.5236883146
Al               5.7237716294        3.2985769248       19.5259264835
Al               8.5861929085        3.2981962289       19.5205535358
Al              11.4505450414        3.2991228657       19.5169210314
Al               4.2918300700        5.7794565036       19.5261238163
Al               7.1527311090        5.7777978514       19.5260631949
Al              10.0163265335        5.7771879830       19.5219697889
Al              12.8848892108        5.7764023832       19.5246380286
Al               5.7228292485        8.2589542889       19.5188472497
Al               8.5846796944        8.2583636074       19.5204232790
Al              11.4510400089        8.2595745090       19.5185377001
Al              14.3147839486        8.2585720446       19.5204245961
Al              11.4487496871        1.6418084357       21.8618569928
Al               2.8571717191        1.6423182995       21.8685077528
Al               5.7210559178        1.6427346821       21.8730920623
Al               8.5814602124        1.6422527342       21.8690773979
Al              12.8800963163        4.1213718397       21.8710378433
Al               4.2895533704        4.1218272659       21.8665669201
Al               7.1523554052        4.1213948646       21.8715573208
Al              10.0146446537        4.1210693390       21.8682062849
Al              14.3121071589        6.6016553843       21.8716940785
Al               5.7203831194        6.6020412302       21.8721779785
Al               8.5812864228        6.6008014284       21.8724374213
Al              11.4470810506        6.6004442131       21.8671261705
Al              15.7433008530        9.0790494648       21.8661686141
Al               7.1522503246        9.0792571224       21.8670274587
Al              10.0159883949        9.0826843017       21.8653395711
Al              12.8792861644        9.0817495740       21.8671775785
Al              -0.0083981814       -0.0174058745       24.2327161065
Al               2.8547121789       -0.0165417085       24.2377239282
Al               5.7187203595       -0.0146660039       24.2406331263
Al               8.5801974730       -0.0172944577       24.2389781645
Al               1.4209533499        2.4635486402       24.2400889494
Al               4.2848321889        2.4645685310       24.2374224176
Al               7.1496075782        2.4645044581       24.2477706881
Al              10.0131643706        2.4650791509       24.2360748506
Al               2.8539911081        4.9436909259       24.2341979179
Al               5.7174485155        4.9438163252       24.2341214933
Al               8.5817412784        4.9434626527       24.2448974943
Al              11.4448505098        4.9441768922       24.2422131497
Al               4.2857878389        7.4250909540       24.2463040672
Al               7.1486300619        7.4247605732       24.2499062443
Al              10.0122536563        7.4247829629       24.2367585102
Al              12.8774925334        7.4247464056       24.2398497639
C                3.3086212845        4.7661305399       29.3264658087
C                4.7121018128        4.9906726494       28.8046641626
H                2.6025021239        4.9262030531       28.5020863987
H                3.2006493262        3.7407292607       29.7000373589
H                3.0796447889        5.4666561096       30.1389107092
C                5.8202310184        4.8087534595       29.8442977734
F                4.9287987844        4.1208906227       27.7387900299
H                5.6901977792        3.8258160984       30.3203043938
C                7.2665457128        4.8845533308       29.3732639165
F                4.7845218917        6.2751663097       28.2697800609
H                5.6790660516        5.5679740591       30.6260424677
F                7.5261261158        6.0352577853       28.6565756387
F                7.5827874609        3.8151683406       28.5565301367
H                7.9662777016        4.8608288600       30.2268100806



     Writing config-only to output data dir ./tmp/al_pvdf.save/ :
     XML data file
     NEW-OLD atomic charge density approx. for the potential

     negative rho (up, down):  1.400E-03 0.000E+00

     total cpu time spent up to now is    19424.5 secs

     Self-consistent Calculation

     iteration #  1     ecut=    60.00 Ry     beta= 0.30
     Davidson diagonalization with overlap
     ethr =  1.00E-06,  avg # of iterations =  4.2

     negative rho (up, down):  1.406E-03 0.000E+00

     total cpu time spent up to now is    19662.7 secs

     total energy              =   -3434.73351183 Ry
     estimated scf accuracy    <       0.00043316 Ry

     iteration #  2     ecut=    60.00 Ry     beta= 0.30
     Davidson diagonalization with overlap
     ethr =  1.49E-07,  avg # of iterations =  3.9

     negative rho (up, down):  1.410E-03 0.000E+00

     total cpu time spent up to now is    19852.1 secs

     total energy              =   -3434.73345936 Ry
     estimated scf accuracy    <       0.00083381 Ry

     iteration #  3     ecut=    60.00 Ry     beta= 0.30
     Davidson diagonalization with overlap
     ethr =  1.49E-07,  avg # of iterations =  5.7

     negative rho (up, down):  1.414E-03 0.000E+00

     total cpu time spent up to now is    20040.8 secs

     total energy              =   -3434.73337873 Ry
     estimated scf accuracy    <       0.00811636 Ry

     iteration #  4     ecut=    60.00 Ry     beta= 0.30
     Davidson diagonalization with overlap
     ethr =  1.49E-07,  avg # of iterations =  3.8

     negative rho (up, down):  1.417E-03 0.000E+00

     total cpu time spent up to now is    20228.0 secs

     total energy              =   -3434.73350293 Ry
     estimated scf accuracy    <       0.00055860 Ry

     iteration #  5     ecut=    60.00 Ry     beta= 0.30
     Davidson diagonalization with overlap
     ethr =  1.49E-07,  avg # of iterations =  2.2

     negative rho (up, down):  1.419E-03 0.000E+00

     total cpu time spent up to now is    20407.0 secs

     total energy              =   -3434.73354249 Ry
     estimated scf accuracy    <       0.00005180 Ry

     iteration #  6     ecut=    60.00 Ry     beta= 0.30
     Davidson diagonalization with overlap
     ethr =  1.79E-08,  avg # of iterations =  4.6

     negative rho (up, down):  1.422E-03 0.000E+00

     total cpu time spent up to now is    20604.5 secs

     total energy              =   -3434.73354880 Ry
     estimated scf accuracy    <       0.00001423 Ry

     iteration #  7     ecut=    60.00 Ry     beta= 0.30
     Davidson diagonalization with overlap
     ethr =  4.91E-09,  avg # of iterations =  2.3

     negative rho (up, down):  1.423E-03 0.000E+00

     total cpu time spent up to now is    20781.7 secs

     total energy              =   -3434.73354966 Ry
     estimated scf accuracy    <       0.00000197 Ry

     iteration #  8     ecut=    60.00 Ry     beta= 0.30
     Davidson diagonalization with overlap
     ethr =  6.81E-10,  avg # of iterations =  5.1

     negative rho (up, down):  1.424E-03 0.000E+00

     total cpu time spent up to now is    21009.6 secs

     total energy              =   -3434.73355006 Ry
     estimated scf accuracy    <       0.00000108 Ry

     iteration #  9     ecut=    60.00 Ry     beta= 0.30
     Davidson diagonalization with overlap
     ethr =  3.73E-10,  avg # of iterations =  2.0

     negative rho (up, down):  1.424E-03 0.000E+00

     total cpu time spent up to now is    21192.3 secs

     total energy              =   -3434.73355015 Ry
     estimated scf accuracy    <       0.00000035 Ry

     iteration # 10     ecut=    60.00 Ry     beta= 0.30
     Davidson diagonalization with overlap
     ethr =  1.20E-10,  avg # of iterations =  2.4

     negative rho (up, down):  1.424E-03 0.000E+00

     total cpu time spent up to now is    21379.3 secs

     total energy              =   -3434.73355019 Ry
     estimated scf accuracy    <       0.00000005 Ry

     iteration # 11     ecut=    60.00 Ry     beta= 0.30
     Davidson diagonalization with overlap
     ethr =  1.80E-11,  avg # of iterations =  5.0

     negative rho (up, down):  1.425E-03 0.000E+00

     total cpu time spent up to now is    21614.0 secs

     total energy              =   -3434.73355020 Ry
     estimated scf accuracy    <       0.00000002 Ry

     iteration # 12     ecut=    60.00 Ry     beta= 0.30
     Davidson diagonalization with overlap
     ethr =  8.31E-12,  avg # of iterations =  2.2

     negative rho (up, down):  1.425E-03 0.000E+00

     total cpu time spent up to now is    21805.6 secs

     total energy              =   -3434.73355020 Ry
     estimated scf accuracy    <          5.8E-09 Ry

     iteration # 13     ecut=    60.00 Ry     beta= 0.30
     Davidson diagonalization with overlap
     ethr =  2.00E-12,  avg # of iterations =  4.7

     negative rho (up, down):  1.425E-03 0.000E+00

     total cpu time spent up to now is    22012.5 secs

     total energy              =   -3434.73355021 Ry
     estimated scf accuracy    <          4.8E-09 Ry

     iteration # 14     ecut=    60.00 Ry     beta= 0.30
     Davidson diagonalization with overlap
     ethr =  1.65E-12,  avg # of iterations =  5.2

     negative rho (up, down):  1.425E-03 0.000E+00

     total cpu time spent up to now is    22198.9 secs

     total energy              =   -3434.73355020 Ry
     estimated scf accuracy    <       0.00000004 Ry

     iteration # 15     ecut=    60.00 Ry     beta= 0.30
     Davidson diagonalization with overlap
     ethr =  1.65E-12,  avg # of iterations =  2.1

     negative rho (up, down):  1.425E-03 0.000E+00

     total cpu time spent up to now is    22367.8 secs

     total energy              =   -3434.73355021 Ry
     estimated scf accuracy    <          3.9E-10 Ry

     iteration # 16     ecut=    60.00 Ry     beta= 0.30
     Davidson diagonalization with overlap
     ethr =  1.35E-13,  avg # of iterations =  5.6

     negative rho (up, down):  1.425E-03 0.000E+00

     total cpu time spent up to now is    22596.7 secs

     total energy              =   -3434.73355021 Ry
     estimated scf accuracy    <          3.0E-10 Ry

     iteration # 17     ecut=    60.00 Ry     beta= 0.30
     Davidson diagonalization with overlap
     ethr =  1.03E-13,  avg # of iterations =  2.0

     negative rho (up, down):  1.425E-03 0.000E+00

     total cpu time spent up to now is    22771.1 secs

     End of self-consistent calculation

          k = 0.0000 0.0000 0.0000 (237007 PWs)   bands (ev):

   -27.8164 -27.5762 -26.3315 -26.1276 -16.9547 -15.3593 -13.1297 -11.8005
   -10.8162 -10.1510 -10.1168 -10.1034  -9.6664  -9.5886  -9.3226  -9.3221
    -9.3216  -9.3207  -9.3206  -9.3187  -9.0107  -8.6463  -8.6156  -8.6153
    -8.6148  -8.6146  -8.6143  -8.6130  -8.1299  -7.5351  -7.5317  -7.5311
    -7.5308  -7.5307  -7.5292  -7.5282  -7.4187  -7.0105  -6.6317  -6.3787
    -6.3780  -6.3780  -6.3775  -6.3772  -6.3769  -6.2481  -6.1848  -6.0813
    -6.0668  -6.0661  -6.0649  -6.0634  -6.0606  -5.9520  -5.7460  -5.6900
    -5.6860  -5.6857  -5.6840  -5.6837  -5.6828  -5.6822  -5.6450  -5.5157
    -5.0701  -4.9461  -4.9457  -4.9452  -4.9205  -4.9201  -4.9191  -4.6249
    -4.6241  -4.6236  -4.6224  -4.6221  -4.6212  -4.2687  -4.2672  -4.2666
    -4.2352  -4.2338  -4.2328  -4.2046  -4.1918  -4.1907  -4.1892  -4.1871
    -4.1843  -4.1660  -3.5868  -3.3600  -3.3575  -3.3557  -3.2052  -3.2035
    -3.2033  -3.2011  -3.2008  -3.1995  -3.0886  -3.0854  -3.0819  -2.1901
    -2.1876  -2.1853  -2.1851  -2.1833  -2.1766  -1.8740  -1.8707  -1.8664
    -1.5066  -1.5061  -1.5046  -1.5030  -1.5015  -1.4995  -1.4278  -1.4248
    -1.4236  -1.2024  -0.7546  -0.7539  -0.7532  -0.7526  -0.7518  -0.7516
    -0.6331  -0.6327  -0.6305  -0.6301  -0.6292  -0.6266  -0.0827  -0.0818
    -0.0802  -0.0780  -0.0759  -0.0746   0.1404   0.1467   0.1497   0.1509
     0.1550   0.1637   0.1683   0.1711   0.1737   0.2260   0.2262   0.2288
     0.2311   0.2316   0.2321   0.2335   0.2338   0.2364   0.8044   0.8070
     0.8086   0.8090   0.8110   0.8158   0.9340   0.9355   0.9380   0.9384
     0.9397   0.9412   1.1353   1.2976   1.3002   1.3039

          k = 0.0000 0.2887 0.0000 (236896 PWs)   bands (ev):

   -27.8164 -27.5762 -26.3315 -26.1276 -16.9547 -15.3593 -13.1297 -11.8005
   -10.7223 -10.1510 -10.1162 -10.0106  -9.9732  -9.6664  -9.6004  -9.5999
    -9.5885  -9.2644  -8.9178  -8.8932  -8.8924  -8.8572  -8.8567  -8.6456
    -8.4871  -8.1765  -8.1530  -8.1524  -8.1289  -7.8072  -7.8059  -7.7840
    -7.4427  -7.4189  -7.3827  -7.3822  -7.0719  -7.0710  -7.0101  -6.7061
    -6.7051  -6.6845  -6.6839  -6.6312  -6.3420  -6.3399  -6.2875  -6.2867
    -6.2864  -6.2446  -6.1819  -5.9677  -5.7461  -5.6897  -5.6141  -5.6126
    -5.6109  -5.6074  -5.5953  -5.5939  -5.5933  -5.5621  -5.5618  -5.5545
    -5.5152  -5.2472  -5.2007  -5.2001  -5.0701  -4.8758  -4.8752  -4.8241
    -4.5386  -4.5344  -4.5340  -4.5149  -4.5140  -4.4624  -4.4579  -4.1833
    -4.1707  -4.1679  -4.1298  -4.1295  -3.8348  -3.8345  -3.7416  -3.7376
    -3.4989  -3.4733  -3.4717  -3.4613  -3.4604  -3.4338  -3.3859  -3.1528
    -3.1231  -3.1226  -2.7963  -2.7269  -2.6415  -2.6400  -2.4480  -2.4434
    -2.3762  -2.3756  -2.3479  -2.3444  -2.1202  -2.1179  -2.0737  -2.0715
    -2.0365  -2.0348  -1.7545  -1.7503  -1.6805  -1.6796  -1.6696  -1.5699
    -1.5675  -1.4201  -1.1147  -1.0017  -0.9940  -0.9919  -0.9635  -0.9597
    -0.8576  -0.8568  -0.6859  -0.6848  -0.5421  -0.5404  -0.4212  -0.4105
    -0.4078  -0.3811  -0.3794  -0.1558  -0.1552  -0.1522  -0.0984  -0.0943
    -0.0882  -0.0780   0.0571   0.1507   0.1560   0.4631   0.4710   0.5555
     0.5583   0.5863   0.5890   0.7577   0.7614   0.7787   0.7826   0.9461
     0.9484   0.9555   0.9563   1.0958   1.0972   1.1383   1.1390   1.2202
     1.2718   1.2757   1.2886   1.3185   1.3240   1.4508

          k = 0.0000-0.5773 0.0000 (236880 PWs)   bands (ev):

   -27.8164 -27.5762 -26.3315 -26.1276 -16.9547 -15.3593 -13.1297 -11.8005
   -10.4417 -10.4402 -10.1510 -10.1162  -9.7312  -9.7299  -9.6936  -9.6928
    -9.6660  -9.5885  -8.9859  -8.9851  -8.6480  -8.6389  -8.6368  -8.2109
    -8.2104  -8.2096  -8.2092  -8.1298  -7.8995  -7.8981  -7.5090  -7.5087
    -7.5079  -7.5074  -7.4745  -7.4739  -7.4192  -7.1673  -7.1642  -7.0102
    -6.7765  -6.7749  -6.6325  -6.4339  -6.4322  -6.4316  -6.4312  -6.4302
    -6.4288  -6.2450  -6.1820  -6.0154  -6.0151  -6.0137  -6.0134  -5.9657
    -5.7458  -5.7050  -5.7040  -5.6887  -5.5158  -5.3241  -5.3235  -5.3234
    -5.3228  -5.2823  -5.2800  -5.0707  -4.9785  -4.9764  -4.9760  -4.9736
    -4.5530  -4.5485  -4.2709  -4.2705  -4.2698  -4.2697  -4.2627  -4.2625
    -4.1810  -3.8738  -3.8732  -3.8439  -3.8433  -3.2370  -3.2337  -3.2101
    -3.2093  -3.1696  -3.1691  -3.1685  -3.1682  -3.1585  -3.1577  -3.1222
    -3.1210  -3.1190  -3.1163  -2.8925  -2.8911  -2.8904  -2.8877  -2.5353
    -2.5306  -2.4846  -2.4825  -2.4609  -2.4601  -2.4585  -2.4574  -2.3129
    -2.3112  -2.0448  -2.0433  -1.7154  -1.7128  -1.4064  -1.4053  -1.4027
    -1.4021  -1.1636  -1.1630  -1.1607  -1.1587  -1.0784  -1.0762  -0.9900
    -0.9849  -0.8969  -0.8952  -0.8550  -0.8498  -0.7540  -0.7534  -0.7504
    -0.7501  -0.4481  -0.4467  -0.4082  -0.4068  -0.3161  -0.3140  -0.1698
    -0.1597   0.0936   0.0939   0.0945   0.0952   0.1098   0.1110   0.3158
     0.3164   0.3185   0.3200   0.7921   0.7942   0.9931   0.9951   0.9966
     0.9974   1.0156   1.0173   1.0217   1.0223   1.4685   1.4719   1.4753
     1.4776   1.4801   1.4957   1.4975   1.4985   1.5090

          k = 0.2500-0.1443 0.0000 (236890 PWs)   bands (ev):

   -27.8164 -27.5762 -26.3315 -26.1276 -16.9547 -15.3593 -13.1297 -11.8005
   -10.7223 -10.1510 -10.1162 -10.0106  -9.9731  -9.6664  -9.6005  -9.6000
    -9.5885  -9.2643  -8.9178  -8.8931  -8.8926  -8.8573  -8.8567  -8.6455
    -8.4869  -8.1761  -8.1532  -8.1524  -8.1292  -7.8072  -7.8059  -7.7839
    -7.4426  -7.4189  -7.3827  -7.3821  -7.0721  -7.0708  -7.0101  -6.7071
    -6.7052  -6.6845  -6.6841  -6.6297  -6.3408  -6.3399  -6.2875  -6.2869
    -6.2864  -6.2457  -6.1825  -5.9675  -5.7461  -5.6898  -5.6141  -5.6125
    -5.6110  -5.6073  -5.5952  -5.5942  -5.5934  -5.5624  -5.5621  -5.5545
    -5.5150  -5.2473  -5.2006  -5.1999  -5.0698  -4.8758  -4.8756  -4.8239
    -4.5385  -4.5345  -4.5344  -4.5146  -4.5139  -4.4625  -4.4580  -4.1839
    -4.1713  -4.1665  -4.1298  -4.1295  -3.8351  -3.8347  -3.7418  -3.7375
    -3.4989  -3.4732  -3.4715  -3.4610  -3.4604  -3.4338  -3.3857  -3.1534
    -3.1232  -3.1228  -2.7960  -2.7247  -2.6430  -2.6400  -2.4481  -2.4438
    -2.3763  -2.3757  -2.3479  -2.3442  -2.1209  -2.1183  -2.0758  -2.0715
    -2.0363  -2.0337  -1.7543  -1.7505  -1.6784  -1.6776  -1.6667  -1.5713
    -1.5675  -1.4195  -1.1146  -1.0017  -0.9942  -0.9913  -0.9670  -0.9597
    -0.8581  -0.8569  -0.6831  -0.6821  -0.5427  -0.5401  -0.4209  -0.4122
    -0.4081  -0.3809  -0.3793  -0.1560  -0.1556  -0.1524  -0.1000  -0.0949
    -0.0877  -0.0784   0.0582   0.1488   0.1581   0.4635   0.4706   0.5551
     0.5582   0.5853   0.5894   0.7574   0.7631   0.7743   0.7803   0.9442
     0.9487   0.9556   0.9562   1.0972   1.0984   1.1368   1.1377   1.2195
     1.2699   1.2763   1.2895   1.3160   1.3233   1.4506

          k = 0.2500-0.7217 0.0000 (236847 PWs)   bands (ev):

   -27.8164 -27.5762 -26.3315 -26.1276 -16.9547 -15.3593 -13.1297 -11.8005
   -10.5347 -10.1613 -10.1594 -10.1507 -10.1161  -9.8236  -9.6664  -9.5886
    -9.4508  -9.4502  -9.0426  -9.0422  -8.7320  -8.6455  -8.3614  -8.3607
    -8.3374  -8.3370  -8.3023  -8.1296  -7.9345  -7.9329  -7.6001  -7.4194
    -7.2579  -7.2549  -7.2543  -7.2333  -7.2326  -7.1996  -7.1988  -7.0109
    -6.8902  -6.8886  -6.8339  -6.8334  -6.6314  -6.5223  -6.5026  -6.5008
    -6.2468  -6.1842  -6.1584  -6.1572  -6.1383  -6.1377  -5.9687  -5.7917
    -5.7898  -5.7431  -5.6896  -5.5162  -5.4327  -5.4325  -5.3725  -5.0782
    -5.0733  -5.0686  -5.0639  -5.0212  -5.0203  -5.0069  -5.0049  -4.7078
    -4.7069  -4.6766  -4.6497  -4.3386  -4.3369  -4.1824  -4.0025  -3.9949
    -3.9945  -3.9626  -3.9461  -3.9185  -3.9171  -3.6512  -3.6506  -3.5963
    -3.5947  -3.3231  -3.3036  -3.3031  -3.2741  -3.2059  -3.0943  -2.9740
    -2.9689  -2.9298  -2.9286  -2.8672  -2.8666  -2.8205  -2.5641  -2.5615
    -2.5459  -2.5271  -2.2663  -2.2258  -2.2240  -2.1280  -2.1249  -2.0852
    -2.0818  -1.9241  -1.9223  -1.9210  -1.8397  -1.6107  -1.5491  -1.5447
    -1.4679  -1.4607  -1.4505  -1.4486  -1.2424  -1.2369  -1.1643  -1.0413
    -1.0388  -0.9395  -0.7284  -0.7240  -0.7049  -0.6478  -0.6471  -0.6118
    -0.6075  -0.5967  -0.5871  -0.5200  -0.3670  -0.3651  -0.0599  -0.0583
    -0.0120  -0.0103   0.0377   0.0400   0.2487   0.2511   0.3656   0.3664
     0.3841   0.3974   0.4025   0.4566   0.6096   0.6139   0.7027   0.7036
     0.7216   0.8922   1.0353   1.0359   1.1039   1.1638   1.1729   1.3918
     1.4037   1.6350   1.6393   1.6465   1.7002   1.7146

          k =-0.5000 0.2887 0.0000 (236880 PWs)   bands (ev):

   -27.8164 -27.5762 -26.3315 -26.1276 -16.9547 -15.3593 -13.1297 -11.8005
   -10.4417 -10.4401 -10.1510 -10.1162  -9.7312  -9.7300  -9.6937  -9.6928
    -9.6660  -9.5886  -8.9859  -8.9853  -8.6482  -8.6387  -8.6367  -8.2106
    -8.2105  -8.2095  -8.2094  -8.1299  -7.8994  -7.8980  -7.5090  -7.5087
    -7.5078  -7.5075  -7.4743  -7.4737  -7.4191  -7.1670  -7.1646  -7.0103
    -6.7763  -6.7749  -6.6316  -6.4324  -6.4320  -6.4319  -6.4316  -6.4305
    -6.4290  -6.2458  -6.1826  -6.0157  -6.0155  -6.0140  -6.0136  -5.9654
    -5.7459  -5.7044  -5.7030  -5.6894  -5.5162  -5.3240  -5.3238  -5.3234
    -5.3233  -5.2829  -5.2795  -5.0714  -4.9780  -4.9774  -4.9742  -4.9737
    -4.5533  -4.5485  -4.2709  -4.2708  -4.2700  -4.2698  -4.2627  -4.2623
    -4.1811  -3.8737  -3.8732  -3.8437  -3.8432  -3.2377  -3.2327  -3.2107
    -3.2102  -3.1694  -3.1690  -3.1683  -3.1680  -3.1571  -3.1565  -3.1219
    -3.1214  -3.1186  -3.1163  -2.8924  -2.8908  -2.8897  -2.8878  -2.5354
    -2.5310  -2.4853  -2.4835  -2.4630  -2.4621  -2.4586  -2.4572  -2.3148
    -2.3132  -2.0414  -2.0399  -1.7128  -1.7109  -1.4090  -1.4081  -1.4029
    -1.4019  -1.1637  -1.1629  -1.1613  -1.1583  -1.0788  -1.0764  -0.9866
    -0.9820  -0.8934  -0.8914  -0.8572  -0.8475  -0.7536  -0.7532  -0.7510
    -0.7507  -0.4495  -0.4478  -0.4090  -0.4073  -0.3162  -0.3147  -0.1695
    -0.1604   0.0935   0.0941   0.0945   0.0957   0.1094   0.1101   0.3148
     0.3156   0.3183   0.3192   0.7877   0.7899   0.9933   0.9936   0.9974
     0.9978   1.0147   1.0151   1.0205   1.0220   1.4615   1.4743   1.4759
     1.4799   1.4825   1.4945   1.4977   1.4995   1.5066

          k =-0.5000 0.5773 0.0000 (236845 PWs)   bands (ev):

   -27.8164 -27.5762 -26.3315 -26.1276 -16.9547 -15.3593 -13.1297 -11.8005
   -10.5347 -10.1612 -10.1595 -10.1507 -10.1161  -9.8237  -9.6664  -9.5887
    -9.4508  -9.4502  -9.0431  -9.0420  -8.7320  -8.6454  -8.3613  -8.3608
    -8.3376  -8.3370  -8.3021  -8.1295  -7.9343  -7.9328  -7.5999  -7.4195
    -7.2582  -7.2548  -7.2542  -7.2332  -7.2324  -7.1997  -7.1990  -7.0109
    -6.8910  -6.8876  -6.8341  -6.8330  -6.6316  -6.5219  -6.5027  -6.5012
    -6.2472  -6.1848  -6.1578  -6.1563  -6.1383  -6.1374  -5.9692  -5.7930
    -5.7887  -5.7431  -5.6895  -5.5165  -5.4328  -5.4322  -5.3726  -5.0806
    -5.0732  -5.0709  -5.0590  -5.0212  -5.0204  -5.0070  -5.0051  -4.7077
    -4.7066  -4.6767  -4.6500  -4.3386  -4.3370  -4.1821  -4.0019  -3.9951
    -3.9947  -3.9639  -3.9458  -3.9191  -3.9168  -3.6519  -3.6500  -3.5960
    -3.5945  -3.3230  -3.3035  -3.3032  -3.2739  -3.2057  -3.0925  -2.9730
    -2.9698  -2.9297  -2.9286  -2.8679  -2.8659  -2.8237  -2.5643  -2.5621
    -2.5459  -2.5276  -2.2658  -2.2250  -2.2230  -2.1265  -2.1248  -2.0835
    -2.0817  -1.9241  -1.9227  -1.9207  -1.8409  -1.6142  -1.5469  -1.5446
    -1.4644  -1.4607  -1.4531  -1.4505  -1.2410  -1.2361  -1.1630  -1.0399
    -1.0389  -0.9394  -0.7319  -0.7269  -0.7065  -0.6479  -0.6469  -0.6098
    -0.6077  -0.5944  -0.5892  -0.5175  -0.3668  -0.3647  -0.0598  -0.0577
    -0.0110  -0.0089   0.0378   0.0400   0.2486   0.2501   0.3660   0.3675
     0.3828   0.3974   0.4018   0.4574   0.6071   0.6112   0.7022   0.7042
     0.7173   0.8924   1.0354   1.0361   1.1065   1.1629   1.1697   1.3905
     1.4031   1.6356   1.6408   1.6453   1.7219   1.7283

          k =-0.2500-0.1443 0.0000 (236890 PWs)   bands (ev):

   -27.8164 -27.5762 -26.3315 -26.1276 -16.9547 -15.3593 -13.1297 -11.8005
   -10.7223 -10.1510 -10.1162 -10.0106  -9.9731  -9.6665  -9.6005  -9.5999
    -9.5885  -9.2643  -8.9178  -8.8933  -8.8924  -8.8573  -8.8567  -8.6455
    -8.4869  -8.1762  -8.1533  -8.1523  -8.1291  -7.8073  -7.8058  -7.7839
    -7.4426  -7.4189  -7.3827  -7.3821  -7.0719  -7.0710  -7.0101  -6.7072
    -6.7051  -6.6847  -6.6839  -6.6297  -6.3416  -6.3392  -6.2875  -6.2869
    -6.2864  -6.2453  -6.1825  -5.9678  -5.7459  -5.6898  -5.6142  -5.6123
    -5.6111  -5.6074  -5.5952  -5.5941  -5.5934  -5.5623  -5.5621  -5.5544
    -5.5149  -5.2474  -5.2006  -5.1999  -5.0697  -4.8757  -4.8755  -4.8238
    -4.5386  -4.5345  -4.5344  -4.5148  -4.5138  -4.4627  -4.4578  -4.1839
    -4.1711  -4.1668  -4.1296  -4.1294  -3.8351  -3.8347  -3.7418  -3.7375
    -3.4989  -3.4733  -3.4716  -3.4605  -3.4603  -3.4343  -3.3858  -3.1546
    -3.1230  -3.1228  -2.7959  -2.7225  -2.6430  -2.6415  -2.4484  -2.4438
    -2.3769  -2.3762  -2.3480  -2.3441  -2.1220  -2.1194  -2.0758  -2.0736
    -2.0346  -2.0337  -1.7546  -1.7504  -1.6763  -1.6753  -1.6636  -1.5712
    -1.5692  -1.4190  -1.1146  -1.0023  -0.9930  -0.9908  -0.9670  -0.9634
    -0.8581  -0.8572  -0.6802  -0.6788  -0.5423  -0.5405  -0.4209  -0.4127
    -0.4099  -0.3799  -0.3791  -0.1563  -0.1557  -0.1534  -0.1005  -0.0963
    -0.0878  -0.0781   0.0589   0.1512   0.1559   0.4632   0.4709   0.5553
     0.5586   0.5862   0.5882   0.7567   0.7647   0.7715   0.7750   0.9447
     0.9469   0.9556   0.9562   1.0981   1.0994   1.1354   1.1356   1.2195
     1.2706   1.2743   1.2888   1.3154   1.3217   1.4507

          k =-0.2500-0.7217 0.0000 (236847 PWs)   bands (ev):

   -27.8164 -27.5762 -26.3315 -26.1276 -16.9547 -15.3593 -13.1297 -11.8005
   -10.5347 -10.1614 -10.1593 -10.1507 -10.1161  -9.8237  -9.6664  -9.5886
    -9.4511  -9.4499  -9.0428  -9.0421  -8.7320  -8.6455  -8.3614  -8.3607
    -8.3375  -8.3369  -8.3023  -8.1296  -7.9346  -7.9328  -7.6001  -7.4195
    -7.2581  -7.2548  -7.2541  -7.2336  -7.2323  -7.1993  -7.1990  -7.0109
    -6.8905  -6.8883  -6.8340  -6.8333  -6.6314  -6.5222  -6.5025  -6.5009
    -6.2470  -6.1837  -6.1585  -6.1571  -6.1384  -6.1376  -5.9696  -5.7915
    -5.7884  -5.7441  -5.6896  -5.5162  -5.4331  -5.4321  -5.3725  -5.0776
    -5.0733  -5.0679  -5.0651  -5.0210  -5.0204  -5.0066  -5.0053  -4.7081
    -4.7067  -4.6768  -4.6498  -4.3384  -4.3369  -4.1824  -4.0037  -3.9949
    -3.9946  -3.9614  -3.9460  -3.9182  -3.9174  -3.6510  -3.6506  -3.5961
    -3.5944  -3.3231  -3.3037  -3.3030  -3.2740  -3.2058  -3.0969  -2.9741
    -2.9688  -2.9294  -2.9283  -2.8675  -2.8660  -2.8169  -2.5626  -2.5615
    -2.5462  -2.5268  -2.2664  -2.2268  -2.2258  -2.1280  -2.1265  -2.0853
    -2.0835  -1.9240  -1.9222  -1.9216  -1.8385  -1.6068  -1.5491  -1.5468
    -1.4678  -1.4643  -1.4485  -1.4464  -1.2446  -1.2373  -1.1667  -1.0422
    -1.0391  -0.9396  -0.7245  -0.7215  -0.7031  -0.6477  -0.6465  -0.6121
    -0.6091  -0.5965  -0.5872  -0.5227  -0.3670  -0.3651  -0.0616  -0.0587
    -0.0134  -0.0120   0.0379   0.0402   0.2499   0.2514   0.3643   0.3648
     0.3856   0.3982   0.4016   0.4553   0.6129   0.6164   0.7031   0.7038
     0.7269   0.8921   1.0349   1.0364   1.1003   1.1673   1.1738   1.3917
     1.4052   1.6342   1.6408   1.6451   1.6991   1.7131

          k = 0.5000 0.2887 0.0000 (236880 PWs)   bands (ev):

   -27.8164 -27.5762 -26.3315 -26.1276 -16.9547 -15.3593 -13.1297 -11.8005
   -10.4418 -10.4400 -10.1510 -10.1162  -9.7313  -9.7297  -9.6937  -9.6929
    -9.6660  -9.5886  -8.9860  -8.9851  -8.6484  -8.6387  -8.6365  -8.2110
    -8.2099  -8.2097  -8.2094  -8.1298  -7.8995  -7.8979  -7.5093  -7.5087
    -7.5078  -7.5073  -7.4742  -7.4738  -7.4192  -7.1671  -7.1644  -7.0103
    -6.7765  -6.7748  -6.6316  -6.4337  -6.4320  -6.4315  -6.4309  -6.4299
    -6.4292  -6.2456  -6.1826  -6.0157  -6.0155  -6.0139  -6.0136  -5.9660
    -5.7452  -5.7046  -5.7034  -5.6892  -5.5162  -5.3245  -5.3240  -5.3230
    -5.3229  -5.2828  -5.2797  -5.0713  -4.9780  -4.9775  -4.9742  -4.9735
    -4.5534  -4.5484  -4.2710  -4.2705  -4.2702  -4.2697  -4.2630  -4.2622
    -4.1810  -3.8740  -3.8733  -3.8439  -3.8433  -3.2379  -3.2325  -3.2120
    -3.2112  -3.1688  -3.1686  -3.1683  -3.1680  -3.1562  -3.1552  -3.1223
    -3.1211  -3.1177  -3.1171  -2.8911  -2.8905  -2.8886  -2.8880  -2.5357
    -2.5309  -2.4863  -2.4853  -2.4629  -2.4623  -2.4605  -2.4596  -2.3175
    -2.3159  -2.0377  -2.0360  -1.7108  -1.7087  -1.4091  -1.4081  -1.4059
    -1.4049  -1.1645  -1.1622  -1.1603  -1.1594  -1.0785  -1.0761  -0.9827
    -0.9796  -0.8892  -0.8870  -0.8571  -0.8475  -0.7534  -0.7522  -0.7509
    -0.7506  -0.4508  -0.4492  -0.4101  -0.4084  -0.3178  -0.3150  -0.1700
    -0.1601   0.0946   0.0947   0.0947   0.0951   0.1081   0.1085   0.3149
     0.3154   0.3179   0.3187   0.7827   0.7850   0.9936   0.9948   0.9971
     0.9980   1.0139   1.0147   1.0183   1.0217   1.4598   1.4746   1.4766
     1.4792   1.4832   1.4934   1.4973   1.4994   1.5059

     the Fermi energy is     0.0037 ev

!    total energy              =   -3434.73355021 Ry
     estimated scf accuracy    <          8.9E-11 Ry
     smearing contrib. (-TS)   =      -0.00814013 Ry
     internal energy E=F+TS    =   -3434.72541007 Ry

     The total energy is F=E-TS. E is the sum of the following terms:
     one-electron contribution =  -11708.50406231 Ry
     hartree contribution      =    5926.96446859 Ry
     xc contribution           =    -264.08019784 Ry
     ewald contribution        =    5409.76921339 Ry
     one-center paw contrib.   =   -2798.87483190 Ry

     convergence has been achieved in  17 iterations

     negative rho (up, down):  1.425E-03 0.000E+00

     Forces acting on atoms (cartesian axes, Ry/au):

     atom    1 type  1   force =    -0.00010032   -0.00012498   -0.00026694
     atom    2 type  1   force =    -0.00002666    0.00001390    0.00026257
     atom    3 type  1   force =    -0.00001529    0.00006900    0.00049587
     atom    4 type  1   force =     0.00000949   -0.00002565    0.00007576
     atom    5 type  1   force =     0.00003733   -0.00008955    0.00037241
     atom    6 type  1   force =     0.00006135    0.00000822    0.00108552
     atom    7 type  1   force =    -0.00015873   -0.00005394    0.00083659
     atom    8 type  1   force =    -0.00008538   -0.00008652    0.00016371
     atom    9 type  1   force =     0.00002982   -0.00007657    0.00037942
     atom   10 type  1   force =    -0.00009173   -0.00018482    0.00066323
     atom   11 type  1   force =     0.00002497   -0.00004103    0.00015288
     atom   12 type  1   force =    -0.00009956    0.00001662   -0.00013101
     atom   13 type  1   force =     0.00000109    0.00000380    0.00001026
     atom   14 type  1   force =    -0.00006432   -0.00003148    0.00004027
     atom   15 type  1   force =    -0.00002790   -0.00013958   -0.00012146
     atom   16 type  1   force =    -0.00004887   -0.00007850   -0.00007963
     atom   17 type  1   force =     0.00003846    0.00002018    0.00020469
     atom   18 type  1   force =    -0.00002898   -0.00006194   -0.00004596
     atom   19 type  1   force =    -0.00010911   -0.00021230   -0.00014413
     atom   20 type  1   force =    -0.00002289   -0.00004660   -0.00000966
     atom   21 type  1   force =    -0.00017993   -0.00015968    0.00028580
     atom   22 type  1   force =    -0.00005648   -0.00020336   -0.00026423
     atom   23 type  1   force =     0.00012556   -0.00020482   -0.00001122
     atom   24 type  1   force =     0.00006881   -0.00006879    0.00019427
     atom   25 type  1   force =    -0.00016893    0.00001192   -0.00030505
     atom   26 type  1   force =     0.00000229    0.00000674   -0.00044165
     atom   27 type  1   force =     0.00010978    0.00007230   -0.00018917
     atom   28 type  1   force =    -0.00006293   -0.00001321   -0.00009669
     atom   29 type  1   force =    -0.00007865    0.00017140   -0.00000569
     atom   30 type  1   force =     0.00011049    0.00007173   -0.00013008
     atom   31 type  1   force =     0.00005053   -0.00000396   -0.00029293
     atom   32 type  1   force =    -0.00019652    0.00000505   -0.00018200
     atom   33 type  1   force =    -0.00005535    0.00010489    0.00084018
     atom   34 type  1   force =     0.00002692   -0.00043865    0.00027808
     atom   35 type  1   force =     0.00002915   -0.00010167    0.00044324
     atom   36 type  1   force =     0.00004436    0.00003212    0.00094456
     atom   37 type  1   force =     0.00000535   -0.00002289    0.00005285
     atom   38 type  1   force =    -0.00001580   -0.00000212   -0.00016589
     atom   39 type  1   force =    -0.00006877   -0.00000564    0.00047831
     atom   40 type  1   force =     0.00004676   -0.00006690    0.00074723
     atom   41 type  1   force =    -0.00010212    0.00002260   -0.00015844
     atom   42 type  1   force =     0.00024123    0.00012950    0.00002986
     atom   43 type  1   force =     0.00019408    0.00017352    0.00052088
     atom   44 type  1   force =    -0.00033245    0.00027540    0.00020002
     atom   45 type  1   force =    -0.00007012   -0.00007177    0.00062918
     atom   46 type  1   force =     0.00019388    0.00003211    0.00062802
     atom   47 type  1   force =    -0.00009177   -0.00007890    0.00088816
     atom   48 type  1   force =    -0.00001992   -0.00001366    0.00054127
     atom   49 type  1   force =    -0.00015601   -0.00014321    0.00015360
     atom   50 type  1   force =    -0.00026072   -0.00020062   -0.00017522
     atom   51 type  1   force =     0.00006645   -0.00024038   -0.00043727
     atom   52 type  1   force =     0.00037516   -0.00023271   -0.00023302
     atom   53 type  1   force =    -0.00027549   -0.00010153   -0.00026715
     atom   54 type  1   force =    -0.00018454   -0.00010516   -0.00033784
     atom   55 type  1   force =     0.00025870   -0.00010191   -0.00042257
     atom   56 type  1   force =     0.00017678    0.00002321   -0.00012223
     atom   57 type  1   force =    -0.00010771    0.00023847   -0.00033191
     atom   58 type  1   force =     0.00003033    0.00030101   -0.00044492
     atom   59 type  1   force =     0.00024870    0.00012777   -0.00038995
     atom   60 type  1   force =     0.00001742    0.00012172   -0.00001226
     atom   61 type  1   force =    -0.00002110    0.00045221   -0.00003914
     atom   62 type  1   force =     0.00002226    0.00030372   -0.00010640
     atom   63 type  1   force =     0.00000424   -0.00007919    0.00003345
     atom   64 type  1   force =     0.00004616    0.00004663   -0.00004446
     atom   65 type  1   force =    -0.00021789    0.00024427   -0.00016803
     atom   66 type  1   force =     0.00001710    0.00012729   -0.00042194
     atom   67 type  1   force =    -0.00013571   -0.00006329   -0.00054408
     atom   68 type  1   force =     0.00034319    0.00028475   -0.00049525
     atom   69 type  1   force =     0.00014306    0.00005489   -0.00060373
     atom   70 type  1   force =     0.00013359   -0.00008982   -0.00025287
     atom   71 type  1   force =    -0.00000535    0.00010622   -0.00068353
     atom   72 type  1   force =     0.00001359   -0.00026112   -0.00029538
     atom   73 type  1   force =    -0.00004578    0.00019577   -0.00016915
     atom   74 type  1   force =     0.00019341    0.00018458    0.00014558
     atom   75 type  1   force =    -0.00015089    0.00020991   -0.00043542
     atom   76 type  1   force =     0.00007801    0.00013819   -0.00062058
     atom   77 type  1   force =     0.00006172   -0.00010997   -0.00063597
     atom   78 type  1   force =     0.00010296   -0.00014456   -0.00084605
     atom   79 type  1   force =     0.00016651    0.00006518   -0.00024113
     atom   80 type  1   force =    -0.00008716   -0.00000928   -0.00046084
     atom   81 type  2   force =     0.00046351   -0.00026181    0.00035634
     atom   82 type  2   force =    -0.00034513   -0.00012552    0.00022655
     atom   83 type  3   force =    -0.00001614   -0.00024137    0.00113828
     atom   84 type  3   force =     0.00004555   -0.00054779   -0.00098718
     atom   85 type  3   force =     0.00084532    0.00102156   -0.00065252
     atom   86 type  2   force =    -0.00073881    0.00030887   -0.00006554
     atom   87 type  4   force =     0.00012424   -0.00038539   -0.00080283
     atom   88 type  3   force =     0.00008495    0.00042886   -0.00026476
     atom   89 type  2   force =    -0.00082924   -0.00079736   -0.00018881
     atom   90 type  4   force =    -0.00019548   -0.00000664    0.00095069
     atom   91 type  3   force =    -0.00021965    0.00119915   -0.00014597
     atom   92 type  4   force =    -0.00001290    0.00016382    0.00215466
     atom   93 type  4   force =     0.00126168   -0.00099406    0.00054427
     atom   94 type  3   force =    -0.00039108    0.00036314   -0.00176074

     Total force =     0.006217     Total SCF correction =     0.000018


     Computing stress (Cartesian axis) and pressure


     negative rho (up, down):  1.425E-03 0.000E+00
          total   stress  (Ry/bohr**3)                   (kbar)     P=       -7.21
  -0.00007172  -0.00000000   0.00000042          -10.55       -0.00        0.06
  -0.00000000  -0.00007167   0.00000102           -0.00      -10.54        0.15
   0.00000042   0.00000102  -0.00000371            0.06        0.15       -0.55

     Energy error            =      7.1E-05 Ry
     Gradient error          =      2.2E-03 Ry/Bohr

     number of scf cycles    =  41
     number of bfgs steps    =  40

     energy             old  =   -3434.7334794003 Ry
     energy             new  =   -3434.7335502067 Ry

     CASE: energy            _new < energy            _old

     new trust radius        =       0.0385802362 bohr
     new conv_thr            =            1.0E-10 Ry


ATOMIC_POSITIONS (angstrom)
Al              11.4552070120        1.6525065128       14.8114780609
Al               2.8642568742        1.6515817500       14.8069205895
Al               5.7265190838        1.6514967444       14.8047733385
Al               8.5900659903        1.6517013756       14.8081201349
Al              12.8868757663        4.1335280492       14.8051551910
Al               4.2949236889        4.1320237238       14.8015848056
Al               7.1591414634        4.1325877752       14.8022670232
Al              10.0231103442        4.1333028362       14.8084204702
Al              14.3179836632        6.6115317560       14.8068254946
Al               5.7275740646        6.6120717721       14.8037524254
Al               8.5908541156        6.6122779443       14.8101695488
Al              11.4549717042        6.6123582950       14.8141880838
Al              15.7497858664        9.0917568082       14.8093091750
Al               7.1597589496        9.0919283997       14.8090679660
Al              10.0232405404        9.0924620601       14.8141450304
Al              12.8862743884        9.0921809901       14.8121650698
Al              -0.0021967140       -0.0059928714       17.1750403488
Al               2.8623499797       -0.0037385820       17.1766642776
Al               5.7255668863       -0.0015968735       17.1776673071
Al               8.5877729576       -0.0045699891       17.1766326918
Al               1.4315456031        2.4775359558       17.1729812702
Al               4.2939184767        2.4779426999       17.1768613632
Al               7.1556633340        2.4773487957       17.1743509915
Al              10.0193993869        2.4771757412       17.1749304323
Al               2.8632035130        4.9553148118       17.1775095029
Al               5.7249254315        4.9552685666       17.1786548652
Al               8.5865352002        4.9550094414       17.1768846367
Al              11.4538994500        4.9560073353       17.1768382994
Al               4.2939786934        7.4339427708       17.1749245246
Al               7.1555383628        7.4338992782       17.1759317971
Al              10.0199787064        7.4353118977       17.1799841479
Al              12.8866833402        7.4344652574       17.1781740612
Al               1.4280939554        0.8183815509       19.5149202146
Al               4.2911372466        0.8218813035       19.5205489742
Al               7.1535517312        0.8200541774       19.5197893038
Al              10.0174717206        0.8182631332       19.5142457532
Al               2.8594205150        3.2993967399       19.5206932668
Al               5.7233199905        3.2985623707       19.5214395965
Al               8.5851180676        3.2987134766       19.5189824349
Al              11.4509565347        3.2993142499       19.5158647556
Al               4.2913715454        5.7788666909       19.5217590015
Al               7.1528674301        5.7778734632       19.5227736803
Al              10.0166007061        5.7774018008       19.5193115358
Al              12.8842033723        5.7767312260       19.5218590506
Al               5.7228518792        8.2574351780       19.5176941328
Al               8.5851520568        8.2581796542       19.5178774489
Al              11.4507310964        8.2591898088       19.5162224636
Al              14.3142022611        8.2578613289       19.5182367497
Al              11.4485738475        1.6418641631       21.8602972382
Al               2.8574193706        1.6425790841       21.8652580946
Al               5.7207700283        1.6430715396       21.8691388962
Al               8.5813544655        1.6422977762       21.8660658142
Al              12.8806066507        4.1215551506       21.8678668112
Al               4.2896308988        4.1217306025       21.8623342523
Al               7.1518865696        4.1215322996       21.8673115202
Al              10.0144985586        4.1213855200       21.8657380754
Al              14.3122415518        6.6011690576       21.8676112465
Al               5.7202194800        6.6013471150       21.8683334163
Al               8.5812730744        6.6006067934       21.8686912873
Al              11.4472374707        6.6002790144       21.8645987426
Al              15.7432237152        9.0790296915       21.8634897598
Al               7.1523363584        9.0790092427       21.8648817339
Al              10.0159601147        9.0826936988       21.8628420745
Al              12.8794996406        9.0818396551       21.8650403017
Al              -0.0089319212       -0.0168457245       24.2300374407
Al               2.8546737184       -0.0169819684       24.2341576447
Al               5.7185501187       -0.0158244548       24.2365032175
Al               8.5807279094       -0.0168128073       24.2359151850
Al               1.4210243827        2.4635793298       24.2364103872
Al               4.2848822774        2.4644528384       24.2320394892
Al               7.1494368019        2.4645350340       24.2421153712
Al              10.0132531176        2.4646754983       24.2329441096
Al               2.8541388980        4.9438657116       24.2289899293
Al               5.7172933719        4.9434325960       24.2277646708
Al               8.5820324229        4.9439198625       24.2395571813
Al              11.4446937191        4.9448619263       24.2386682016
Al               4.2856946324        7.4249767311       24.2408939901
Al               7.1492935353        7.4250516742       24.2451036877
Al              10.0127636023        7.4250605809       24.2331668122
Al              12.8768710531        7.4251438235       24.2356916838
C                3.3097517694        4.7649497438       29.3392146387
C                4.7127300882        4.9925092155       28.8156002842
H                2.6033636471        4.9255753180       28.5151118701
H                3.2021340559        3.7380961011       29.7117717999
H                3.0825253156        5.4681702018       30.1501955187
C                5.8189937709        4.8108192198       29.8587133815
F                4.9304365506        4.1224281310       27.7506397473
H                5.6884842621        3.8282225704       30.3365316660
C                7.2665280264        4.8843359002       29.3907497916
F                4.7845475379        6.2784564135       28.2815305622
H                5.6779142479        5.5728669121       30.6383620690
F                7.5272459281        6.0334294138       28.6721248460
F                7.5849834694        3.8135756731       28.5767648866
H                7.9651552130        4.8624799187       30.2452645142



     Writing config-only to output data dir ./tmp/al_pvdf.save/ :
     XML data file
     NEW-OLD atomic charge density approx. for the potential

     negative rho (up, down):  1.378E-03 0.000E+00

     total cpu time spent up to now is    23065.7 secs

     Self-consistent Calculation

     iteration #  1     ecut=    60.00 Ry     beta= 0.30
     Davidson diagonalization with overlap
     ethr =  1.00E-06,  avg # of iterations =  5.0

     negative rho (up, down):  1.388E-03 0.000E+00

     total cpu time spent up to now is    23322.7 secs

     total energy              =   -3434.73357559 Ry
     estimated scf accuracy    <       0.00093928 Ry

     iteration #  2     ecut=    60.00 Ry     beta= 0.30
     Davidson diagonalization with overlap
     ethr =  3.24E-07,  avg # of iterations =  2.0

     negative rho (up, down):  1.398E-03 0.000E+00

     total cpu time spent up to now is    23503.4 secs

     total energy              =   -3434.73342324 Ry
     estimated scf accuracy    <       0.00248528 Ry

     iteration #  3     ecut=    60.00 Ry     beta= 0.30
     Davidson diagonalization with overlap
     ethr =  3.24E-07,  avg # of iterations =  5.7

     negative rho (up, down):  1.403E-03 0.000E+00

     total cpu time spent up to now is    23689.3 secs

     total energy              =   -3434.73335095 Ry
     estimated scf accuracy    <       0.01294633 Ry

     iteration #  4     ecut=    60.00 Ry     beta= 0.30
     Davidson diagonalization with overlap
     ethr =  3.24E-07,  avg # of iterations =  3.6

     negative rho (up, down):  1.409E-03 0.000E+00

     total cpu time spent up to now is    23868.2 secs

     total energy              =   -3434.73353922 Ry
     estimated scf accuracy    <       0.00142368 Ry

     iteration #  5     ecut=    60.00 Ry     beta= 0.30
     Davidson diagonalization with overlap
     ethr =  3.24E-07,  avg # of iterations =  2.2

     negative rho (up, down):  1.413E-03 0.000E+00

     total cpu time spent up to now is    24030.0 secs

     total energy              =   -3434.73362838 Ry
     estimated scf accuracy    <       0.00007775 Ry

     iteration #  6     ecut=    60.00 Ry     beta= 0.30
     Davidson diagonalization with overlap
     ethr =  2.68E-08,  avg # of iterations =  5.3

     negative rho (up, down):  1.418E-03 0.000E+00

     total cpu time spent up to now is    24240.4 secs

     total energy              =   -3434.73364105 Ry
     estimated scf accuracy    <       0.00003004 Ry

     iteration #  7     ecut=    60.00 Ry     beta= 0.30
     Davidson diagonalization with overlap
     ethr =  1.04E-08,  avg # of iterations =  2.0

     negative rho (up, down):  1.420E-03 0.000E+00

     total cpu time spent up to now is    24401.5 secs

     total energy              =   -3434.73364308 Ry
     estimated scf accuracy    <       0.00000510 Ry

     iteration #  8     ecut=    60.00 Ry     beta= 0.30
     Davidson diagonalization with overlap
     ethr =  1.76E-09,  avg # of iterations =  4.7

     negative rho (up, down):  1.422E-03 0.000E+00

     total cpu time spent up to now is    24586.0 secs

     total energy              =   -3434.73364368 Ry
     estimated scf accuracy    <       0.00000157 Ry

     iteration #  9     ecut=    60.00 Ry     beta= 0.30
     Davidson diagonalization with overlap
     ethr =  5.42E-10,  avg # of iterations =  4.1

     negative rho (up, down):  1.423E-03 0.000E+00

     total cpu time spent up to now is    24775.5 secs

     total energy              =   -3434.73364393 Ry
     estimated scf accuracy    <       0.00000063 Ry

     iteration # 10     ecut=    60.00 Ry     beta= 0.30
     Davidson diagonalization with overlap
     ethr =  2.19E-10,  avg # of iterations =  2.9

     negative rho (up, down):  1.423E-03 0.000E+00

     total cpu time spent up to now is    24943.4 secs

     total energy              =   -3434.73364399 Ry
     estimated scf accuracy    <       0.00000014 Ry

     iteration # 11     ecut=    60.00 Ry     beta= 0.30
     Davidson diagonalization with overlap
     ethr =  4.81E-11,  avg # of iterations =  4.7

     negative rho (up, down):  1.423E-03 0.000E+00

     total cpu time spent up to now is    25128.9 secs

     total energy              =   -3434.73364401 Ry
     estimated scf accuracy    <       0.00000002 Ry

     iteration # 12     ecut=    60.00 Ry     beta= 0.30
     Davidson diagonalization with overlap
     ethr =  6.81E-12,  avg # of iterations =  5.2

     negative rho (up, down):  1.424E-03 0.000E+00

     total cpu time spent up to now is    25354.6 secs

     total energy              =   -3434.73364401 Ry
     estimated scf accuracy    <       0.00000001 Ry

     iteration # 13     ecut=    60.00 Ry     beta= 0.30
     Davidson diagonalization with overlap
     ethr =  3.56E-12,  avg # of iterations =  3.7

     negative rho (up, down):  1.424E-03 0.000E+00

     total cpu time spent up to now is    25525.0 secs

     total energy              =   -3434.73364402 Ry
     estimated scf accuracy    <       0.00000002 Ry

     iteration # 14     ecut=    60.00 Ry     beta= 0.30
     Davidson diagonalization with overlap
     ethr =  3.56E-12,  avg # of iterations =  2.1

     negative rho (up, down):  1.424E-03 0.000E+00

     total cpu time spent up to now is    25681.7 secs

     total energy              =   -3434.73364402 Ry
     estimated scf accuracy    <       0.00000003 Ry

     iteration # 15     ecut=    60.00 Ry     beta= 0.30
     Davidson diagonalization with overlap
     ethr =  3.56E-12,  avg # of iterations =  1.5

     negative rho (up, down):  1.424E-03 0.000E+00

     total cpu time spent up to now is    25843.4 secs

     total energy              =   -3434.73364402 Ry
     estimated scf accuracy    <          1.3E-09 Ry

     iteration # 16     ecut=    60.00 Ry     beta= 0.30
     Davidson diagonalization with overlap
     ethr =  4.37E-13,  avg # of iterations =  3.8

     negative rho (up, down):  1.424E-03 0.000E+00

     total cpu time spent up to now is    26029.5 secs

     total energy              =   -3434.73364402 Ry
     estimated scf accuracy    <          2.8E-10 Ry

     iteration # 17     ecut=    60.00 Ry     beta= 0.30
     Davidson diagonalization with overlap
     ethr =  1.00E-13,  avg # of iterations =  5.2

     negative rho (up, down):  1.424E-03 0.000E+00

     total cpu time spent up to now is    26252.8 secs

     total energy              =   -3434.73364402 Ry
     estimated scf accuracy    <          2.2E-10 Ry

     iteration # 18     ecut=    60.00 Ry     beta= 0.30
     Davidson diagonalization with overlap
     ethr =  1.00E-13,  avg # of iterations =  2.0

     negative rho (up, down):  1.424E-03 0.000E+00

     total cpu time spent up to now is    26425.2 secs

     End of self-consistent calculation

          k = 0.0000 0.0000 0.0000 (237007 PWs)   bands (ev):

   -27.8138 -27.5710 -26.3286 -26.1270 -16.9490 -15.3532 -13.1224 -11.7973
   -10.8202 -10.1473 -10.1139 -10.1065  -9.6649  -9.5834  -9.3282  -9.3269
    -9.3266  -9.3238  -9.3235  -9.3214  -9.0136  -8.6391  -8.6197  -8.6194
    -8.6192  -8.6178  -8.6176  -8.6160  -8.1247  -7.5362  -7.5348  -7.5344
    -7.5334  -7.5330  -7.5328  -7.5308  -7.4159  -7.0143  -6.6261  -6.3827
    -6.3821  -6.3819  -6.3815  -6.3812  -6.3809  -6.2436  -6.1811  -6.0817
    -6.0679  -6.0673  -6.0660  -6.0647  -6.0626  -5.9499  -5.7466  -5.6896
    -5.6894  -5.6889  -5.6881  -5.6873  -5.6864  -5.6855  -5.6451  -5.5184
    -5.0660  -4.9499  -4.9498  -4.9494  -4.9244  -4.9241  -4.9233  -4.6275
    -4.6265  -4.6263  -4.6257  -4.6251  -4.6248  -4.2724  -4.2710  -4.2704
    -4.2391  -4.2377  -4.2367  -4.2025  -4.1911  -4.1902  -4.1892  -4.1868
    -4.1852  -4.1636  -3.5876  -3.3631  -3.3606  -3.3589  -3.2060  -3.2049
    -3.2047  -3.2030  -3.2028  -3.2017  -3.0912  -3.0882  -3.0848  -2.1908
    -2.1883  -2.1860  -2.1854  -2.1846  -2.1780  -1.8754  -1.8722  -1.8681
    -1.5070  -1.5065  -1.5049  -1.5040  -1.5021  -1.5005  -1.4291  -1.4264
    -1.4251  -1.2014  -0.7585  -0.7581  -0.7575  -0.7571  -0.7552  -0.7550
    -0.6368  -0.6366  -0.6347  -0.6339  -0.6329  -0.6306  -0.0862  -0.0853
    -0.0834  -0.0816  -0.0798  -0.0784   0.1412   0.1469   0.1511   0.1519
     0.1543   0.1640   0.1684   0.1714   0.1743   0.2232   0.2232   0.2283
     0.2288   0.2289   0.2297   0.2319   0.2327   0.2334   0.8040   0.8059
     0.8069   0.8076   0.8093   0.8135   0.9317   0.9329   0.9353   0.9356
     0.9366   0.9376   1.1369   1.2951   1.2976   1.3014

          k = 0.0000 0.2887 0.0000 (236896 PWs)   bands (ev):

   -27.8138 -27.5710 -26.3286 -26.1270 -16.9490 -15.3532 -13.1224 -11.7973
   -10.7263 -10.1472 -10.1127 -10.0143  -9.9772  -9.6649  -9.6044  -9.6039
    -9.5833  -9.2681  -8.9206  -8.8968  -8.8963  -8.8612  -8.8607  -8.6379
    -8.4911  -8.1793  -8.1566  -8.1562  -8.1239  -7.8098  -7.8090  -7.7878
    -7.4440  -7.4161  -7.3867  -7.3862  -7.0746  -7.0740  -7.0140  -6.7081
    -6.7074  -6.6882  -6.6878  -6.6257  -6.3431  -6.3412  -6.2915  -6.2908
    -6.2904  -6.2404  -6.1783  -5.9642  -5.7468  -5.6878  -5.6168  -5.6157
    -5.6121  -5.6092  -5.5990  -5.5976  -5.5970  -5.5662  -5.5659  -5.5546
    -5.5179  -5.2487  -5.2047  -5.2042  -5.0660  -4.8796  -4.8790  -4.8240
    -4.5416  -4.5373  -4.5370  -4.5186  -4.5180  -4.4620  -4.4580  -4.1798
    -4.1718  -4.1689  -4.1338  -4.1335  -3.8378  -3.8375  -3.7413  -3.7378
    -3.4998  -3.4759  -3.4749  -3.4651  -3.4642  -3.4377  -3.3858  -3.1548
    -3.1247  -3.1243  -2.7971  -2.7303  -2.6439  -2.6425  -2.4487  -2.4445
    -2.3800  -2.3796  -2.3478  -2.3447  -2.1222  -2.1203  -2.0757  -2.0736
    -2.0403  -2.0385  -1.7552  -1.7514  -1.6838  -1.6833  -1.6720  -1.5724
    -1.5700  -1.4211  -1.1137  -1.0022  -0.9978  -0.9956  -0.9653  -0.9616
    -0.8590  -0.8583  -0.6881  -0.6875  -0.5441  -0.5426  -0.4202  -0.4135
    -0.4112  -0.3811  -0.3795  -0.1585  -0.1580  -0.1537  -0.1013  -0.0974
    -0.0870  -0.0774   0.0536   0.1490   0.1541   0.4631   0.4706   0.5521
     0.5547   0.5838   0.5866   0.7566   0.7587   0.7772   0.7808   0.9438
     0.9461   0.9554   0.9562   1.0924   1.0935   1.1361   1.1367   1.2218
     1.2699   1.2736   1.2881   1.3156   1.3208   1.4498

          k = 0.0000-0.5773 0.0000 (236880 PWs)   bands (ev):

   -27.8138 -27.5710 -26.3286 -26.1270 -16.9490 -15.3532 -13.1224 -11.7973
   -10.4467 -10.4433 -10.1472 -10.1126  -9.7354  -9.7330  -9.6975  -9.6970
    -9.6645  -9.5833  -8.9896  -8.9890  -8.6453  -8.6412  -8.6352  -8.2147
    -8.2142  -8.2137  -8.2135  -8.1246  -7.9020  -7.9012  -7.5127  -7.5124
    -7.5116  -7.5114  -7.4787  -7.4778  -7.4163  -7.1687  -7.1655  -7.0140
    -6.7803  -6.7787  -6.6269  -6.4355  -6.4344  -6.4340  -6.4335  -6.4330
    -6.4316  -6.2407  -6.1784  -6.0204  -6.0200  -6.0168  -6.0166  -5.9622
    -5.7465  -5.7075  -5.7070  -5.6871  -5.5185  -5.3286  -5.3280  -5.3264
    -5.3260  -5.2822  -5.2799  -5.0666  -4.9795  -4.9779  -4.9775  -4.9756
    -4.5527  -4.5486  -4.2741  -4.2735  -4.2727  -4.2723  -4.2644  -4.2639
    -4.1765  -3.8778  -3.8774  -3.8478  -3.8474  -3.2377  -3.2347  -3.2138
    -3.2132  -3.1735  -3.1729  -3.1723  -3.1720  -3.1623  -3.1618  -3.1217
    -3.1210  -3.1190  -3.1167  -2.8944  -2.8935  -2.8920  -2.8899  -2.5360
    -2.5317  -2.4852  -2.4828  -2.4647  -2.4634  -2.4621  -2.4607  -2.3159
    -2.3147  -2.0472  -2.0464  -1.7186  -1.7171  -1.4092  -1.4075  -1.4055
    -1.4041  -1.1644  -1.1638  -1.1618  -1.1601  -1.0823  -1.0802  -0.9928
    -0.9887  -0.8986  -0.8972  -0.8544  -0.8485  -0.7540  -0.7537  -0.7512
    -0.7509  -0.4496  -0.4488  -0.4112  -0.4104  -0.3168  -0.3157  -0.1686
    -0.1591   0.0920   0.0924   0.0930   0.0937   0.1069   0.1081   0.3125
     0.3130   0.3151   0.3163   0.7904   0.7919   0.9925   0.9940   0.9953
     0.9963   1.0130   1.0143   1.0187   1.0192   1.4700   1.4726   1.4753
     1.4778   1.4786   1.4950   1.4956   1.4977   1.5062

          k = 0.2500-0.1443 0.0000 (236890 PWs)   bands (ev):

   -27.8138 -27.5710 -26.3286 -26.1270 -16.9490 -15.3532 -13.1224 -11.7973
   -10.7263 -10.1472 -10.1127 -10.0143  -9.9772  -9.6649  -9.6043  -9.6041
    -9.5834  -9.2681  -8.9206  -8.8967  -8.8965  -8.8612  -8.8608  -8.6379
    -8.4909  -8.1789  -8.1567  -8.1563  -8.1242  -7.8097  -7.8091  -7.7877
    -7.4440  -7.4161  -7.3866  -7.3862  -7.0747  -7.0739  -7.0140  -6.7090
    -6.7074  -6.6881  -6.6880  -6.6243  -6.3419  -6.3415  -6.2915  -6.2909
    -6.2905  -6.2413  -6.1789  -5.9639  -5.7468  -5.6879  -5.6166  -5.6157
    -5.6122  -5.6092  -5.5989  -5.5979  -5.5972  -5.5664  -5.5662  -5.5546
    -5.5176  -5.2488  -5.2045  -5.2041  -5.0656  -4.8796  -4.8794  -4.8238
    -4.5414  -4.5375  -4.5374  -4.5183  -4.5179  -4.4621  -4.4581  -4.1805
    -4.1724  -4.1675  -4.1337  -4.1335  -3.8381  -3.8377  -3.7414  -3.7378
    -3.4998  -3.4757  -3.4749  -3.4648  -3.4642  -3.4377  -3.3857  -3.1554
    -3.1248  -3.1245  -2.7969  -2.7282  -2.6454  -2.6425  -2.4487  -2.4450
    -2.3801  -2.3796  -2.3477  -2.3446  -2.1228  -2.1207  -2.0777  -2.0736
    -2.0400  -2.0375  -1.7550  -1.7517  -1.6817  -1.6813  -1.6691  -1.5737
    -1.5701  -1.4205  -1.1137  -1.0022  -0.9979  -0.9951  -0.9687  -0.9615
    -0.8596  -0.8584  -0.6853  -0.6848  -0.5447  -0.5423  -0.4200  -0.4152
    -0.4115  -0.3809  -0.3793  -0.1587  -0.1583  -0.1539  -0.1030  -0.0979
    -0.0866  -0.0778   0.0547   0.1471   0.1561   0.4634   0.4702   0.5517
     0.5546   0.5829   0.5869   0.7565   0.7603   0.7729   0.7786   0.9419
     0.9465   0.9555   0.9560   1.0938   1.0947   1.1346   1.1355   1.2212
     1.2680   1.2742   1.2890   1.3132   1.3202   1.4498

          k = 0.2500-0.7217 0.0000 (236847 PWs)   bands (ev):

   -27.8138 -27.5710 -26.3286 -26.1270 -16.9490 -15.3532 -13.1224 -11.7973
   -10.5387 -10.1659 -10.1626 -10.1471 -10.1126  -9.8274  -9.6648  -9.5834
    -9.4549  -9.4535  -9.0466  -9.0463  -8.7348  -8.6379  -8.3644  -8.3633
    -8.3410  -8.3409  -8.3063  -8.1244  -7.9392  -7.9361  -7.6038  -7.4166
    -7.2593  -7.2578  -7.2572  -7.2374  -7.2359  -7.2036  -7.2027  -7.0147
    -6.8917  -6.8899  -6.8378  -6.8375  -6.6259  -6.5251  -6.5064  -6.5045
    -6.2424  -6.1808  -6.1613  -6.1597  -6.1420  -6.1415  -5.9652  -5.7930
    -5.7914  -5.7439  -5.6877  -5.5188  -5.4358  -5.4352  -5.3725  -5.0787
    -5.0763  -5.0695  -5.0627  -5.0252  -5.0243  -5.0071  -5.0046  -4.7094
    -4.7084  -4.6807  -4.6537  -4.3424  -4.3407  -4.1778  -4.0063  -3.9965
    -3.9960  -3.9664  -3.9502  -3.9183  -3.9171  -3.6526  -3.6524  -3.6010
    -3.5979  -3.3239  -3.3067  -3.3061  -3.2780  -3.2058  -3.0974  -2.9748
    -2.9698  -2.9339  -2.9321  -2.8672  -2.8667  -2.8232  -2.5679  -2.5654
    -2.5500  -2.5311  -2.2694  -2.2263  -2.2243  -2.1304  -2.1274  -2.0877
    -2.0843  -1.9251  -1.9248  -1.9231  -1.8435  -1.6123  -1.5511  -1.5467
    -1.4695  -1.4624  -1.4538  -1.4528  -1.2452  -1.2379  -1.1658  -1.0433
    -1.0411  -0.9386  -0.7313  -0.7278  -0.7075  -0.6505  -0.6498  -0.6147
    -0.6104  -0.5962  -0.5858  -0.5219  -0.3686  -0.3666  -0.0609  -0.0598
    -0.0129  -0.0110   0.0342   0.0364   0.2478   0.2501   0.3628   0.3636
     0.3837   0.3981   0.4032   0.4567   0.6065   0.6102   0.7013   0.7019
     0.7201   0.8917   1.0324   1.0329   1.1026   1.1620   1.1706   1.3934
     1.4038   1.6312   1.6400   1.6475   1.6984   1.7157

          k =-0.5000 0.2887 0.0000 (236880 PWs)   bands (ev):

   -27.8138 -27.5710 -26.3286 -26.1270 -16.9490 -15.3532 -13.1224 -11.7973
   -10.4465 -10.4434 -10.1472 -10.1126  -9.7353  -9.7333  -9.6975  -9.6970
    -9.6645  -9.5834  -8.9894  -8.9893  -8.6452  -8.6416  -8.6348  -8.2145
    -8.2143  -8.2138  -8.2134  -8.1247  -7.9019  -7.9012  -7.5126  -7.5124
    -7.5116  -7.5113  -7.4784  -7.4776  -7.4163  -7.1684  -7.1659  -7.0142
    -6.7801  -6.7786  -6.6261  -6.4346  -6.4345  -6.4339  -6.4337  -6.4328
    -6.4320  -6.2415  -6.1789  -6.0204  -6.0202  -6.0172  -6.0169  -5.9619
    -5.7466  -5.7073  -5.7058  -5.6876  -5.5189  -5.3283  -5.3281  -5.3268
    -5.3266  -5.2831  -5.2792  -5.0673  -4.9790  -4.9788  -4.9760  -4.9756
    -4.5529  -4.5487  -4.2739  -4.2736  -4.2731  -4.2728  -4.2644  -4.2637
    -4.1766  -3.8777  -3.8773  -3.8476  -3.8472  -3.2385  -3.2336  -3.2143
    -3.2141  -3.1732  -3.1729  -3.1722  -3.1719  -3.1609  -3.1607  -3.1215
    -3.1211  -3.1188  -3.1166  -2.8943  -2.8930  -2.8916  -2.8900  -2.5360
    -2.5322  -2.4858  -2.4838  -2.4666  -2.4653  -2.4622  -2.4605  -2.3177
    -2.3167  -2.0438  -2.0432  -1.7161  -1.7151  -1.4118  -1.4102  -1.4058
    -1.4039  -1.1645  -1.1636  -1.1625  -1.1596  -1.0826  -1.0804  -0.9895
    -0.9859  -0.8951  -0.8935  -0.8566  -0.8461  -0.7539  -0.7537  -0.7516
    -0.7509  -0.4509  -0.4500  -0.4120  -0.4110  -0.3170  -0.3162  -0.1683
    -0.1597   0.0919   0.0926   0.0930   0.0941   0.1066   0.1073   0.3116
     0.3121   0.3147   0.3158   0.7860   0.7877   0.9926   0.9927   0.9962
     0.9966   1.0120   1.0124   1.0172   1.0191   1.4628   1.4743   1.4756
     1.4787   1.4836   1.4929   1.4969   1.4979   1.5034

          k =-0.5000 0.5773 0.0000 (236845 PWs)   bands (ev):

   -27.8138 -27.5710 -26.3286 -26.1270 -16.9490 -15.3532 -13.1224 -11.7973
   -10.5387 -10.1660 -10.1625 -10.1471 -10.1126  -9.8274  -9.6648  -9.5835
    -9.4552  -9.4532  -9.0469  -9.0461  -8.7348  -8.6378  -8.3646  -8.3631
    -8.3413  -8.3408  -8.3061  -8.1243  -7.9392  -7.9358  -7.6037  -7.4166
    -7.2593  -7.2578  -7.2571  -7.2376  -7.2355  -7.2039  -7.2029  -7.0147
    -6.8925  -6.8890  -6.8380  -6.8372  -6.6260  -6.5247  -6.5065  -6.5049
    -6.2427  -6.1817  -6.1601  -6.1593  -6.1419  -6.1413  -5.9656  -5.7942
    -5.7904  -5.7439  -5.6876  -5.5191  -5.4359  -5.4349  -5.3725  -5.0799
    -5.0760  -5.0731  -5.0579  -5.0253  -5.0244  -5.0069  -5.0050  -4.7094
    -4.7080  -4.6808  -4.6539  -4.3425  -4.3408  -4.1776  -4.0057  -3.9967
    -3.9962  -3.9677  -3.9498  -3.9188  -3.9169  -3.6532  -3.6519  -3.6009
    -3.5976  -3.3239  -3.3067  -3.3061  -3.2777  -3.2056  -3.0957  -2.9738
    -2.9708  -2.9340  -2.9318  -2.8677  -2.8662  -2.8264  -2.5679  -2.5660
    -2.5500  -2.5315  -2.2690  -2.2256  -2.2232  -2.1290  -2.1273  -2.0860
    -2.0842  -1.9248  -1.9245  -1.9237  -1.8447  -1.6157  -1.5490  -1.5466
    -1.4661  -1.4624  -1.4563  -1.4548  -1.2437  -1.2372  -1.1644  -1.0421
    -1.0409  -0.9385  -0.7346  -0.7307  -0.7091  -0.6506  -0.6496  -0.6127
    -0.6105  -0.5938  -0.5880  -0.5195  -0.3685  -0.3661  -0.0606  -0.0594
    -0.0120  -0.0095   0.0343   0.0364   0.2478   0.2491   0.3632   0.3646
     0.3825   0.3983   0.4024   0.4575   0.6042   0.6074   0.7009   0.7025
     0.7159   0.8918   1.0323   1.0333   1.1051   1.1613   1.1673   1.3921
     1.4032   1.6318   1.6421   1.6457   1.7223   1.7246

          k =-0.2500-0.1443 0.0000 (236890 PWs)   bands (ev):

   -27.8138 -27.5710 -26.3286 -26.1270 -16.9490 -15.3532 -13.1224 -11.7973
   -10.7263 -10.1472 -10.1127 -10.0143  -9.9772  -9.6649  -9.6044  -9.6040
    -9.5834  -9.2681  -8.9206  -8.8968  -8.8963  -8.8612  -8.8608  -8.6379
    -8.4909  -8.1790  -8.1568  -8.1561  -8.1241  -7.8098  -7.8090  -7.7877
    -7.4440  -7.4161  -7.3866  -7.3862  -7.0744  -7.0742  -7.0139  -6.7091
    -6.7073  -6.6883  -6.6878  -6.6244  -6.3427  -6.3407  -6.2915  -6.2909
    -6.2905  -6.2410  -6.1789  -5.9643  -5.7466  -5.6879  -5.6168  -5.6155
    -5.6123  -5.6093  -5.5990  -5.5979  -5.5971  -5.5664  -5.5661  -5.5546
    -5.5176  -5.2489  -5.2046  -5.2041  -5.0656  -4.8796  -4.8793  -4.8237
    -4.5414  -4.5375  -4.5374  -4.5184  -4.5178  -4.4622  -4.4580  -4.1804
    -4.1723  -4.1677  -4.1336  -4.1334  -3.8381  -3.8377  -3.7414  -3.7377
    -3.4998  -3.4759  -3.4749  -3.4644  -3.4642  -3.4381  -3.3858  -3.1567
    -3.1246  -3.1245  -2.7968  -2.7261  -2.6454  -2.6439  -2.4489  -2.4450
    -2.3806  -2.3802  -2.3477  -2.3445  -2.1239  -2.1218  -2.0778  -2.0756
    -2.0383  -2.0376  -1.7552  -1.7517  -1.6797  -1.6791  -1.6661  -1.5736
    -1.5717  -1.4200  -1.1136  -1.0027  -0.9968  -0.9947  -0.9688  -0.9653
    -0.8596  -0.8587  -0.6824  -0.6816  -0.5442  -0.5428  -0.4199  -0.4156
    -0.4134  -0.3799  -0.3791  -0.1590  -0.1585  -0.1548  -0.1033  -0.0993
    -0.0867  -0.0776   0.0554   0.1495   0.1538   0.4632   0.4705   0.5520
     0.5548   0.5837   0.5857   0.7558   0.7617   0.7703   0.7733   0.9424
     0.9446   0.9555   0.9562   1.0947   1.0958   1.1332   1.1335   1.2212
     1.2688   1.2722   1.2884   1.3126   1.3185   1.4499

          k =-0.2500-0.7217 0.0000 (236847 PWs)   bands (ev):

   -27.8138 -27.5710 -26.3286 -26.1270 -16.9490 -15.3532 -13.1224 -11.7973
   -10.5387 -10.1660 -10.1625 -10.1471 -10.1126  -9.8274  -9.6648  -9.5834
    -9.4554  -9.4531  -9.0467  -9.0461  -8.7348  -8.6379  -8.3648  -8.3629
    -8.3412  -8.3407  -8.3063  -8.1244  -7.9393  -7.9360  -7.6038  -7.4166
    -7.2594  -7.2578  -7.2570  -7.2379  -7.2355  -7.2033  -7.2031  -7.0147
    -6.8920  -6.8896  -6.8379  -6.8373  -6.6259  -6.5251  -6.5060  -6.5049
    -6.2426  -6.1802  -6.1616  -6.1595  -6.1421  -6.1415  -5.9660  -5.7931
    -5.7898  -5.7449  -5.6877  -5.5189  -5.4360  -5.4350  -5.3725  -5.0784
    -5.0762  -5.0688  -5.0638  -5.0249  -5.0245  -5.0069  -5.0048  -4.7098
    -4.7080  -4.6809  -4.6538  -4.3421  -4.3409  -4.1779  -4.0075  -3.9964
    -3.9962  -3.9653  -3.9501  -3.9182  -3.9172  -3.6526  -3.6522  -3.6009
    -3.5976  -3.3240  -3.3067  -3.3061  -3.2778  -3.2058  -3.0999  -2.9752
    -2.9694  -2.9338  -2.9315  -2.8677  -2.8659  -2.8198  -2.5663  -2.5653
    -2.5502  -2.5308  -2.2695  -2.2273  -2.2261  -2.1305  -2.1288  -2.0877
    -2.0860  -1.9257  -1.9248  -1.9229  -1.8423  -1.6085  -1.5512  -1.5489
    -1.4695  -1.4660  -1.4519  -1.4506  -1.2474  -1.2383  -1.1681  -1.0445
    -1.0410  -0.9386  -0.7276  -0.7252  -0.7058  -0.6503  -0.6492  -0.6151
    -0.6118  -0.5964  -0.5855  -0.5246  -0.3687  -0.3665  -0.0625  -0.0602
    -0.0142  -0.0127   0.0347   0.0364   0.2488   0.2506   0.3614   0.3620
     0.3853   0.3989   0.4023   0.4555   0.6098   0.6125   0.7017   0.7022
     0.7253   0.8916   1.0320   1.0335   1.0991   1.1657   1.1713   1.3934
     1.4053   1.6305   1.6408   1.6470   1.6974   1.7140

          k = 0.5000 0.2887 0.0000 (236880 PWs)   bands (ev):

   -27.8138 -27.5710 -26.3286 -26.1270 -16.9490 -15.3532 -13.1224 -11.7973
   -10.4466 -10.4432 -10.1472 -10.1126  -9.7355  -9.7329  -9.6976  -9.6971
    -9.6645  -9.5834  -8.9896  -8.9891  -8.6459  -8.6410  -8.6348  -8.2148
    -8.2140  -8.2137  -8.2135  -8.1246  -7.9020  -7.9012  -7.5129  -7.5124
    -7.5114  -7.5113  -7.4781  -7.4779  -7.4163  -7.1686  -7.1657  -7.0142
    -6.7801  -6.7787  -6.6261  -6.4353  -6.4345  -6.4336  -6.4335  -6.4328
    -6.4316  -6.2413  -6.1790  -6.0204  -6.0203  -6.0170  -6.0169  -5.9625
    -5.7459  -5.7075  -5.7063  -5.6875  -5.5188  -5.3289  -5.3282  -5.3264
    -5.3261  -5.2831  -5.2791  -5.0672  -4.9793  -4.9786  -4.9760  -4.9755
    -4.5530  -4.5487  -4.2743  -4.2741  -4.2725  -4.2722  -4.2643  -4.2639
    -4.1766  -3.8779  -3.8775  -3.8478  -3.8474  -3.2390  -3.2331  -3.2156
    -3.2150  -3.1726  -3.1725  -3.1721  -3.1720  -3.1599  -3.1595  -3.1220
    -3.1207  -3.1181  -3.1173  -2.8934  -2.8925  -2.8908  -2.8899  -2.5362
    -2.5321  -2.4868  -2.4855  -2.4665  -2.4654  -2.4643  -2.4629  -2.3203
    -2.3193  -2.0403  -2.0394  -1.7142  -1.7129  -1.4118  -1.4103  -1.4085
    -1.4071  -1.1653  -1.1629  -1.1617  -1.1605  -1.0823  -1.0801  -0.9858
    -0.9833  -0.8910  -0.8892  -0.8569  -0.8457  -0.7538  -0.7528  -0.7512
    -0.7511  -0.4522  -0.4513  -0.4131  -0.4120  -0.3187  -0.3165  -0.1687
    -0.1596   0.0929   0.0932   0.0934   0.0934   0.1053   0.1057   0.3116
     0.3119   0.3145   0.3151   0.7812   0.7829   0.9924   0.9938   0.9963
     0.9968   1.0112   1.0121   1.0153   1.0186   1.4611   1.4747   1.4760
     1.4779   1.4847   1.4903   1.4967   1.4977   1.5035

     the Fermi energy is     0.0021 ev

!    total energy              =   -3434.73364402 Ry
     estimated scf accuracy    <          4.2E-11 Ry
     smearing contrib. (-TS)   =      -0.00822278 Ry
     internal energy E=F+TS    =   -3434.72542124 Ry

     The total energy is F=E-TS. E is the sum of the following terms:
     one-electron contribution =  -11698.56253185 Ry
     hartree contribution      =    5921.98371543 Ry
     xc contribution           =    -264.08860623 Ry
     ewald contribution        =    5404.81871325 Ry
     one-center paw contrib.   =   -2798.87671184 Ry

     convergence has been achieved in  18 iterations

     negative rho (up, down):  1.424E-03 0.000E+00

     Forces acting on atoms (cartesian axes, Ry/au):

     atom    1 type  1   force =    -0.00007001   -0.00010233   -0.00012620
     atom    2 type  1   force =    -0.00012048   -0.00000487    0.00017355
     atom    3 type  1   force =     0.00005974    0.00002791    0.00035946
     atom    4 type  1   force =     0.00000003   -0.00001559    0.00008641
     atom    5 type  1   force =    -0.00003774   -0.00018019    0.00029482
     atom    6 type  1   force =     0.00002943   -0.00003227    0.00079174
     atom    7 type  1   force =    -0.00006968   -0.00013105    0.00059428
     atom    8 type  1   force =    -0.00007056   -0.00010098    0.00014500
     atom    9 type  1   force =     0.00004506    0.00002758    0.00025072
     atom   10 type  1   force =    -0.00009952   -0.00005284    0.00046105
     atom   11 type  1   force =     0.00002235   -0.00002050    0.00007287
     atom   12 type  1   force =    -0.00010478    0.00000406   -0.00014544
     atom   13 type  1   force =     0.00000614   -0.00001712    0.00004800
     atom   14 type  1   force =    -0.00006157   -0.00003155    0.00006668
     atom   15 type  1   force =    -0.00005144   -0.00013339   -0.00013842
     atom   16 type  1   force =    -0.00003950   -0.00006920   -0.00005500
     atom   17 type  1   force =    -0.00000677    0.00009300    0.00006697
     atom   18 type  1   force =    -0.00010313   -0.00008319   -0.00000097
     atom   19 type  1   force =    -0.00004855   -0.00025542   -0.00002392
     atom   20 type  1   force =     0.00005224   -0.00002552   -0.00005814
     atom   21 type  1   force =    -0.00018305   -0.00017059    0.00023783
     atom   22 type  1   force =    -0.00006669   -0.00020638   -0.00032145
     atom   23 type  1   force =     0.00009294   -0.00018447   -0.00003026
     atom   24 type  1   force =     0.00011174   -0.00013107    0.00008715
     atom   25 type  1   force =    -0.00017697    0.00000462   -0.00036736
     atom   26 type  1   force =    -0.00000655    0.00000355   -0.00058228
     atom   27 type  1   force =     0.00018219    0.00005062   -0.00013889
     atom   28 type  1   force =    -0.00010829   -0.00005220   -0.00003273
     atom   29 type  1   force =    -0.00008116    0.00014717    0.00001846
     atom   30 type  1   force =     0.00012788    0.00014476   -0.00004197
     atom   31 type  1   force =     0.00004991    0.00001160   -0.00017882
     atom   32 type  1   force =    -0.00019688    0.00008532   -0.00004968
     atom   33 type  1   force =    -0.00012234    0.00001806    0.00072923
     atom   34 type  1   force =    -0.00001706   -0.00043886    0.00026573
     atom   35 type  1   force =     0.00013707   -0.00014832    0.00037131
     atom   36 type  1   force =     0.00003583    0.00000021    0.00092860
     atom   37 type  1   force =    -0.00022212   -0.00014557    0.00014252
     atom   38 type  1   force =     0.00006431   -0.00008142    0.00011987
     atom   39 type  1   force =     0.00015276   -0.00011037    0.00039464
     atom   40 type  1   force =    -0.00004479   -0.00009577    0.00064423
     atom   41 type  1   force =    -0.00009042    0.00015291    0.00010438
     atom   42 type  1   force =     0.00027679    0.00015903    0.00011979
     atom   43 type  1   force =     0.00017195    0.00011981    0.00050962
     atom   44 type  1   force =    -0.00032707    0.00023639    0.00020665
     atom   45 type  1   force =    -0.00006121    0.00018293    0.00050049
     atom   46 type  1   force =     0.00012198    0.00006223    0.00061094
     atom   47 type  1   force =    -0.00004780   -0.00004562    0.00083112
     atom   48 type  1   force =     0.00000022    0.00011147    0.00049852
     atom   49 type  1   force =    -0.00012760   -0.00014326    0.00003256
     atom   50 type  1   force =    -0.00030927   -0.00026661   -0.00017667
     atom   51 type  1   force =     0.00009275   -0.00032350   -0.00043602
     atom   52 type  1   force =     0.00038656   -0.00024479   -0.00025043
     atom   53 type  1   force =    -0.00036608   -0.00012589   -0.00028400
     atom   54 type  1   force =    -0.00019664   -0.00010024   -0.00040546
     atom   55 type  1   force =     0.00029877   -0.00012824   -0.00044857
     atom   56 type  1   force =     0.00023067   -0.00001617   -0.00020505
     atom   57 type  1   force =    -0.00014532    0.00030938   -0.00031860
     atom   58 type  1   force =     0.00004324    0.00037511   -0.00048315
     atom   59 type  1   force =     0.00029011    0.00018914   -0.00038392
     atom   60 type  1   force =    -0.00001021    0.00016697   -0.00009881
     atom   61 type  1   force =    -0.00001656    0.00045210   -0.00008697
     atom   62 type  1   force =     0.00001428    0.00033701   -0.00020445
     atom   63 type  1   force =     0.00002067   -0.00011774   -0.00005368
     atom   64 type  1   force =     0.00000793    0.00001435   -0.00017294
     atom   65 type  1   force =    -0.00011297    0.00011604   -0.00014121
     atom   66 type  1   force =     0.00001352    0.00022240   -0.00035250
     atom   67 type  1   force =    -0.00009489    0.00016290   -0.00044429
     atom   68 type  1   force =     0.00022252    0.00021172   -0.00046187
     atom   69 type  1   force =     0.00017110    0.00010024   -0.00053052
     atom   70 type  1   force =     0.00013663   -0.00011305   -0.00006528
     atom   71 type  1   force =    -0.00000236    0.00009042   -0.00050923
     atom   72 type  1   force =    -0.00002710   -0.00009808   -0.00024255
     atom   73 type  1   force =    -0.00006439    0.00018883    0.00000962
     atom   74 type  1   force =     0.00023263    0.00024679    0.00042673
     atom   75 type  1   force =    -0.00021736    0.00015074   -0.00026449
     atom   76 type  1   force =     0.00013114    0.00003009   -0.00055975
     atom   77 type  1   force =     0.00008765   -0.00010866   -0.00047215
     atom   78 type  1   force =    -0.00001856   -0.00021343   -0.00072172
     atom   79 type  1   force =     0.00006627    0.00000582   -0.00018420
     atom   80 type  1   force =     0.00008735   -0.00007109   -0.00035787
     atom   81 type  2   force =     0.00060490    0.00036083   -0.00040336
     atom   82 type  2   force =    -0.00021020   -0.00062928    0.00164787
     atom   83 type  3   force =    -0.00021318   -0.00034764    0.00119299
     atom   84 type  3   force =     0.00039128    0.00094061   -0.00109067
     atom   85 type  3   force =     0.00053807    0.00019109   -0.00053353
     atom   86 type  2   force =    -0.00014757    0.00032378   -0.00039745
     atom   87 type  4   force =     0.00037253    0.00015893   -0.00093971
     atom   88 type  3   force =    -0.00029169    0.00115202   -0.00054499
     atom   89 type  2   force =    -0.00075455   -0.00051564   -0.00034897
     atom   90 type  4   force =    -0.00044672   -0.00176379    0.00145716
     atom   91 type  3   force =    -0.00034568    0.00061415   -0.00047459
     atom   92 type  4   force =     0.00013623    0.00049474    0.00194889
     atom   93 type  4   force =     0.00098500   -0.00119631    0.00052196
     atom   94 type  3   force =    -0.00054734    0.00034061   -0.00162928

     Total force =     0.006501     Total SCF correction =     0.000012


     Computing stress (Cartesian axis) and pressure


     negative rho (up, down):  1.424E-03 0.000E+00
          total   stress  (Ry/bohr**3)                   (kbar)     P=       -7.17
  -0.00007142  -0.00000003   0.00000038          -10.51       -0.00        0.06
  -0.00000003  -0.00007170   0.00000108           -0.00      -10.55        0.16
   0.00000038   0.00000108  -0.00000314            0.06        0.16       -0.46

     Energy error            =      9.4E-05 Ry
     Gradient error          =      1.9E-03 Ry/Bohr

     number of scf cycles    =  42
     number of bfgs steps    =  41

     energy             old  =   -3434.7335502067 Ry
     energy             new  =   -3434.7336440179 Ry

     CASE: energy            _new < energy            _old

     new trust radius        =       0.0486397711 bohr
     new conv_thr            =            1.0E-10 Ry


ATOMIC_POSITIONS (angstrom)
Al              11.4548713795        1.6520461690       14.8087600919
Al               2.8644693799        1.6517043489       14.8061606442
Al               5.7260235406        1.6518947657       14.8044615805
Al               8.5899349042        1.6515007472       14.8064437905
Al              12.8872630806        4.1333797250       14.8041926468
Al               4.2950559046        4.1320083826       14.8045707056
Al               7.1582223767        4.1325675806       14.8041092803
Al              10.0227337469        4.1327840819       14.8065822714
Al              14.3180403710        6.6105804973       14.8060311370
Al               5.7272296868        6.6108833354       14.8046834646
Al               8.5905583776        6.6117648744       14.8080338545
Al              11.4547489282        6.6120022710       14.8103277700
Al              15.7496897210        9.0915546213       14.8072275644
Al               7.1593708613        9.0916866475       14.8066484004
Al              10.0230759995        9.0921728092       14.8105311128
Al              12.8861983991        9.0919428895       14.8086377328
Al              -0.0020186138       -0.0065273792       17.1740452624
Al               2.8624283395       -0.0041699786       17.1737614664
Al               5.7250359492       -0.0023160632       17.1738529855
Al               8.5871123107       -0.0051037715       17.1745017333
Al               1.4308674068        2.4769351087       17.1715279433
Al               4.2936060498        2.4770783567       17.1751447896
Al               7.1561115379        2.4763066671       17.1726305203
Al              10.0192988727        2.4770430752       17.1737893887
Al               2.8624127806        4.9552200652       17.1756498732
Al               5.7249085072        4.9552074404       17.1776081316
Al               8.5865977176        4.9550006253       17.1743555633
Al              11.4536974715        4.9558676955       17.1736249957
Al               4.2935531659        7.4345121806       17.1726950572
Al               7.1556846105        7.4337815760       17.1730199641
Al              10.0200039932        7.4350038853       17.1756046803
Al              12.8859522736        7.4340268915       17.1740397577
Al               1.4283829789        0.8184843005       19.5138475756
Al               4.2912746417        0.8207981409       19.5176037459
Al               7.1528378964        0.8194972625       19.5175418174
Al              10.0174420303        0.8181799063       19.5126616650
Al               2.8601623355        3.2996537059       19.5172780342
Al               5.7229165240        3.2984576609       19.5166169930
Al               8.5841359285        3.2990957132       19.5171030266
Al              11.4513166929        3.2993943748       19.5145969112
Al               4.2908458229        5.7783745443       19.5170279723
Al               7.1531631539        5.7780183017       19.5190699648
Al              10.0169487789        5.7776661828       19.5163639433
Al              12.8832681446        5.7771861602       19.5185940134
Al               5.7228009093        8.2560160310       19.5162598370
Al               8.5856918108        8.2579838788       19.5150960029
Al              11.4503583649        8.2587284618       19.5137561622
Al              14.3136010478        8.2571831939       19.5157399328
Al              11.4482833188        1.6417572222       21.8580038002
Al               2.8573945630        1.6425848883       21.8612982285
Al               5.7205360872        1.6431226166       21.8643773179
Al               8.5815212932        1.6420967106       21.8622515452
Al              12.8807966948        4.1215933426       21.8639183351
Al               4.2895265536        4.1215169570       21.8573811083
Al               7.1516436900        4.1215235856       21.8623222832
Al              10.0145168158        4.1216418863       21.8624624958
Al              14.3122357153        6.6008862660       21.8627475770
Al               5.7200684546        6.6009245224       21.8637155140
Al               8.5814342473        6.6005200353       21.8640618238
Al              11.4473454148        6.6001933562       21.8612388153
Al              15.7430978301        9.0793189017       21.8600578055
Al               7.1524221517        9.0789620589       21.8618932040
Al              10.0159384250        9.0825785341       21.8595311185
Al              12.8796796433        9.0818865267       21.8620405456
Al              -0.0095767487       -0.0162310480       24.2265033640
Al               2.8546527863       -0.0172947954       24.2296558554
Al               5.7182719558       -0.0168946999       24.2314105627
Al               8.5813990296       -0.0162241565       24.2318404529
Al               1.4211630149        2.4636168153       24.2317612425
Al               4.2850044380        2.4643086515       24.2263465687
Al               7.1492520138        2.4646137215       24.2357596411
Al              10.0133055341        2.4641361836       24.2289616578
Al               2.8542833013        4.9441097086       24.2234884987
Al               5.7172256166        4.9431520220       24.2216560803
Al               8.5821045380        4.9444395096       24.2335850021
Al              11.4446345667        4.9455448298       24.2340959132
Al               4.2856385036        7.4247459478       24.2347121702
Al               7.1499016236        7.4251130197       24.2393408923
Al              10.0133008460        7.4253016812       24.2286964208
Al              12.8762788646        7.4254124438       24.2305929166
C                3.3112977711        4.7640475502       29.3546225160
C                4.7135790685        4.9940696467       28.8301568397
H                2.6042502301        4.9245987951       28.5318715675
H                3.2042487521        3.7358384339       29.7257089700
H                3.0857129979        5.4700701090       30.1640247235
C                5.8176351298        4.8135099487       29.8764350756
F                4.9328082849        4.1243754780       27.7652125591
H                5.6862293322        3.8318497800       30.3561253116
C                7.2661708148        4.8839081237       29.4119386474
F                4.7844680565        6.2811087913       28.2972772562
H                5.6761789120        5.5789710994       30.6536082803
F                7.5288512582        6.0316499622       28.6921819216
F                7.5881693235        3.8108067766       28.6021554887
H                7.9635127442        4.8649032890       30.2671854575



     Writing config-only to output data dir ./tmp/al_pvdf.save/ :
     XML data file
     NEW-OLD atomic charge density approx. for the potential

     negative rho (up, down):  1.357E-03 0.000E+00

     total cpu time spent up to now is    26716.6 secs

     Self-consistent Calculation

     iteration #  1     ecut=    60.00 Ry     beta= 0.30
     Davidson diagonalization with overlap
     ethr =  1.00E-06,  avg # of iterations =  5.0

     negative rho (up, down):  1.371E-03 0.000E+00

     total cpu time spent up to now is    26978.8 secs

     total energy              =   -3434.73363224 Ry
     estimated scf accuracy    <       0.00140848 Ry

     iteration #  2     ecut=    60.00 Ry     beta= 0.30
     Davidson diagonalization with overlap
     ethr =  4.86E-07,  avg # of iterations =  2.0

     negative rho (up, down):  1.386E-03 0.000E+00

     total cpu time spent up to now is    27150.0 secs

     total energy              =   -3434.73338241 Ry
     estimated scf accuracy    <       0.00414520 Ry

     iteration #  3     ecut=    60.00 Ry     beta= 0.30
     Davidson diagonalization with overlap
     ethr =  4.86E-07,  avg # of iterations =  5.7

     negative rho (up, down):  1.393E-03 0.000E+00

     total cpu time spent up to now is    27331.3 secs

     total energy              =   -3434.73332697 Ry
     estimated scf accuracy    <       0.01737877 Ry

     iteration #  4     ecut=    60.00 Ry     beta= 0.30
     Davidson diagonalization with overlap
     ethr =  4.86E-07,  avg # of iterations =  3.3

     negative rho (up, down):  1.402E-03 0.000E+00

     total cpu time spent up to now is    27506.2 secs

     total energy              =   -3434.73358208 Ry
     estimated scf accuracy    <       0.00186169 Ry

     iteration #  5     ecut=    60.00 Ry     beta= 0.30
     Davidson diagonalization with overlap
     ethr =  4.86E-07,  avg # of iterations =  2.2

     negative rho (up, down):  1.408E-03 0.000E+00

     total cpu time spent up to now is    27673.2 secs

     total energy              =   -3434.73370040 Ry
     estimated scf accuracy    <       0.00012505 Ry

     iteration #  6     ecut=    60.00 Ry     beta= 0.30
     Davidson diagonalization with overlap
     ethr =  4.31E-08,  avg # of iterations =  5.3

     negative rho (up, down):  1.414E-03 0.000E+00

     total cpu time spent up to now is    27874.3 secs

     total energy              =   -3434.73371972 Ry
     estimated scf accuracy    <       0.00004559 Ry

     iteration #  7     ecut=    60.00 Ry     beta= 0.30
     Davidson diagonalization with overlap
     ethr =  1.57E-08,  avg # of iterations =  2.0

     negative rho (up, down):  1.418E-03 0.000E+00

     total cpu time spent up to now is    28041.6 secs

     total energy              =   -3434.73372268 Ry
     estimated scf accuracy    <       0.00000812 Ry

     iteration #  8     ecut=    60.00 Ry     beta= 0.30
     Davidson diagonalization with overlap
     ethr =  2.80E-09,  avg # of iterations =  4.8

     negative rho (up, down):  1.419E-03 0.000E+00

     total cpu time spent up to now is    28234.3 secs

     total energy              =   -3434.73372357 Ry
     estimated scf accuracy    <       0.00000264 Ry

     iteration #  9     ecut=    60.00 Ry     beta= 0.30
     Davidson diagonalization with overlap
     ethr =  9.09E-10,  avg # of iterations =  3.9

     negative rho (up, down):  1.421E-03 0.000E+00

     total cpu time spent up to now is    28424.5 secs

     total energy              =   -3434.73372396 Ry
     estimated scf accuracy    <       0.00000077 Ry

     iteration # 10     ecut=    60.00 Ry     beta= 0.30
     Davidson diagonalization with overlap
     ethr =  2.67E-10,  avg # of iterations =  4.2

     negative rho (up, down):  1.422E-03 0.000E+00

     total cpu time spent up to now is    28611.1 secs

     total energy              =   -3434.73372407 Ry
     estimated scf accuracy    <       0.00000029 Ry

     iteration # 11     ecut=    60.00 Ry     beta= 0.30
     Davidson diagonalization with overlap
     ethr =  9.92E-11,  avg # of iterations =  3.4

     negative rho (up, down):  1.422E-03 0.000E+00

     total cpu time spent up to now is    28778.0 secs

     total energy              =   -3434.73372410 Ry
     estimated scf accuracy    <       0.00000004 Ry

     iteration # 12     ecut=    60.00 Ry     beta= 0.30
     Davidson diagonalization with overlap
     ethr =  1.33E-11,  avg # of iterations =  5.6

     negative rho (up, down):  1.423E-03 0.000E+00

     total cpu time spent up to now is    29007.1 secs

     total energy              =   -3434.73372411 Ry
     estimated scf accuracy    <       0.00000003 Ry

     iteration # 13     ecut=    60.00 Ry     beta= 0.30
     Davidson diagonalization with overlap
     ethr =  9.20E-12,  avg # of iterations =  2.4

     negative rho (up, down):  1.423E-03 0.000E+00

     total cpu time spent up to now is    29165.4 secs

     total energy              =   -3434.73372411 Ry
     estimated scf accuracy    <       0.00000002 Ry

     iteration # 14     ecut=    60.00 Ry     beta= 0.30
     Davidson diagonalization with overlap
     ethr =  5.76E-12,  avg # of iterations =  2.0

     negative rho (up, down):  1.423E-03 0.000E+00

     total cpu time spent up to now is    29321.1 secs

     total energy              =   -3434.73372411 Ry
     estimated scf accuracy    <       0.00000002 Ry

     iteration # 15     ecut=    60.00 Ry     beta= 0.30
     Davidson diagonalization with overlap
     ethr =  5.57E-12,  avg # of iterations =  1.0

     negative rho (up, down):  1.423E-03 0.000E+00

     total cpu time spent up to now is    29465.7 secs

     total energy              =   -3434.73372411 Ry
     estimated scf accuracy    <          2.8E-09 Ry

     iteration # 16     ecut=    60.00 Ry     beta= 0.30
     Davidson diagonalization with overlap
     ethr =  9.79E-13,  avg # of iterations =  3.5

     negative rho (up, down):  1.423E-03 0.000E+00

     total cpu time spent up to now is    29628.6 secs

     total energy              =   -3434.73372411 Ry
     estimated scf accuracy    <          7.7E-10 Ry

     iteration # 17     ecut=    60.00 Ry     beta= 0.30
     Davidson diagonalization with overlap
     ethr =  2.64E-13,  avg # of iterations =  5.8

     negative rho (up, down):  1.424E-03 0.000E+00

     total cpu time spent up to now is    29807.3 secs

     total energy              =   -3434.73372411 Ry
     estimated scf accuracy    <          1.4E-10 Ry

     iteration # 18     ecut=    60.00 Ry     beta= 0.30
     Davidson diagonalization with overlap
     ethr =  1.00E-13,  avg # of iterations =  2.9

     negative rho (up, down):  1.424E-03 0.000E+00

     total cpu time spent up to now is    29966.4 secs

     End of self-consistent calculation

          k = 0.0000 0.0000 0.0000 (237007 PWs)   bands (ev):

   -27.8097 -27.5662 -26.3271 -26.1254 -16.9480 -15.3510 -13.1176 -11.7939
   -10.8246 -10.1446 -10.1135 -10.1075  -9.6645  -9.5809  -9.3339  -9.3320
    -9.3315  -9.3274  -9.3271  -9.3249  -9.0168  -8.6332  -8.6249  -8.6239
    -8.6229  -8.6213  -8.6211  -8.6197  -8.1193  -7.5395  -7.5382  -7.5376
    -7.5367  -7.5353  -7.5350  -7.5340  -7.4143  -7.0195  -6.6224  -6.3870
    -6.3866  -6.3864  -6.3861  -6.3855  -6.3852  -6.2396  -6.1777  -6.0821
    -6.0693  -6.0685  -6.0673  -6.0661  -6.0651  -5.9472  -5.7473  -5.6937
    -5.6934  -5.6926  -5.6925  -5.6910  -5.6906  -5.6870  -5.6453  -5.5191
    -5.0618  -4.9544  -4.9542  -4.9539  -4.9286  -4.9285  -4.9279  -4.6306
    -4.6299  -4.6291  -4.6290  -4.6287  -4.6285  -4.2765  -4.2754  -4.2746
    -4.2435  -4.2421  -4.2410  -4.2008  -4.1908  -4.1895  -4.1892  -4.1874
    -4.1856  -4.1619  -3.5887  -3.3665  -3.3641  -3.3625  -3.2072  -3.2065
    -3.2061  -3.2050  -3.2049  -3.2041  -3.0943  -3.0913  -3.0881  -2.1918
    -2.1892  -2.1870  -2.1866  -2.1854  -2.1795  -1.8771  -1.8738  -1.8701
    -1.5076  -1.5069  -1.5054  -1.5051  -1.5030  -1.5017  -1.4306  -1.4282
    -1.4268  -1.2005  -0.7629  -0.7627  -0.7621  -0.7618  -0.7591  -0.7590
    -0.6413  -0.6407  -0.6390  -0.6378  -0.6370  -0.6352  -0.0899  -0.0893
    -0.0869  -0.0856  -0.0842  -0.0828   0.1419   0.1470   0.1523   0.1525
     0.1541   0.1642   0.1684   0.1716   0.1748   0.2199   0.2203   0.2246
     0.2249   0.2260   0.2266   0.2303   0.2321   0.2329   0.8035   0.8045
     0.8050   0.8061   0.8074   0.8107   0.9293   0.9301   0.9322   0.9324
     0.9331   0.9337   1.1386   1.2923   1.2949   1.2985

          k = 0.0000 0.2887 0.0000 (236896 PWs)   bands (ev):

   -27.8097 -27.5662 -26.3271 -26.1254 -16.9480 -15.3510 -13.1176 -11.7939
   -10.7307 -10.1445 -10.1091 -10.0185  -9.9816  -9.6645  -9.6087  -9.6083
    -9.5809  -9.2724  -8.9238  -8.9009  -8.9005  -8.8656  -8.8652  -8.6307
    -8.4954  -8.1824  -8.1607  -8.1605  -8.1188  -7.8128  -7.8125  -7.7920
    -7.4455  -7.4145  -7.3911  -7.3907  -7.0779  -7.0772  -7.0192  -6.7113
    -6.7091  -6.6924  -6.6920  -6.6221  -6.3443  -6.3428  -6.2959  -6.2952
    -6.2948  -6.2369  -6.1748  -5.9599  -5.7475  -5.6877  -5.6198  -5.6192
    -5.6135  -5.6113  -5.6033  -5.6018  -5.6012  -5.5707  -5.5703  -5.5549
    -5.5187  -5.2504  -5.2091  -5.2087  -5.0618  -4.8838  -4.8833  -4.8240
    -4.5449  -4.5406  -4.5404  -4.5228  -4.5224  -4.4617  -4.4583  -4.1782
    -4.1733  -4.1693  -4.1382  -4.1379  -3.8411  -3.8409  -3.7410  -3.7381
    -3.5008  -3.4790  -3.4786  -3.4694  -3.4685  -3.4420  -3.3859  -3.1571
    -3.1265  -3.1261  -2.7982  -2.7342  -2.6467  -2.6453  -2.4494  -2.4458
    -2.3842  -2.3839  -2.3477  -2.3452  -2.1243  -2.1229  -2.0779  -2.0759
    -2.0444  -2.0427  -1.7560  -1.7528  -1.6876  -1.6874  -1.6747  -1.5752
    -1.5729  -1.4222  -1.1128  -1.0032  -1.0017  -0.9996  -0.9674  -0.9637
    -0.8606  -0.8600  -0.6907  -0.6904  -0.5465  -0.5451  -0.4194  -0.4169
    -0.4150  -0.3812  -0.3796  -0.1616  -0.1612  -0.1553  -0.1045  -0.1009
    -0.0858  -0.0769   0.0498   0.1470   0.1518   0.4630   0.4700   0.5483
     0.5505   0.5810   0.5838   0.7544   0.7564   0.7755   0.7788   0.9412
     0.9436   0.9553   0.9560   1.0887   1.0895   1.1336   1.1342   1.2236
     1.2678   1.2713   1.2874   1.3124   1.3173   1.4487

          k = 0.0000-0.5773 0.0000 (236880 PWs)   bands (ev):

   -27.8097 -27.5662 -26.3271 -26.1254 -16.9480 -15.3510 -13.1176 -11.7939
   -10.4517 -10.4470 -10.1445 -10.1090  -9.7401  -9.7367  -9.7019  -9.7015
    -9.6641  -9.5808  -8.9937  -8.9933  -8.6474  -8.6439  -8.6296  -8.2190
    -8.2185  -8.2182  -8.2180  -8.1192  -7.9050  -7.9047  -7.5168  -7.5165
    -7.5159  -7.5156  -7.4832  -7.4823  -7.4147  -7.1703  -7.1671  -7.0192
    -6.7846  -6.7829  -6.6232  -6.4382  -6.4374  -6.4370  -6.4369  -6.4348
    -6.4336  -6.2371  -6.1748  -6.0255  -6.0250  -6.0205  -6.0204  -5.9581
    -5.7472  -5.7108  -5.7102  -5.6871  -5.5192  -5.3334  -5.3328  -5.3301
    -5.3299  -5.2824  -5.2798  -5.0624  -4.9806  -4.9796  -4.9793  -4.9779
    -4.5524  -4.5489  -4.2779  -4.2774  -4.2754  -4.2752  -4.2663  -4.2654
    -4.1733  -3.8823  -3.8820  -3.8522  -3.8518  -3.2387  -3.2357  -3.2179
    -3.2175  -3.1777  -3.1772  -3.1765  -3.1763  -3.1667  -3.1663  -3.1212
    -3.1210  -3.1191  -3.1173  -2.8965  -2.8961  -2.8939  -2.8924  -2.5367
    -2.5330  -2.4857  -2.4833  -2.4687  -2.4673  -2.4660  -2.4646  -2.3192
    -2.3186  -2.0499  -2.0498  -1.7223  -1.7216  -1.4122  -1.4101  -1.4087
    -1.4065  -1.1655  -1.1647  -1.1632  -1.1616  -1.0865  -1.0846  -0.9958
    -0.9931  -0.9005  -0.8994  -0.8540  -0.8471  -0.7544  -0.7542  -0.7520
    -0.7515  -0.4514  -0.4511  -0.4147  -0.4145  -0.3178  -0.3176  -0.1674
    -0.1585   0.0902   0.0907   0.0913   0.0920   0.1037   0.1050   0.3089
     0.3092   0.3113   0.3123   0.7883   0.7893   0.9916   0.9927   0.9938
     0.9949   1.0101   1.0111   1.0153   1.0157   1.4714   1.4730   1.4750
     1.4770   1.4787   1.4913   1.4949   1.4970   1.5034

          k = 0.2500-0.1443 0.0000 (236890 PWs)   bands (ev):

   -27.8097 -27.5662 -26.3271 -26.1254 -16.9480 -15.3510 -13.1176 -11.7939
   -10.7307 -10.1445 -10.1091 -10.0185  -9.9816  -9.6645  -9.6087  -9.6085
    -9.5809  -9.2723  -8.9238  -8.9010  -8.9006  -8.8656  -8.8653  -8.6306
    -8.4953  -8.1821  -8.1609  -8.1605  -8.1189  -7.8129  -7.8124  -7.7919
    -7.4455  -7.4145  -7.3910  -7.3906  -7.0779  -7.0771  -7.0192  -6.7118
    -6.7093  -6.6925  -6.6920  -6.6208  -6.3436  -6.3428  -6.2959  -6.2954
    -6.2949  -6.2376  -6.1753  -5.9597  -5.7475  -5.6878  -5.6196  -5.6192
    -5.6136  -5.6112  -5.6031  -5.6021  -5.6014  -5.5709  -5.5706  -5.5549
    -5.5184  -5.2505  -5.2089  -5.2085  -5.0615  -4.8839  -4.8837  -4.8238
    -4.5447  -4.5409  -4.5407  -4.5226  -4.5222  -4.4618  -4.4584  -4.1790
    -4.1737  -4.1679  -4.1381  -4.1380  -3.8415  -3.8411  -3.7411  -3.7381
    -3.5008  -3.4789  -3.4785  -3.4691  -3.4686  -3.4420  -3.3857  -3.1577
    -3.1266  -3.1264  -2.7980  -2.7321  -2.6480  -2.6453  -2.4494  -2.4463
    -2.3844  -2.3839  -2.3475  -2.3451  -2.1249  -2.1234  -2.0800  -2.0759
    -2.0441  -2.0417  -1.7558  -1.7531  -1.6857  -1.6852  -1.6719  -1.5764
    -1.5730  -1.4216  -1.1127  -1.0032  -1.0018  -0.9992  -0.9708  -0.9637
    -0.8612  -0.8600  -0.6882  -0.6876  -0.5471  -0.5447  -0.4193  -0.4184
    -0.4152  -0.3810  -0.3795  -0.1618  -0.1614  -0.1556  -0.1062  -0.1014
    -0.0854  -0.0774   0.0509   0.1451   0.1538   0.4634   0.4696   0.5479
     0.5504   0.5802   0.5841   0.7550   0.7573   0.7712   0.7767   0.9394
     0.9439   0.9554   0.9558   1.0900   1.0907   1.1322   1.1330   1.2229
     1.2659   1.2719   1.2883   1.3100   1.3167   1.4488

          k = 0.2500-0.7217 0.0000 (236847 PWs)   bands (ev):

   -27.8097 -27.5662 -26.3271 -26.1254 -16.9480 -15.3510 -13.1176 -11.7939
   -10.5431 -10.1708 -10.1664 -10.1444 -10.1090  -9.8316  -9.6645  -9.5809
    -9.4596  -9.4573  -9.0509  -9.0508  -8.7380  -8.6306  -8.3680  -8.3661
    -8.3453  -8.3451  -8.3107  -8.1191  -7.9442  -7.9399  -7.6081  -7.4149
    -7.2615  -7.2606  -7.2602  -7.2421  -7.2398  -7.2080  -7.2071  -7.0199
    -6.8932  -6.8916  -6.8422  -6.8419  -6.6222  -6.5284  -6.5107  -6.5087
    -6.2385  -6.1779  -6.1645  -6.1624  -6.1463  -6.1457  -5.9609  -5.7947
    -5.7931  -5.7447  -5.6876  -5.5196  -5.4392  -5.4385  -5.3726  -5.0809
    -5.0797  -5.0706  -5.0602  -5.0297  -5.0287  -5.0074  -5.0042  -4.7112
    -4.7101  -4.6851  -4.6581  -4.3467  -4.3450  -4.1745  -4.0106  -3.9983
    -3.9976  -3.9708  -3.9546  -3.9184  -3.9171  -3.6545  -3.6542  -3.6060
    -3.6018  -3.3250  -3.3102  -3.3094  -3.2823  -3.2059  -3.1010  -2.9758
    -2.9708  -2.9386  -2.9360  -2.8676  -2.8666  -2.8264  -2.5720  -2.5696
    -2.5545  -2.5354  -2.2730  -2.2269  -2.2249  -2.1331  -2.1302  -2.0904
    -2.0872  -1.9292  -1.9261  -1.9242  -1.8479  -1.6141  -1.5534  -1.5491
    -1.4714  -1.4644  -1.4577  -1.4573  -1.2484  -1.2391  -1.1674  -1.0456
    -1.0435  -0.9377  -0.7345  -0.7321  -0.7104  -0.6535  -0.6528  -0.6179
    -0.6136  -0.5958  -0.5844  -0.5240  -0.3704  -0.3684  -0.0624  -0.0613
    -0.0138  -0.0120   0.0303   0.0324   0.2467   0.2490   0.3595   0.3605
     0.3831   0.3988   0.4040   0.4567   0.6029   0.6062   0.6997   0.7002
     0.7185   0.8909   1.0291   1.0297   1.1011   1.1599   1.1679   1.3951
     1.4037   1.6270   1.6406   1.6486   1.6964   1.7168

          k =-0.5000 0.2887 0.0000 (236880 PWs)   bands (ev):

   -27.8097 -27.5662 -26.3271 -26.1254 -16.9480 -15.3510 -13.1176 -11.7939
   -10.4515 -10.4472 -10.1445 -10.1091  -9.7398  -9.7370  -9.7019  -9.7016
    -9.6641  -9.5809  -8.9937  -8.9934  -8.6469  -8.6446  -8.6293  -8.2188
    -8.2186  -8.2184  -8.2178  -8.1193  -7.9051  -7.9045  -7.5168  -7.5167
    -7.5159  -7.5155  -7.4829  -7.4821  -7.4146  -7.1699  -7.1676  -7.0193
    -6.7844  -6.7829  -6.6224  -6.4377  -6.4374  -6.4374  -6.4367  -6.4344
    -6.4338  -6.2378  -6.1754  -6.0254  -6.0251  -6.0210  -6.0208  -5.9578
    -5.7473  -5.7107  -5.7091  -5.6875  -5.5196  -5.3331  -5.3328  -5.3307
    -5.3304  -5.2834  -5.2789  -5.0631  -4.9805  -4.9801  -4.9780  -4.9776
    -4.5525  -4.5490  -4.2776  -4.2774  -4.2759  -4.2757  -4.2662  -4.2653
    -4.1734  -3.8822  -3.8818  -3.8520  -3.8517  -3.2396  -3.2345  -3.2185
    -3.2183  -3.1774  -3.1771  -3.1765  -3.1762  -3.1656  -3.1650  -3.1211
    -3.1210  -3.1192  -3.1171  -2.8965  -2.8954  -2.8938  -2.8924  -2.5367
    -2.5335  -2.4864  -2.4844  -2.4706  -2.4691  -2.4662  -2.4645  -2.3209
    -2.3205  -2.0469  -2.0464  -1.7200  -1.7196  -1.4148  -1.4127  -1.4089
    -1.4063  -1.1655  -1.1645  -1.1640  -1.1611  -1.0868  -1.0848  -0.9927
    -0.9902  -0.8971  -0.8959  -0.8562  -0.8446  -0.7549  -0.7541  -0.7523
    -0.7512  -0.4528  -0.4522  -0.4155  -0.4150  -0.3185  -0.3175  -0.1671
    -0.1592   0.0902   0.0909   0.0912   0.0925   0.1033   0.1042   0.3080
     0.3083   0.3106   0.3120   0.7841   0.7853   0.9913   0.9917   0.9947
     0.9953   1.0087   1.0096   1.0135   1.0158   1.4641   1.4742   1.4752
     1.4772   1.4851   1.4892   1.4953   1.4971   1.5011

          k =-0.5000 0.5773 0.0000 (236845 PWs)   bands (ev):

   -27.8097 -27.5662 -26.3271 -26.1254 -16.9480 -15.3510 -13.1176 -11.7939
   -10.5431 -10.1710 -10.1662 -10.1444 -10.1090  -9.8316  -9.6645  -9.5810
    -9.4600  -9.4569  -9.0511  -9.0508  -8.7380  -8.6306  -8.3684  -8.3658
    -8.3455  -8.3450  -8.3105  -8.1190  -7.9443  -7.9395  -7.6079  -7.4149
    -7.2615  -7.2605  -7.2604  -7.2424  -7.2393  -7.2083  -7.2073  -7.0199
    -6.8941  -6.8906  -6.8422  -6.8418  -6.6224  -6.5280  -6.5108  -6.5091
    -6.2389  -6.1791  -6.1628  -6.1622  -6.1460  -6.1457  -5.9614  -5.7955
    -5.7924  -5.7447  -5.6875  -5.5198  -5.4393  -5.4381  -5.3726  -5.0811
    -5.0794  -5.0744  -5.0561  -5.0298  -5.0288  -5.0071  -5.0048  -4.7111
    -4.7096  -4.6853  -4.6583  -4.3468  -4.3451  -4.1743  -4.0099  -3.9986
    -3.9978  -3.9720  -3.9543  -3.9187  -3.9171  -3.6547  -3.6540  -3.6060
    -3.6013  -3.3249  -3.3103  -3.3093  -3.2820  -3.2057  -3.0993  -2.9748
    -2.9718  -2.9387  -2.9356  -2.8676  -2.8665  -2.8294  -2.5719  -2.5703
    -2.5545  -2.5359  -2.2725  -2.2262  -2.2238  -2.1318  -2.1300  -2.0888
    -2.0872  -1.9287  -1.9258  -1.9249  -1.8490  -1.6174  -1.5513  -1.5489
    -1.4680  -1.4644  -1.4600  -1.4593  -1.2468  -1.2385  -1.1661  -1.0446
    -1.0432  -0.9376  -0.7377  -0.7350  -0.7119  -0.6535  -0.6526  -0.6159
    -0.6138  -0.5934  -0.5866  -0.5216  -0.3703  -0.3678  -0.0617  -0.0613
    -0.0129  -0.0105   0.0304   0.0324   0.2467   0.2479   0.3599   0.3613
     0.3821   0.3990   0.4030   0.4575   0.6008   0.6033   0.6995   0.7005
     0.7144   0.8911   1.0290   1.0301   1.1036   1.1595   1.1645   1.3938
     1.4032   1.6276   1.6430   1.6465   1.6953   1.7238

          k =-0.2500-0.1443 0.0000 (236890 PWs)   bands (ev):

   -27.8097 -27.5662 -26.3271 -26.1254 -16.9480 -15.3510 -13.1176 -11.7939
   -10.7307 -10.1445 -10.1091 -10.0185  -9.9816  -9.6645  -9.6087  -9.6084
    -9.5809  -9.2723  -8.9238  -8.9009  -8.9007  -8.8655  -8.8653  -8.6306
    -8.4953  -8.1822  -8.1609  -8.1605  -8.1189  -7.8127  -7.8126  -7.7919
    -7.4455  -7.4145  -7.3909  -7.3907  -7.0779  -7.0772  -7.0191  -6.7118
    -6.7094  -6.6924  -6.6921  -6.6209  -6.3440  -6.3424  -6.2959  -6.2954
    -6.2949  -6.2374  -6.1753  -5.9600  -5.7472  -5.6878  -5.6197  -5.6191
    -5.6136  -5.6114  -5.6031  -5.6021  -5.6013  -5.5709  -5.5706  -5.5548
    -5.5184  -5.2505  -5.2089  -5.2086  -5.0614  -4.8839  -4.8836  -4.8237
    -4.5447  -4.5409  -4.5407  -4.5226  -4.5222  -4.4618  -4.4584  -4.1788
    -4.1737  -4.1681  -4.1380  -4.1378  -3.8415  -3.8411  -3.7410  -3.7381
    -3.5008  -3.4789  -3.4786  -3.4687  -3.4685  -3.4424  -3.3858  -3.1589
    -3.1265  -3.1263  -2.7978  -2.7300  -2.6480  -2.6466  -2.4496  -2.4464
    -2.3848  -2.3845  -2.3475  -2.3451  -2.1259  -2.1245  -2.0800  -2.0779
    -2.0425  -2.0418  -1.7559  -1.7532  -1.6836  -1.6833  -1.6689  -1.5764
    -1.5745  -1.4212  -1.1127  -1.0034  -1.0009  -0.9988  -0.9708  -0.9674
    -0.8612  -0.8603  -0.6849  -0.6848  -0.5465  -0.5453  -0.4192  -0.4187
    -0.4172  -0.3801  -0.3793  -0.1621  -0.1615  -0.1564  -0.1064  -0.1027
    -0.0856  -0.0773   0.0516   0.1474   0.1515   0.4633   0.4698   0.5482
     0.5506   0.5809   0.5830   0.7546   0.7583   0.7689   0.7715   0.9398
     0.9421   0.9553   0.9560   1.0910   1.0917   1.1308   1.1310   1.2229
     1.2668   1.2699   1.2878   1.3096   1.3149   1.4488

          k =-0.2500-0.7217 0.0000 (236847 PWs)   bands (ev):

   -27.8097 -27.5662 -26.3271 -26.1254 -16.9480 -15.3510 -13.1176 -11.7939
   -10.5431 -10.1709 -10.1663 -10.1444 -10.1090  -9.8317  -9.6644  -9.5809
    -9.4600  -9.4569  -9.0511  -9.0506  -8.7380  -8.6307  -8.3685  -8.3657
    -8.3455  -8.3449  -8.3107  -8.1191  -7.9443  -7.9398  -7.6081  -7.4149
    -7.2614  -7.2610  -7.2599  -7.2425  -7.2393  -7.2078  -7.2074  -7.0199
    -6.8936  -6.8912  -6.8423  -6.8418  -6.6222  -6.5284  -6.5102  -6.5093
    -6.2387  -6.1771  -6.1650  -6.1622  -6.1464  -6.1457  -5.9617  -5.7948
    -5.7915  -5.7456  -5.6876  -5.5196  -5.4393  -5.4383  -5.3726  -5.0808
    -5.0795  -5.0701  -5.0609  -5.0294  -5.0289  -5.0074  -5.0043  -4.7116
    -4.7097  -4.6853  -4.6582  -4.3463  -4.3453  -4.1746  -4.0117  -3.9982
    -3.9978  -3.9697  -3.9545  -3.9184  -3.9171  -3.6545  -3.6540  -3.6059
    -3.6014  -3.3250  -3.3102  -3.3095  -3.2821  -3.2058  -3.1034  -2.9764
    -2.9702  -2.9386  -2.9354  -2.8681  -2.8658  -2.8231  -2.5705  -2.5695
    -2.5547  -2.5352  -2.2731  -2.2278  -2.2266  -2.1333  -2.1315  -2.0905
    -2.0888  -1.9299  -1.9261  -1.9239  -1.8467  -1.6103  -1.5534  -1.5511
    -1.4713  -1.4679  -1.4560  -1.4551  -1.2505  -1.2394  -1.1697  -1.0470
    -1.0432  -0.9377  -0.7310  -0.7294  -0.7087  -0.6532  -0.6523  -0.6183
    -0.6150  -0.5963  -0.5839  -0.5267  -0.3705  -0.3682  -0.0636  -0.0620
    -0.0151  -0.0137   0.0309   0.0321   0.2476   0.2495   0.3581   0.3589
     0.3848   0.3995   0.4029   0.4556   0.6064   0.6082   0.7000   0.7004
     0.7236   0.8908   1.0287   1.0303   1.0977   1.1638   1.1684   1.3951
     1.4052   1.6264   1.6407   1.6488   1.6955   1.7148

          k = 0.5000 0.2887 0.0000 (236880 PWs)   bands (ev):

   -27.8097 -27.5662 -26.3271 -26.1254 -16.9480 -15.3510 -13.1176 -11.7939
   -10.4516 -10.4471 -10.1445 -10.1091  -9.7401  -9.7366  -9.7018  -9.7018
    -9.6641  -9.5809  -8.9937  -8.9935  -8.6479  -8.6437  -8.6293  -8.2190
    -8.2186  -8.2182  -8.2179  -8.1193  -7.9049  -7.9048  -7.5170  -7.5165
    -7.5160  -7.5153  -7.4827  -7.4823  -7.4146  -7.1702  -7.1673  -7.0193
    -6.7843  -6.7830  -6.6224  -6.4381  -6.4375  -6.4370  -6.4367  -6.4345
    -6.4335  -6.2376  -6.1754  -6.0254  -6.0253  -6.0208  -6.0208  -5.9584
    -5.7466  -5.7108  -5.7095  -5.6874  -5.5195  -5.3337  -5.3330  -5.3303
    -5.3300  -5.2836  -5.2787  -5.0630  -4.9807  -4.9798  -4.9779  -4.9778
    -4.5526  -4.5491  -4.2781  -4.2780  -4.2753  -4.2751  -4.2658  -4.2658
    -4.1734  -3.8822  -3.8821  -3.8521  -3.8519  -3.2402  -3.2339  -3.2196
    -3.2194  -3.1769  -3.1768  -3.1763  -3.1762  -3.1643  -3.1641  -3.1217
    -3.1204  -3.1188  -3.1175  -2.8960  -2.8946  -2.8933  -2.8920  -2.5369
    -2.5336  -2.4873  -2.4861  -2.4704  -2.4691  -2.4683  -2.4667  -2.3234
    -2.3231  -2.0432  -2.0430  -1.7182  -1.7174  -1.4148  -1.4130  -1.4114
    -1.4096  -1.1661  -1.1639  -1.1634  -1.1619  -1.0865  -1.0846  -0.9893
    -0.9876  -0.8930  -0.8917  -0.8567  -0.8441  -0.7542  -0.7542  -0.7518
    -0.7510  -0.4538  -0.4537  -0.4164  -0.4162  -0.3197  -0.3182  -0.1674
    -0.1591   0.0911   0.0914   0.0917   0.0918   0.1019   0.1027   0.3078
     0.3082   0.3106   0.3111   0.7794   0.7805   0.9909   0.9923   0.9953
     0.9956   1.0082   1.0092   1.0119   1.0150   1.4625   1.4747   1.4753
     1.4764   1.4851   1.4871   1.4957   1.4966   1.5016

     the Fermi energy is     0.0002 ev

!    total energy              =   -3434.73372411 Ry
     estimated scf accuracy    <          6.2E-11 Ry
     smearing contrib. (-TS)   =      -0.00830980 Ry
     internal energy E=F+TS    =   -3434.72541431 Ry

     The total energy is F=E-TS. E is the sum of the following terms:
     one-electron contribution =  -11685.72951818 Ry
     hartree contribution      =    5915.55519805 Ry
     xc contribution           =    -264.10030192 Ry
     ewald contribution        =    5398.42803678 Ry
     one-center paw contrib.   =   -2798.87882903 Ry

     convergence has been achieved in  18 iterations

     negative rho (up, down):  1.424E-03 0.000E+00

     Forces acting on atoms (cartesian axes, Ry/au):

     atom    1 type  1   force =    -0.00003677   -0.00007513    0.00000088
     atom    2 type  1   force =    -0.00020993   -0.00003459    0.00006131
     atom    3 type  1   force =     0.00012444   -0.00003349    0.00018763
     atom    4 type  1   force =    -0.00000645   -0.00001364    0.00007524
     atom    5 type  1   force =    -0.00012059   -0.00026058    0.00018907
     atom    6 type  1   force =    -0.00001801   -0.00007866    0.00041566
     atom    7 type  1   force =     0.00003434   -0.00019938    0.00029494
     atom    8 type  1   force =    -0.00004760   -0.00011648    0.00010174
     atom    9 type  1   force =     0.00004471    0.00012823    0.00009199
     atom   10 type  1   force =    -0.00009500    0.00009112    0.00021363
     atom   11 type  1   force =     0.00000891   -0.00000498   -0.00003182
     atom   12 type  1   force =    -0.00009649   -0.00002380   -0.00017100
     atom   13 type  1   force =     0.00000832   -0.00003564    0.00006499
     atom   14 type  1   force =    -0.00005839   -0.00002926    0.00007266
     atom   15 type  1   force =    -0.00007756   -0.00010717   -0.00016623
     atom   16 type  1   force =    -0.00002533   -0.00005277   -0.00004311
     atom   17 type  1   force =    -0.00005492    0.00015580   -0.00001464
     atom   18 type  1   force =    -0.00017422   -0.00010524    0.00009454
     atom   19 type  1   force =     0.00001735   -0.00029097    0.00014934
     atom   20 type  1   force =     0.00012470   -0.00000593   -0.00004451
     atom   21 type  1   force =    -0.00018098   -0.00017623    0.00021370
     atom   22 type  1   force =    -0.00007724   -0.00021115   -0.00026938
     atom   23 type  1   force =     0.00006382   -0.00016041    0.00002231
     atom   24 type  1   force =     0.00014489   -0.00018867    0.00003091
     atom   25 type  1   force =    -0.00018717    0.00000040   -0.00031748
     atom   26 type  1   force =    -0.00000718    0.00000625   -0.00057343
     atom   27 type  1   force =     0.00024835    0.00002087   -0.00000693
     atom   28 type  1   force =    -0.00015062   -0.00009027    0.00008392
     atom   29 type  1   force =    -0.00007948    0.00012339    0.00010078
     atom   30 type  1   force =     0.00013503    0.00021490    0.00011591
     atom   31 type  1   force =     0.00004660    0.00002837    0.00000804
     atom   32 type  1   force =    -0.00018663    0.00016464    0.00013665
     atom   33 type  1   force =    -0.00017526   -0.00007837    0.00051369
     atom   34 type  1   force =    -0.00006117   -0.00038306    0.00018694
     atom   35 type  1   force =     0.00022892   -0.00018642    0.00021523
     atom   36 type  1   force =     0.00002656   -0.00003368    0.00077319
     atom   37 type  1   force =    -0.00040865   -0.00024399    0.00016754
     atom   38 type  1   force =     0.00012136   -0.00014608    0.00032243
     atom   39 type  1   force =     0.00035964   -0.00019313    0.00022404
     atom   40 type  1   force =    -0.00013870   -0.00010832    0.00044631
     atom   41 type  1   force =    -0.00007250    0.00024539    0.00028825
     atom   42 type  1   force =     0.00027593    0.00016479    0.00013509
     atom   43 type  1   force =     0.00013197    0.00004723    0.00039566
     atom   44 type  1   force =    -0.00027492    0.00016490    0.00015022
     atom   45 type  1   force =    -0.00003892    0.00041889    0.00028106
     atom   46 type  1   force =     0.00003166    0.00008865    0.00048341
     atom   47 type  1   force =     0.00000533   -0.00000413    0.00064931
     atom   48 type  1   force =     0.00001521    0.00022878    0.00036420
     atom   49 type  1   force =    -0.00008311   -0.00011686   -0.00004010
     atom   50 type  1   force =    -0.00029285   -0.00028516   -0.00014614
     atom   51 type  1   force =     0.00009803   -0.00035362   -0.00038675
     atom   52 type  1   force =     0.00033976   -0.00020780   -0.00021702
     atom   53 type  1   force =    -0.00038627   -0.00011600   -0.00026399
     atom   54 type  1   force =    -0.00017505   -0.00007352   -0.00038803
     atom   55 type  1   force =     0.00028142   -0.00012314   -0.00040576
     atom   56 type  1   force =     0.00024258   -0.00004604   -0.00023483
     atom   57 type  1   force =    -0.00015882    0.00032445   -0.00026004
     atom   58 type  1   force =     0.00005146    0.00037442   -0.00046202
     atom   59 type  1   force =     0.00029630    0.00021970   -0.00031645
     atom   60 type  1   force =    -0.00002564    0.00019309   -0.00013476
     atom   61 type  1   force =    -0.00000431    0.00038275   -0.00008925
     atom   62 type  1   force =     0.00000214    0.00032659   -0.00024831
     atom   63 type  1   force =     0.00003138   -0.00013593   -0.00008769
     atom   64 type  1   force =    -0.00002705   -0.00001349   -0.00024891
     atom   65 type  1   force =     0.00001945   -0.00003031   -0.00009808
     atom   66 type  1   force =    -0.00000567    0.00028340   -0.00026449
     atom   67 type  1   force =    -0.00002762    0.00036380   -0.00032789
     atom   68 type  1   force =     0.00006769    0.00011103   -0.00040108
     atom   69 type  1   force =     0.00018563    0.00014445   -0.00043324
     atom   70 type  1   force =     0.00013229   -0.00011825    0.00007180
     atom   71 type  1   force =     0.00000619    0.00006415   -0.00034980
     atom   72 type  1   force =    -0.00005967    0.00010019   -0.00017804
     atom   73 type  1   force =    -0.00007484    0.00016333    0.00013365
     atom   74 type  1   force =     0.00024453    0.00028207    0.00059862
     atom   75 type  1   force =    -0.00023241    0.00007463   -0.00011592
     atom   76 type  1   force =     0.00015387   -0.00008704   -0.00047493
     atom   77 type  1   force =     0.00010492   -0.00008083   -0.00031348
     atom   78 type  1   force =    -0.00012446   -0.00022475   -0.00059067
     atom   79 type  1   force =    -0.00003944   -0.00004709   -0.00011640
     atom   80 type  1   force =     0.00025658   -0.00009631   -0.00023949
     atom   81 type  2   force =     0.00076499    0.00060334   -0.00035814
     atom   82 type  2   force =    -0.00009998   -0.00092525    0.00220229
     atom   83 type  3   force =    -0.00069889   -0.00022997    0.00049455
     atom   84 type  3   force =     0.00059785    0.00212730   -0.00087879
     atom   85 type  3   force =     0.00026192   -0.00072976   -0.00034416
     atom   86 type  2   force =     0.00030750    0.00029964   -0.00060079
     atom   87 type  4   force =     0.00060754    0.00061863   -0.00070691
     atom   88 type  3   force =    -0.00066302    0.00138992   -0.00044948
     atom   89 type  2   force =    -0.00009379   -0.00007813   -0.00018916
     atom   90 type  4   force =    -0.00054019   -0.00267070    0.00159690
     atom   91 type  3   force =    -0.00033016   -0.00017085   -0.00098823
     atom   92 type  4   force =     0.00020924    0.00068994    0.00120679
     atom   93 type  4   force =     0.00038510   -0.00093233    0.00041322
     atom   94 type  3   force =    -0.00064250    0.00013532   -0.00105252

     Total force =     0.006730     Total SCF correction =     0.000015


     Computing stress (Cartesian axis) and pressure


     negative rho (up, down):  1.424E-03 0.000E+00
          total   stress  (Ry/bohr**3)                   (kbar)     P=       -7.11
  -0.00007100  -0.00000001   0.00000038          -10.44       -0.00        0.06
  -0.00000001  -0.00007162   0.00000098           -0.00      -10.54        0.14
   0.00000038   0.00000098  -0.00000237            0.06        0.14       -0.35

     Energy error            =      8.0E-05 Ry
     Gradient error          =      2.7E-03 Ry/Bohr

     number of scf cycles    =  43
     number of bfgs steps    =  42

     energy             old  =   -3434.7336440179 Ry
     energy             new  =   -3434.7337241076 Ry

     CASE: energy            _new < energy            _old

     new trust radius        =       0.0638932691 bohr
     new conv_thr            =            1.0E-10 Ry


ATOMIC_POSITIONS (angstrom)
Al              11.4545717341        1.6516003415       14.8054127264
Al               2.8645047860        1.6517844083       14.8041503510
Al               5.7256874379        1.6522246114       14.8027440175
Al               8.5897784124        1.6513221265       14.8038028812
Al              12.8875163854        4.1330452017       14.8020028532
Al               4.2951646222        4.1319194451       14.8057243668
Al               7.1574544050        4.1323848905       14.8042521293
Al              10.0223499934        4.1322460600       14.8037028669
Al              14.3181460428        6.6098279794       14.8038534546
Al               5.7268591444        6.6099131225       14.8040296618
Al               8.5902600545        6.6112775372       14.8047009693
Al              11.4544964071        6.6116472724       14.8054701391
Al              15.7496034854        9.0913010501       14.8042529945
Al               7.1589943435        9.0914161656       14.8033206829
Al              10.0228788108        9.0918518399       14.8059151989
Al              12.8861064319        9.0916874913       14.8041807940
Al              -0.0019605364       -0.0069702773       17.1715882738
Al               2.8623825494       -0.0046289352       17.1697785253
Al               5.7245724220       -0.0030524888       17.1690905295
Al               8.5865782563       -0.0056086447       17.1710725155
Al               1.4302762943        2.4763446575       17.1689301437
Al               4.2933140765        2.4763080983       17.1720666694
Al               7.1563438689        2.4753994468       17.1697043647
Al              10.0192137202        2.4767716175       17.1712773597
Al               2.8617273538        4.9550470627       17.1723892450
Al               5.7248060498        4.9550549990       17.1749299776
Al               8.5866490071        4.9549123714       17.1706827886
Al              11.4534249800        4.9556257701       17.1693662022
Al               4.2931327591        7.4348137365       17.1693728804
Al               7.1557973667        7.4336346061       17.1690810252
Al              10.0199728527        7.4346593666       17.1702089632
Al              12.8852508728        7.4336385728       17.1689789134
Al               1.4284681587        0.8183988771       19.5115186008
Al               4.2913107221        0.8196470829       19.5136863590
Al               7.1523330838        0.8188739782       19.5142053377
Al              10.0173359167        0.8179820282       19.5101333900
Al               2.8603946980        3.2995967002       19.5132548543
Al               5.7226707223        3.2981894605       19.5118015290
Al               8.5835266888        3.2991439826       19.5141772500
Al              11.4514708551        3.2992938921       19.5120879749
Al               4.2903616318        5.7781010746       19.5122120640
Al               7.1534771598        5.7781293390       19.5148432026
Al              10.0171857666        5.7778071350       19.5124838250
Al              12.8822993744        5.7775371164       19.5143798821
Al               5.7226674122        8.2550472194       19.5136054627
Al               8.5860864373        8.2577384995       19.5113539078
Al              11.4499923090        8.2582428676       19.5101723283
Al              14.3130627745        8.2566584223       19.5121904468
Al              11.4479517670        1.6414631270       21.8541563541
Al               2.8570889153        1.6422679450       21.8564853458
Al               5.7203639020        1.6428211833       21.8589834922
Al               8.5818251137        1.6416447810       21.8574033722
Al              12.8805882214        4.1214280667       21.8590764532
Al               4.2892499153        4.1211912641       21.8519617116
Al               7.1516239781        4.1213165742       21.8568910833
Al              10.0146749144        4.1217075636       21.8579471077
Al              14.3120421874        6.6007976546       21.8571931688
Al               5.7199311209        6.6007918148       21.8585487342
Al               8.5816583627        6.6005138306       21.8585230961
Al              11.4473148653        6.6001393775       21.8564477643
Al              15.7429016055        9.0797206152       21.8554185526
Al               7.1524683997        9.0790024774       21.8575137743
Al              10.0159222621        9.0822999001       21.8547730327
Al              12.8797091703        9.0817796421       21.8575331859
Al              -0.0101441955       -0.0158461361       24.2216332355
Al               2.8546521987       -0.0174455752       24.2240713637
Al               5.7179416524       -0.0175865801       24.2253991886
Al               8.5819130212       -0.0158012900       24.2265367207
Al               1.4212609358        2.4635872340       24.2261947025
Al               4.2850933411        2.4641234211       24.2208871442
Al               7.1490725872        2.4646321606       24.2294138907
Al              10.0132635700        2.4636349733       24.2238652564
Al               2.8543681615        4.9442746403       24.2181387754
Al               5.7171921289        4.9429643854       24.2165745747
Al               8.5818903849        4.9448013230       24.2274245928
Al              11.4446947277        4.9459781660       24.2284777766
Al               4.2855859793        7.4244325759       24.2283033071
Al               7.1502071445        7.4248425874       24.2331254069
Al              10.0136498080        7.4253615235       24.2230523106
Al              12.8758980164        7.4253808371       24.2245254930
C                3.3133756434        4.7638486557       29.3746526360
C                4.7148681211        4.9953963783       28.8506841277
H                2.6049285063        4.9233458960       28.5532031621
H                3.2073841876        3.7351543820       29.7440464554
H                3.0882800547        5.4714735601       30.1825175135
C                5.8164263273        4.8170799946       29.8995473571
F                4.9365576914        4.1269046146       27.7850234033
H                5.6831293971        3.8370534726       30.3812529810
C                7.2661716885        4.8838274023       29.4393049492
F                4.7846014697        6.2826583068       28.3189291700
H                5.6736253155        5.5857801134       30.6738579162
F                7.5314633696        6.0297862966       28.7178169104
F                7.5919567481        3.8068593240       28.6355208513
H                7.9611587653        4.8685473313       30.2956468490



     Writing config-only to output data dir ./tmp/al_pvdf.save/ :
     XML data file
     NEW-OLD atomic charge density approx. for the potential

     negative rho (up, down):  1.318E-03 0.000E+00

     total cpu time spent up to now is    30242.0 secs

     Self-consistent Calculation

     iteration #  1     ecut=    60.00 Ry     beta= 0.30
     Davidson diagonalization with overlap
     ethr =  1.00E-06,  avg # of iterations =  6.0

     negative rho (up, down):  1.340E-03 0.000E+00

     total cpu time spent up to now is    30493.5 secs

     total energy              =   -3434.73366275 Ry
     estimated scf accuracy    <       0.00241790 Ry

     iteration #  2     ecut=    60.00 Ry     beta= 0.30
     Davidson diagonalization with overlap
     ethr =  8.34E-07,  avg # of iterations =  2.0

     negative rho (up, down):  1.365E-03 0.000E+00

     total cpu time spent up to now is    30652.8 secs

     total energy              =   -3434.73316886 Ry
     estimated scf accuracy    <       0.00872805 Ry

     iteration #  3     ecut=    60.00 Ry     beta= 0.30
     Davidson diagonalization with overlap
     ethr =  8.34E-07,  avg # of iterations =  5.6

     negative rho (up, down):  1.376E-03 0.000E+00

     total cpu time spent up to now is    30829.2 secs

     total energy              =   -3434.73323073 Ry
     estimated scf accuracy    <       0.02462300 Ry

     iteration #  4     ecut=    60.00 Ry     beta= 0.30
     Davidson diagonalization with overlap
     ethr =  8.34E-07,  avg # of iterations =  2.7

     negative rho (up, down):  1.389E-03 0.000E+00

     total cpu time spent up to now is    30994.1 secs

     total energy              =   -3434.73363917 Ry
     estimated scf accuracy    <       0.00149070 Ry

     iteration #  5     ecut=    60.00 Ry     beta= 0.30
     Davidson diagonalization with overlap
     ethr =  5.14E-07,  avg # of iterations =  2.0

     negative rho (up, down):  1.399E-03 0.000E+00

     total cpu time spent up to now is    31155.1 secs

     total energy              =   -3434.73374876 Ry
     estimated scf accuracy    <       0.00034939 Ry

     iteration #  6     ecut=    60.00 Ry     beta= 0.30
     Davidson diagonalization with overlap
     ethr =  1.20E-07,  avg # of iterations =  2.0

     negative rho (up, down):  1.409E-03 0.000E+00

     total cpu time spent up to now is    31317.6 secs

     total energy              =   -3434.73378329 Ry
     estimated scf accuracy    <       0.00007046 Ry

     iteration #  7     ecut=    60.00 Ry     beta= 0.30
     Davidson diagonalization with overlap
     ethr =  2.43E-08,  avg # of iterations =  4.6

     negative rho (up, down):  1.414E-03 0.000E+00

     total cpu time spent up to now is    31492.7 secs

     total energy              =   -3434.73378801 Ry
     estimated scf accuracy    <       0.00001518 Ry

     iteration #  8     ecut=    60.00 Ry     beta= 0.30
     Davidson diagonalization with overlap
     ethr =  5.23E-09,  avg # of iterations =  4.3

     negative rho (up, down):  1.417E-03 0.000E+00

     total cpu time spent up to now is    31674.8 secs

     total energy              =   -3434.73378962 Ry
     estimated scf accuracy    <       0.00000486 Ry

     iteration #  9     ecut=    60.00 Ry     beta= 0.30
     Davidson diagonalization with overlap
     ethr =  1.67E-09,  avg # of iterations =  4.6

     negative rho (up, down):  1.419E-03 0.000E+00

     total cpu time spent up to now is    31862.5 secs

     total energy              =   -3434.73379031 Ry
     estimated scf accuracy    <       0.00000174 Ry

     iteration # 10     ecut=    60.00 Ry     beta= 0.30
     Davidson diagonalization with overlap
     ethr =  6.00E-10,  avg # of iterations =  3.9

     negative rho (up, down):  1.421E-03 0.000E+00

     total cpu time spent up to now is    32039.2 secs

     total energy              =   -3434.73379055 Ry
     estimated scf accuracy    <       0.00000042 Ry

     iteration # 11     ecut=    60.00 Ry     beta= 0.30
     Davidson diagonalization with overlap
     ethr =  1.45E-10,  avg # of iterations =  4.6

     negative rho (up, down):  1.421E-03 0.000E+00

     total cpu time spent up to now is    32218.1 secs

     total energy              =   -3434.73379058 Ry
     estimated scf accuracy    <       0.00000012 Ry

     iteration # 12     ecut=    60.00 Ry     beta= 0.30
     Davidson diagonalization with overlap
     ethr =  4.00E-11,  avg # of iterations =  5.0

     negative rho (up, down):  1.422E-03 0.000E+00

     total cpu time spent up to now is    32415.4 secs

     total energy              =   -3434.73379060 Ry
     estimated scf accuracy    <       0.00000005 Ry

     iteration # 13     ecut=    60.00 Ry     beta= 0.30
     Davidson diagonalization with overlap
     ethr =  1.68E-11,  avg # of iterations =  3.1

     negative rho (up, down):  1.423E-03 0.000E+00

     total cpu time spent up to now is    32588.2 secs

     total energy              =   -3434.73379061 Ry
     estimated scf accuracy    <          9.0E-09 Ry

     iteration # 14     ecut=    60.00 Ry     beta= 0.30
     Davidson diagonalization with overlap
     ethr =  3.10E-12,  avg # of iterations =  4.8

     negative rho (up, down):  1.423E-03 0.000E+00

     total cpu time spent up to now is    32779.2 secs

     total energy              =   -3434.73379061 Ry
     estimated scf accuracy    <       0.00000001 Ry

     iteration # 15     ecut=    60.00 Ry     beta= 0.30
     Davidson diagonalization with overlap
     ethr =  3.10E-12,  avg # of iterations =  2.1

     negative rho (up, down):  1.423E-03 0.000E+00

     total cpu time spent up to now is    32936.2 secs

     total energy              =   -3434.73379061 Ry
     estimated scf accuracy    <       0.00000002 Ry

     iteration # 16     ecut=    60.00 Ry     beta= 0.30
     Davidson diagonalization with overlap
     ethr =  3.10E-12,  avg # of iterations =  1.0

     negative rho (up, down):  1.423E-03 0.000E+00

     total cpu time spent up to now is    33082.0 secs

     total energy              =   -3434.73379061 Ry
     estimated scf accuracy    <          9.3E-10 Ry

     iteration # 17     ecut=    60.00 Ry     beta= 0.30
     Davidson diagonalization with overlap
     ethr =  3.22E-13,  avg # of iterations =  4.6

     negative rho (up, down):  1.423E-03 0.000E+00

     total cpu time spent up to now is    33262.9 secs

     total energy              =   -3434.73379061 Ry
     estimated scf accuracy    <          2.2E-10 Ry

     iteration # 18     ecut=    60.00 Ry     beta= 0.30
     Davidson diagonalization with overlap
     ethr =  1.00E-13,  avg # of iterations =  4.4

     negative rho (up, down):  1.424E-03 0.000E+00

     total cpu time spent up to now is    33445.2 secs

     End of self-consistent calculation

          k = 0.0000 0.0000 0.0000 (237007 PWs)   bands (ev):

   -27.8042 -27.5632 -26.3261 -26.1224 -16.9509 -15.3521 -13.1165 -11.7907
   -10.8287 -10.1431 -10.1164 -10.1051  -9.6645  -9.5802  -9.3384  -9.3363
    -9.3357  -9.3311  -9.3309  -9.3289  -9.0198  -8.6327  -8.6291  -8.6279
    -8.6247  -8.6246  -8.6241  -8.6232  -8.1148  -7.5435  -7.5414  -7.5405
    -7.5389  -7.5377  -7.5373  -7.5371  -7.4128  -7.0248  -6.6191  -6.3911
    -6.3908  -6.3906  -6.3903  -6.3897  -6.3894  -6.2362  -6.1743  -6.0824
    -6.0710  -6.0700  -6.0690  -6.0678  -6.0675  -5.9444  -5.7468  -5.6976
    -5.6970  -5.6967  -5.6963  -5.6949  -5.6947  -5.6880  -5.6460  -5.5160
    -5.0572  -4.9586  -4.9585  -4.9579  -4.9327  -4.9325  -4.9321  -4.6337
    -4.6332  -4.6325  -4.6321  -4.6318  -4.6316  -4.2803  -4.2794  -4.2785
    -4.2475  -4.2461  -4.2450  -4.2000  -4.1912  -4.1899  -4.1891  -4.1887
    -4.1858  -4.1616  -3.5900  -3.3698  -3.3675  -3.3658  -3.2088  -3.2084
    -3.2079  -3.2073  -3.2068  -3.2065  -3.0972  -3.0943  -3.0912  -2.1930
    -2.1906  -2.1887  -2.1879  -2.1861  -2.1811  -1.8790  -1.8757  -1.8721
    -1.5083  -1.5076  -1.5064  -1.5062  -1.5043  -1.5032  -1.4323  -1.4301
    -1.4286  -1.2002  -0.7670  -0.7668  -0.7662  -0.7659  -0.7632  -0.7631
    -0.6454  -0.6447  -0.6428  -0.6416  -0.6408  -0.6397  -0.0934  -0.0930
    -0.0904  -0.0895  -0.0879  -0.0869   0.1422   0.1467   0.1515   0.1530
     0.1547   0.1641   0.1681   0.1713   0.1748   0.2171   0.2178   0.2206
     0.2212   0.2223   0.2227   0.2298   0.2315   0.2325   0.8024   0.8028
     0.8032   0.8045   0.8054   0.8080   0.9268   0.9274   0.9290   0.9292
     0.9296   0.9303   1.1395   1.2894   1.2921   1.2958

          k = 0.0000 0.2887 0.0000 (236896 PWs)   bands (ev):

   -27.8042 -27.5632 -26.3261 -26.1224 -16.9509 -15.3521 -13.1165 -11.7907
   -10.7348 -10.1430 -10.1057 -10.0224  -9.9858  -9.6645  -9.6128  -9.6125
    -9.5802  -9.2763  -8.9269  -8.9048  -8.9045  -8.8697  -8.8694  -8.6265
    -8.4996  -8.1854  -8.1646  -8.1644  -8.1143  -7.8159  -7.8156  -7.7959
    -7.4472  -7.4130  -7.3952  -7.3948  -7.0811  -7.0802  -7.0245  -6.7143
    -6.7108  -6.6963  -6.6959  -6.6188  -6.3458  -6.3445  -6.3001  -6.2993
    -6.2989  -6.2339  -6.1713  -5.9556  -5.7469  -5.6885  -5.6228  -5.6225
    -5.6152  -5.6134  -5.6071  -5.6056  -5.6051  -5.5748  -5.5745  -5.5555
    -5.5156  -5.2522  -5.2132  -5.2129  -5.0572  -4.8878  -4.8873  -4.8244
    -4.5480  -4.5438  -4.5436  -4.5267  -4.5263  -4.4618  -4.4589  -4.1785
    -4.1751  -4.1694  -4.1424  -4.1420  -3.8443  -3.8442  -3.7412  -3.7388
    -3.5021  -3.4821  -3.4819  -3.4733  -3.4724  -3.4461  -3.3863  -3.1594
    -3.1284  -3.1281  -2.7994  -2.7378  -2.6494  -2.6480  -2.4505  -2.4474
    -2.3883  -2.3879  -2.3480  -2.3459  -2.1266  -2.1256  -2.0802  -2.0782
    -2.0483  -2.0466  -1.7571  -1.7544  -1.6913  -1.6910  -1.6773  -1.5779
    -1.5757  -1.4236  -1.1124  -1.0060  -1.0047  -1.0025  -0.9695  -0.9659
    -0.8624  -0.8618  -0.6935  -0.6930  -0.5489  -0.5476  -0.4203  -0.4191
    -0.4183  -0.3816  -0.3801  -0.1645  -0.1642  -0.1572  -0.1077  -0.1042
    -0.0852  -0.0769   0.0461   0.1449   0.1495   0.4626   0.4691   0.5448
     0.5467   0.5783   0.5810   0.7515   0.7548   0.7736   0.7767   0.9386
     0.9410   0.9548   0.9555   1.0851   1.0857   1.1311   1.1317   1.2247
     1.2657   1.2690   1.2864   1.3094   1.3138   1.4474

          k = 0.0000-0.5773 0.0000 (236880 PWs)   bands (ev):

   -27.8042 -27.5632 -26.3261 -26.1224 -16.9509 -15.3521 -13.1165 -11.7907
   -10.4561 -10.4509 -10.1429 -10.1056  -9.7441  -9.7404  -9.7060  -9.7057
    -9.6642  -9.5802  -8.9976  -8.9973  -8.6504  -8.6467  -8.6258  -8.2230
    -8.2227  -8.2225  -8.2221  -8.1147  -7.9080  -7.9078  -7.5206  -7.5204
    -7.5201  -7.5195  -7.4873  -7.4865  -7.4132  -7.1719  -7.1690  -7.0246
    -6.7884  -6.7869  -6.6199  -6.4411  -6.4406  -6.4402  -6.4399  -6.4364
    -6.4353  -6.2341  -6.1713  -6.0299  -6.0293  -6.0244  -6.0243  -5.9539
    -5.7467  -5.7139  -5.7132  -5.6880  -5.5161  -5.3376  -5.3370  -5.3337
    -5.3337  -5.2831  -5.2800  -5.0579  -4.9821  -4.9814  -4.9812  -4.9801
    -4.5525  -4.5496  -4.2814  -4.2808  -4.2784  -4.2780  -4.2683  -4.2673
    -4.1719  -3.8864  -3.8862  -3.8563  -3.8560  -3.2400  -3.2369  -3.2218
    -3.2215  -3.1815  -3.1812  -3.1805  -3.1804  -3.1708  -3.1704  -3.1216
    -3.1211  -3.1198  -3.1181  -2.8989  -2.8984  -2.8962  -2.8950  -2.5378
    -2.5345  -2.4864  -2.4844  -2.4723  -2.4709  -2.4697  -2.4684  -2.3224
    -2.3222  -2.0530  -2.0526  -1.7263  -1.7255  -1.4149  -1.4128  -1.4116
    -1.4092  -1.1668  -1.1657  -1.1648  -1.1632  -1.0904  -1.0888  -0.9987
    -0.9971  -0.9025  -0.9018  -0.8539  -0.8464  -0.7553  -0.7549  -0.7530
    -0.7523  -0.4536  -0.4532  -0.4183  -0.4180  -0.3197  -0.3188  -0.1667
    -0.1585   0.0884   0.0888   0.0895   0.0901   0.1005   0.1019   0.3054
     0.3056   0.3076   0.3085   0.7862   0.7868   0.9904   0.9913   0.9923
     0.9934   1.0072   1.0081   1.0120   1.0124   1.4723   1.4729   1.4743
     1.4753   1.4795   1.4866   1.4940   1.4962   1.5009

          k = 0.2500-0.1443 0.0000 (236890 PWs)   bands (ev):

   -27.8042 -27.5632 -26.3261 -26.1224 -16.9509 -15.3521 -13.1165 -11.7907
   -10.7348 -10.1430 -10.1057 -10.0224  -9.9857  -9.6645  -9.6129  -9.6125
    -9.5802  -9.2762  -8.9269  -8.9050  -8.9044  -8.8698  -8.8694  -8.6265
    -8.4994  -8.1852  -8.1649  -8.1642  -8.1145  -7.8162  -7.8152  -7.7958
    -7.4472  -7.4130  -7.3952  -7.3947  -7.0812  -7.0800  -7.0245  -6.7147
    -6.7111  -6.6965  -6.6958  -6.6177  -6.3455  -6.3442  -6.3001  -6.2995
    -6.2989  -6.2345  -6.1718  -5.9554  -5.7469  -5.6885  -5.6229  -5.6222
    -5.6153  -5.6133  -5.6069  -5.6059  -5.6054  -5.5750  -5.5748  -5.5555
    -5.5154  -5.2523  -5.2131  -5.2126  -5.0569  -4.8878  -4.8877  -4.8242
    -4.5478  -4.5440  -4.5439  -4.5267  -4.5260  -4.4619  -4.4590  -4.1793
    -4.1753  -4.1684  -4.1423  -4.1421  -3.8447  -3.8443  -3.7412  -3.7388
    -3.5021  -3.4823  -3.4814  -3.4731  -3.4725  -3.4460  -3.3861  -3.1600
    -3.1286  -3.1283  -2.7992  -2.7357  -2.6507  -2.6480  -2.4505  -2.4479
    -2.3885  -2.3878  -2.3479  -2.3459  -2.1272  -2.1261  -2.0822  -2.0782
    -2.0479  -2.0457  -1.7569  -1.7546  -1.6896  -1.6887  -1.6746  -1.5791
    -1.5758  -1.4230  -1.1124  -1.0061  -1.0045  -1.0023  -0.9729  -0.9659
    -0.8630  -0.8618  -0.6912  -0.6901  -0.5496  -0.5471  -0.4220  -0.4191
    -0.4183  -0.3814  -0.3800  -0.1647  -0.1644  -0.1574  -0.1093  -0.1047
    -0.0848  -0.0774   0.0473   0.1430   0.1515   0.4630   0.4687   0.5443
     0.5465   0.5775   0.5813   0.7528   0.7549   0.7695   0.7748   0.9368
     0.9413   0.9549   0.9553   1.0863   1.0870   1.1298   1.1305   1.2241
     1.2638   1.2696   1.2873   1.3070   1.3133   1.4475

          k = 0.2500-0.7217 0.0000 (236847 PWs)   bands (ev):

   -27.8042 -27.5632 -26.3261 -26.1224 -16.9509 -15.3521 -13.1165 -11.7907
   -10.5472 -10.1750 -10.1704 -10.1429 -10.1056  -9.8355  -9.6645  -9.5803
    -9.4637  -9.4610  -9.0551  -9.0548  -8.7411  -8.6265  -8.3713  -8.3690
    -8.3492  -8.3490  -8.3148  -8.1146  -7.9485  -7.9439  -7.6120  -7.4134
    -7.2644  -7.2637  -7.2621  -7.2462  -7.2435  -7.2121  -7.2114  -7.0251
    -6.8948  -6.8934  -6.8464  -6.8460  -6.6189  -6.5315  -6.5145  -6.5128
    -6.2353  -6.1757  -6.1673  -6.1645  -6.1503  -6.1496  -5.9566  -5.7965
    -5.7949  -5.7443  -5.6883  -5.5164  -5.4423  -5.4416  -5.3731  -5.0836
    -5.0828  -5.0720  -5.0565  -5.0338  -5.0330  -5.0081  -5.0044  -4.7130
    -4.7120  -4.6893  -4.6622  -4.3506  -4.3490  -4.1730  -4.0144  -4.0003
    -3.9995  -3.9747  -3.9588  -3.9189  -3.9175  -3.6566  -3.6560  -3.6103
    -3.6057  -3.3262  -3.3135  -3.3127  -3.2863  -3.2063  -3.1043  -2.9772
    -2.9720  -2.9427  -2.9398  -2.8684  -2.8668  -2.8294  -2.5758  -2.5736
    -2.5587  -2.5395  -2.2763  -2.2276  -2.2259  -2.1358  -2.1329  -2.0931
    -2.0901  -1.9331  -1.9275  -1.9254  -1.8518  -1.6160  -1.5557  -1.5514
    -1.4733  -1.4665  -1.4618  -1.4611  -1.2514  -1.2405  -1.1692  -1.0481
    -1.0458  -0.9373  -0.7375  -0.7362  -0.7132  -0.6563  -0.6556  -0.6210
    -0.6168  -0.5957  -0.5837  -0.5262  -0.3722  -0.3704  -0.0643  -0.0626
    -0.0149  -0.0134   0.0266   0.0286   0.2454   0.2477   0.3564   0.3574
     0.3824   0.3989   0.4042   0.4564   0.5994   0.6025   0.6978   0.6984
     0.7167   0.8899   1.0260   1.0265   1.0995   1.1578   1.1654   1.3962
     1.4033   1.6231   1.6407   1.6492   1.6944   1.7175

          k =-0.5000 0.2887 0.0000 (236880 PWs)   bands (ev):

   -27.8042 -27.5632 -26.3261 -26.1224 -16.9509 -15.3521 -13.1165 -11.7907
   -10.4557 -10.4512 -10.1429 -10.1057  -9.7438  -9.7407  -9.7061  -9.7057
    -9.6642  -9.5803  -8.9978  -8.9972  -8.6498  -8.6474  -8.6256  -8.2230
    -8.2229  -8.2224  -8.2218  -8.1148  -7.9084  -7.9074  -7.5208  -7.5205
    -7.5198  -7.5194  -7.4870  -7.4863  -7.4132  -7.1715  -7.1695  -7.0247
    -6.7882  -6.7869  -6.6191  -6.4411  -6.4408  -6.4402  -6.4396  -6.4363
    -6.4352  -6.2346  -6.1719  -6.0298  -6.0293  -6.0250  -6.0248  -5.9536
    -5.7468  -5.7138  -5.7121  -5.6883  -5.5164  -5.3372  -5.3369  -5.3344
    -5.3342  -5.2841  -5.2791  -5.0586  -4.9824  -4.9816  -4.9800  -4.9797
    -4.5527  -4.5497  -4.2812  -4.2807  -4.2789  -4.2785  -4.2682  -4.2671
    -4.1720  -3.8864  -3.8859  -3.8562  -3.8558  -3.2410  -3.2357  -3.2225
    -3.2220  -3.1812  -3.1810  -3.1806  -3.1803  -3.1698  -3.1689  -3.1214
    -3.1211  -3.1200  -3.1178  -2.8988  -2.8978  -2.8962  -2.8949  -2.5377
    -2.5350  -2.4871  -2.4854  -2.4741  -2.4728  -2.4699  -2.4683  -2.3244
    -2.3238  -2.0502  -2.0492  -1.7241  -1.7234  -1.4174  -1.4153  -1.4118
    -1.4090  -1.1669  -1.1657  -1.1654  -1.1627  -1.0907  -1.0890  -0.9957
    -0.9943  -0.8992  -0.8982  -0.8561  -0.8440  -0.7560  -0.7549  -0.7532
    -0.7519  -0.4551  -0.4541  -0.4192  -0.4183  -0.3203  -0.3188  -0.1665
    -0.1591   0.0883   0.0891   0.0893   0.0906   0.1001   0.1012   0.3045
     0.3047   0.3068   0.3084   0.7820   0.7829   0.9899   0.9905   0.9932
     0.9939   1.0056   1.0070   1.0101   1.0127   1.4651   1.4737   1.4744
     1.4755   1.4841   1.4864   1.4939   1.4963   1.4993

          k =-0.5000 0.5773 0.0000 (236845 PWs)   bands (ev):

   -27.8042 -27.5632 -26.3261 -26.1224 -16.9509 -15.3521 -13.1165 -11.7907
   -10.5472 -10.1753 -10.1701 -10.1429 -10.1056  -9.8355  -9.6645  -9.5803
    -9.4641  -9.4606  -9.0551  -9.0550  -8.7411  -8.6264  -8.3717  -8.3686
    -8.3495  -8.3489  -8.3146  -8.1145  -7.9487  -7.9435  -7.6118  -7.4134
    -7.2645  -7.2636  -7.2622  -7.2465  -7.2429  -7.2123  -7.2115  -7.0252
    -6.8957  -6.8925  -6.8461  -6.8461  -6.6191  -6.5311  -6.5147  -6.5131
    -6.2356  -6.1773  -6.1656  -6.1639  -6.1498  -6.1497  -5.9570  -5.7971
    -5.7945  -5.7443  -5.6883  -5.5167  -5.4425  -5.4413  -5.3731  -5.0836
    -5.0826  -5.0750  -5.0534  -5.0339  -5.0330  -5.0078  -5.0050  -4.7130
    -4.7116  -4.6894  -4.6624  -4.3507  -4.3492  -4.1728  -4.0138  -4.0005
    -3.9996  -3.9760  -3.9585  -3.9191  -3.9176  -3.6565  -3.6561  -3.6104
    -3.6052  -3.3262  -3.3136  -3.3126  -3.2860  -3.2061  -3.1027  -2.9761
    -2.9731  -2.9429  -2.9393  -2.8681  -2.8670  -2.8324  -2.5758  -2.5742
    -2.5587  -2.5399  -2.2759  -2.2269  -2.2248  -2.1346  -2.1327  -2.0916
    -2.0900  -1.9327  -1.9272  -1.9261  -1.8530  -1.6192  -1.5537  -1.5513
    -1.4700  -1.4665  -1.4639  -1.4632  -1.2499  -1.2399  -1.1680  -1.0471
    -1.0456  -0.9373  -0.7406  -0.7391  -0.7147  -0.6563  -0.6555  -0.6190
    -0.6169  -0.5934  -0.5859  -0.5239  -0.3721  -0.3698  -0.0636  -0.0627
    -0.0139  -0.0119   0.0268   0.0285   0.2454   0.2467   0.3569   0.3582
     0.3814   0.3991   0.4032   0.4571   0.5975   0.5995   0.6979   0.6985
     0.7127   0.8901   1.0259   1.0270   1.1019   1.1575   1.1618   1.3949
     1.4029   1.6237   1.6432   1.6470   1.6934   1.7242

          k =-0.2500-0.1443 0.0000 (236890 PWs)   bands (ev):

   -27.8042 -27.5632 -26.3261 -26.1224 -16.9509 -15.3521 -13.1165 -11.7907
   -10.7348 -10.1430 -10.1057 -10.0224  -9.9857  -9.6646  -9.6128  -9.6126
    -9.5802  -9.2762  -8.9269  -8.9049  -8.9045  -8.8697  -8.8695  -8.6265
    -8.4994  -8.1852  -8.1648  -8.1643  -8.1144  -7.8160  -7.8154  -7.7958
    -7.4472  -7.4130  -7.3951  -7.3948  -7.0812  -7.0800  -7.0244  -6.7147
    -6.7112  -6.6964  -6.6959  -6.6177  -6.3456  -6.3440  -6.3001  -6.2995
    -6.2990  -6.2343  -6.1718  -5.9557  -5.7467  -5.6885  -5.6227  -5.6224
    -5.6151  -5.6136  -5.6069  -5.6060  -5.6053  -5.5750  -5.5747  -5.5555
    -5.5154  -5.2524  -5.2131  -5.2127  -5.0569  -4.8878  -4.8876  -4.8241
    -4.5479  -4.5440  -4.5439  -4.5266  -4.5261  -4.4618  -4.4591  -4.1791
    -4.1754  -4.1685  -4.1421  -4.1419  -3.8447  -3.8443  -3.7411  -3.7389
    -3.5021  -3.4823  -3.4817  -3.4727  -3.4724  -3.4464  -3.3862  -3.1612
    -3.1284  -3.1283  -2.7991  -2.7337  -2.6507  -2.6493  -2.4505  -2.4480
    -2.3889  -2.3884  -2.3478  -2.3459  -2.1280  -2.1272  -2.0822  -2.0802
    -2.0464  -2.0457  -1.7569  -1.7548  -1.6874  -1.6869  -1.6717  -1.5791
    -1.5772  -1.4225  -1.1124  -1.0050  -1.0045  -1.0024  -0.9729  -0.9695
    -0.8630  -0.8622  -0.6879  -0.6874  -0.5490  -0.5478  -0.4221  -0.4207
    -0.4185  -0.3806  -0.3797  -0.1650  -0.1645  -0.1582  -0.1094  -0.1060
    -0.0849  -0.0774   0.0480   0.1453   0.1492   0.4629   0.4688   0.5448
     0.5467   0.5782   0.5802   0.7531   0.7553   0.7672   0.7696   0.9373
     0.9395   0.9548   0.9555   1.0874   1.0878   1.1284   1.1286   1.2241
     1.2646   1.2675   1.2869   1.3066   1.3115   1.4475

          k =-0.2500-0.7217 0.0000 (236847 PWs)   bands (ev):

   -27.8042 -27.5632 -26.3261 -26.1224 -16.9509 -15.3521 -13.1165 -11.7907
   -10.5472 -10.1751 -10.1702 -10.1429 -10.1056  -9.8356  -9.6645  -9.5803
    -9.4641  -9.4606  -9.0552  -9.0547  -8.7411  -8.6265  -8.3718  -8.3685
    -8.3495  -8.3487  -8.3148  -8.1146  -7.9486  -7.9438  -7.6120  -7.4134
    -7.2641  -7.2641  -7.2620  -7.2466  -7.2431  -7.2121  -7.2114  -7.0252
    -6.8953  -6.8930  -6.8464  -6.8459  -6.6189  -6.5315  -6.5140  -6.5133
    -6.2355  -6.1747  -6.1678  -6.1646  -6.1504  -6.1495  -5.9573  -5.7967
    -5.7934  -5.7451  -5.6883  -5.5164  -5.4424  -5.4414  -5.3731  -5.0836
    -5.0826  -5.0717  -5.0570  -5.0337  -5.0330  -5.0081  -5.0044  -4.7135
    -4.7115  -4.6895  -4.6623  -4.3502  -4.3494  -4.1731  -4.0155  -4.0002
    -3.9996  -3.9737  -3.9587  -3.9190  -3.9174  -3.6566  -3.6558  -3.6102
    -3.6054  -3.3263  -3.3135  -3.3127  -3.2861  -3.2062  -3.1066  -2.9779
    -2.9713  -2.9428  -2.9391  -2.8688  -2.8660  -2.8262  -2.5744  -2.5735
    -2.5589  -2.5393  -2.2764  -2.2286  -2.2275  -2.1361  -2.1341  -2.0932
    -2.0916  -1.9338  -1.9275  -1.9251  -1.8507  -1.6123  -1.5557  -1.5534
    -1.4732  -1.4699  -1.4600  -1.4590  -1.2534  -1.2408  -1.1715  -1.0495
    -1.0455  -0.9374  -0.7343  -0.7333  -0.7116  -0.6559  -0.6552  -0.6215
    -0.6181  -0.5964  -0.5830  -0.5289  -0.3723  -0.3702  -0.0649  -0.0639
    -0.0161  -0.0150   0.0274   0.0283   0.2462   0.2483   0.3550   0.3560
     0.3841   0.3997   0.4030   0.4553   0.6029   0.6043   0.6980   0.6986
     0.7217   0.8898   1.0256   1.0271   1.0961   1.1618   1.1656   1.3962
     1.4047   1.6225   1.6404   1.6498   1.6934   1.7152

          k = 0.5000 0.2887 0.0000 (236880 PWs)   bands (ev):

   -27.8042 -27.5632 -26.3261 -26.1224 -16.9509 -15.3521 -13.1165 -11.7907
   -10.4559 -10.4510 -10.1429 -10.1057  -9.7441  -9.7403  -9.7060  -9.7058
    -9.6642  -9.5803  -8.9976  -8.9973  -8.6507  -8.6465  -8.6256  -8.2231
    -8.2228  -8.2225  -8.2218  -8.1147  -7.9082  -7.9076  -7.5207  -7.5203
    -7.5203  -7.5191  -7.4870  -7.4864  -7.4132  -7.1718  -7.1691  -7.0247
    -6.7881  -6.7870  -6.6192  -6.4412  -6.4407  -6.4400  -6.4397  -6.4363
    -6.4352  -6.2345  -6.1719  -6.0297  -6.0296  -6.0248  -6.0247  -5.9541
    -5.7461  -5.7139  -5.7127  -5.6882  -5.5164  -5.3378  -5.3371  -5.3340
    -5.3338  -5.2844  -5.2788  -5.0585  -4.9823  -4.9814  -4.9801  -4.9799
    -4.5526  -4.5498  -4.2816  -4.2814  -4.2781  -4.2780  -4.2678  -4.2676
    -4.1720  -3.8864  -3.8862  -3.8562  -3.8561  -3.2416  -3.2350  -3.2235
    -3.2233  -3.1809  -3.1809  -3.1804  -3.1800  -3.1686  -3.1680  -3.1218
    -3.1205  -3.1197  -3.1182  -2.8985  -2.8967  -2.8958  -2.8943  -2.5378
    -2.5352  -2.4881  -2.4870  -2.4740  -2.4727  -2.4719  -2.4704  -2.3267
    -2.3263  -2.0466  -2.0459  -1.7223  -1.7213  -1.4174  -1.4156  -1.4141
    -1.4122  -1.1671  -1.1656  -1.1648  -1.1634  -1.0904  -1.0888  -0.9925
    -0.9915  -0.8950  -0.8943  -0.8568  -0.8432  -0.7556  -0.7549  -0.7529
    -0.7513  -0.4561  -0.4555  -0.4200  -0.4195  -0.3209  -0.3201  -0.1667
    -0.1592   0.0891   0.0895   0.0898   0.0900   0.0987   0.0998   0.3042
     0.3048   0.3067   0.3075   0.7775   0.7781   0.9894   0.9907   0.9941
     0.9943   1.0054   1.0064   1.0088   1.0115   1.4635   1.4740   1.4746
     1.4748   1.4816   1.4876   1.4947   1.4956   1.4998

     the Fermi energy is    -0.0018 ev

!    total energy              =   -3434.73379061 Ry
     estimated scf accuracy    <          5.8E-11 Ry
     smearing contrib. (-TS)   =      -0.00837984 Ry
     internal energy E=F+TS    =   -3434.72541077 Ry

     The total energy is F=E-TS. E is the sum of the following terms:
     one-electron contribution =  -11667.56150697 Ry
     hartree contribution      =    5906.45877122 Ry
     xc contribution           =    -264.11278390 Ry
     ewald contribution        =    5389.37078581 Ry
     one-center paw contrib.   =   -2798.88067693 Ry

     convergence has been achieved in  18 iterations

     negative rho (up, down):  1.424E-03 0.000E+00

     Forces acting on atoms (cartesian axes, Ry/au):

     atom    1 type  1   force =    -0.00001473   -0.00005519    0.00005830
     atom    2 type  1   force =    -0.00026628   -0.00007018   -0.00004622
     atom    3 type  1   force =     0.00015716   -0.00010141    0.00003327
     atom    4 type  1   force =    -0.00000477   -0.00002320    0.00003710
     atom    5 type  1   force =    -0.00018741   -0.00030306    0.00008683
     atom    6 type  1   force =    -0.00006697   -0.00011637    0.00006127
     atom    7 type  1   force =     0.00012203   -0.00023565    0.00002357
     atom    8 type  1   force =    -0.00002355   -0.00012763    0.00004426
     atom    9 type  1   force =     0.00002459    0.00019452   -0.00004756
     atom   10 type  1   force =    -0.00007766    0.00020189   -0.00000751
     atom   11 type  1   force =    -0.00000914    0.00000146   -0.00012476
     atom   12 type  1   force =    -0.00007799   -0.00005687   -0.00019115
     atom   13 type  1   force =     0.00000678   -0.00004226    0.00004753
     atom   14 type  1   force =    -0.00005558   -0.00002465    0.00005305
     atom   15 type  1   force =    -0.00009787   -0.00007064   -0.00019002
     atom   16 type  1   force =    -0.00001268   -0.00003576   -0.00004320
     atom   17 type  1   force =    -0.00009198    0.00018985   -0.00002882
     atom   18 type  1   force =    -0.00021784   -0.00011923    0.00019832
     atom   19 type  1   force =     0.00006502   -0.00030617    0.00031170
     atom   20 type  1   force =     0.00017435    0.00000788    0.00001296
     atom   21 type  1   force =    -0.00017405   -0.00017542    0.00021046
     atom   22 type  1   force =    -0.00008403   -0.00021716   -0.00014242
     atom   23 type  1   force =     0.00004795   -0.00013896    0.00011544
     atom   24 type  1   force =     0.00015736   -0.00022469    0.00002890
     atom   25 type  1   force =    -0.00019533    0.00000184   -0.00018893
     atom   26 type  1   force =     0.00000129    0.00001415   -0.00043865
     atom   27 type  1   force =     0.00028496   -0.00000579    0.00014692
     atom   28 type  1   force =    -0.00017463   -0.00011303    0.00020546
     atom   29 type  1   force =    -0.00007292    0.00010679    0.00020220
     atom   30 type  1   force =     0.00012903    0.00025765    0.00027938
     atom   31 type  1   force =     0.00004193    0.00004191    0.00020200
     atom   32 type  1   force =    -0.00016817    0.00021605    0.00031076
     atom   33 type  1   force =    -0.00019978   -0.00014791    0.00028169
     atom   34 type  1   force =    -0.00009122   -0.00028941    0.00008529
     atom   35 type  1   force =     0.00027720   -0.00019885    0.00004215
     atom   36 type  1   force =     0.00002150   -0.00005672    0.00054813
     atom   37 type  1   force =    -0.00048947   -0.00028441    0.00012969
     atom   38 type  1   force =     0.00013342   -0.00017061    0.00038120
     atom   39 type  1   force =     0.00048108   -0.00022774    0.00003646
     atom   40 type  1   force =    -0.00020393   -0.00010411    0.00023542
     atom   41 type  1   force =    -0.00005271    0.00026451    0.00033931
     atom   42 type  1   force =     0.00023728    0.00014192    0.00008142
     atom   43 type  1   force =     0.00008962   -0.00001627    0.00024002
     atom   44 type  1   force =    -0.00019052    0.00008586    0.00006689
     atom   45 type  1   force =    -0.00001366    0.00055898    0.00005874
     atom   46 type  1   force =    -0.00004445    0.00010247    0.00031259
     atom   47 type  1   force =     0.00004755    0.00003119    0.00043295
     atom   48 type  1   force =     0.00002476    0.00029913    0.00020377
     atom   49 type  1   force =    -0.00003915   -0.00007466   -0.00003206
     atom   50 type  1   force =    -0.00021890   -0.00025220   -0.00009350
     atom   51 type  1   force =     0.00008255   -0.00032475   -0.00030716
     atom   52 type  1   force =     0.00025266   -0.00013497   -0.00014014
     atom   53 type  1   force =    -0.00033223   -0.00007664   -0.00021645
     atom   54 type  1   force =    -0.00013035   -0.00003557   -0.00027519
     atom   55 type  1   force =     0.00021829   -0.00009050   -0.00030442
     atom   56 type  1   force =     0.00020578   -0.00005641   -0.00019841
     atom   57 type  1   force =    -0.00014489    0.00028183   -0.00017060
     atom   58 type  1   force =     0.00005294    0.00030526   -0.00039153
     atom   59 type  1   force =     0.00026752    0.00020760   -0.00020472
     atom   60 type  1   force =    -0.00002348    0.00019206   -0.00009817
     atom   61 type  1   force =     0.00001204    0.00026891   -0.00003643
     atom   62 type  1   force =    -0.00001128    0.00027887   -0.00022037
     atom   63 type  1   force =     0.00003047   -0.00012863   -0.00004535
     atom   64 type  1   force =    -0.00004725   -0.00002666   -0.00024144
     atom   65 type  1   force =     0.00013225   -0.00014155   -0.00004568
     atom   66 type  1   force =    -0.00003660    0.00028649   -0.00018047
     atom   67 type  1   force =     0.00004264    0.00046610   -0.00022723
     atom   68 type  1   force =    -0.00006432    0.00001834   -0.00033303
     atom   69 type  1   force =     0.00018138    0.00017075   -0.00034371
     atom   70 type  1   force =     0.00012333   -0.00010422    0.00011499
     atom   71 type  1   force =     0.00001890    0.00003590   -0.00025911
     atom   72 type  1   force =    -0.00007154    0.00025930   -0.00011882
     atom   73 type  1   force =    -0.00007613    0.00012825    0.00016611
     atom   74 type  1   force =     0.00022695    0.00028160    0.00061074
     atom   75 type  1   force =    -0.00018754    0.00000804   -0.00003387
     atom   76 type  1   force =     0.00013425   -0.00017410   -0.00039452
     atom   77 type  1   force =     0.00010788   -0.00003510   -0.00020834
     atom   78 type  1   force =    -0.00017640   -0.00017121   -0.00050170
     atom   79 type  1   force =    -0.00011183   -0.00007377   -0.00004817
     atom   80 type  1   force =     0.00035744   -0.00007310   -0.00013527
     atom   81 type  2   force =     0.00025717    0.00057784   -0.00090314
     atom   82 type  2   force =     0.00012806   -0.00085836    0.00170936
     atom   83 type  3   force =    -0.00065508   -0.00005116    0.00002230
     atom   84 type  3   force =     0.00052777    0.00212153   -0.00024083
     atom   85 type  3   force =     0.00003156   -0.00109122    0.00020061
     atom   86 type  2   force =     0.00067169    0.00002331   -0.00061605
     atom   87 type  4   force =     0.00070899    0.00071178   -0.00022722
     atom   88 type  3   force =    -0.00083656    0.00109769   -0.00003448
     atom   89 type  2   force =     0.00022457    0.00027616   -0.00021110
     atom   90 type  4   force =    -0.00045025   -0.00223785    0.00128754
     atom   91 type  3   force =    -0.00020698   -0.00067394   -0.00130164
     atom   92 type  4   force =     0.00027934    0.00055876    0.00037033
     atom   93 type  4   force =    -0.00021326   -0.00022904    0.00032862
     atom   94 type  3   force =    -0.00040796   -0.00009947   -0.00016645

     Total force =     0.005853     Total SCF correction =     0.000011


     Computing stress (Cartesian axis) and pressure


     negative rho (up, down):  1.424E-03 0.000E+00
          total   stress  (Ry/bohr**3)                   (kbar)     P=       -7.04
  -0.00007061   0.00000005   0.00000038          -10.39        0.01        0.06
   0.00000005  -0.00007136   0.00000079            0.01      -10.50        0.12
   0.00000038   0.00000079  -0.00000160            0.06        0.12       -0.24

     Energy error            =      6.7E-05 Ry
     Gradient error          =      2.2E-03 Ry/Bohr

     number of scf cycles    =  44
     number of bfgs steps    =  43

     energy             old  =   -3434.7337241076 Ry
     energy             new  =   -3434.7337906110 Ry

     CASE: energy            _new < energy            _old

     new trust radius        =       0.0608848133 bohr
     new conv_thr            =            1.0E-10 Ry


ATOMIC_POSITIONS (angstrom)
Al              11.4543585362        1.6512460434       14.8021853302
Al               2.8643107383        1.6517781831       14.8015513510
Al               5.7255902189        1.6523722688       14.8003254411
Al               8.5896485020        1.6511813935       14.8009205124
Al              12.8875394525        4.1325560862       14.7993441392
Al               4.2951944369        4.1317539930       14.8052234964
Al               7.1570252920        4.1320517932       14.8030548628
Al              10.0220503627        4.1317712664       14.8006107402
Al              14.3182528836        6.6094606545       14.8010702360
Al               5.7265356613        6.6094023250       14.8022875020
Al               8.5900296034        6.6109247186       14.8011233720
Al              11.4542590546        6.6113497655       14.8008362805
Al              15.7495454559        9.0910652516       14.8011657607
Al               7.1586915608        9.0911863206       14.7999674158
Al              10.0226668310        9.0915643998       14.8014574653
Al              12.8860234995        9.0914695379       14.7999434489
Al              -0.0020318617       -0.0071667325       17.1686068948
Al               2.8621744174       -0.0050520541       17.1659801758
Al               5.7242895210       -0.0037674575       17.1648423008
Al               8.5863305130       -0.0059728806       17.1674831918
Al               1.4297881327        2.4758150685       17.1661181576
Al               4.2930563426        2.4756607227       17.1686402831
Al               7.1564317841        2.4747117646       17.1665823284
Al              10.0192310399        2.4763756409       17.1683281178
Al               2.8611632040        4.9548719710       17.1687886849
Al               5.7246856601        4.9548965548       17.1715289543
Al               8.5868204474        4.9547923621       17.1670597429
Al              11.4530991239        4.9553310227       17.1653883349
Al               4.2927815966        7.4349511674       17.1660579595
Al               7.1559217696        7.4336319382       17.1653801510
Al              10.0199377355        7.4343971177       17.1654166314
Al              12.8846593149        7.4334698471       17.1645235745
Al               1.4283122690        0.8181471052       19.5088864831
Al               4.2912246705        0.8186002057       19.5099233304
Al               7.1521950767        0.8182566594       19.5107944875
Al              10.0172241339        0.8177327123       19.5076386849
Al               2.8600427311        3.2992280091       19.5095922516
Al               5.7226300218        3.2977929081       19.5079672164
Al               8.5835024564        3.2988730539       19.5110692275
Al              11.4513671878        3.2990515136       19.5093056058
Al               4.2899835714        5.7781319908       19.5083186047
Al               7.1538240880        5.7782492439       19.5110504986
Al              10.0173387686        5.7778255273       19.5088603758
Al              12.8814607532        5.7777646305       19.5104076488
Al               5.7225107715        8.2548267243       19.5106280330
Al               8.5862753279        8.2575657895       19.5078527434
Al              11.4497347721        8.2578652538       19.5067763284
Al              14.3126950170        8.2564825862       19.5087228300
Al              11.4476483949        1.6410879737       21.8502040321
Al               2.8566142570        1.6417298550       21.8521152163
Al               5.7202787264        1.6422459469       21.8541719780
Al               8.5822135911        1.6410971351       21.8529002699
Al              12.8800738589        4.1211480475       21.8546052792
Al               4.2888818140        4.1208497148       21.8471780864
Al               7.1517917682        4.1210037315       21.8521292623
Al              10.0149334311        4.1216077154       21.8535638418
Al              14.3117218643        6.6009206563       21.8523062754
Al               5.7198445210        6.6009313411       21.8538983213
Al               8.5819584166        6.6006125323       21.8535354022
Al              11.4471963910        6.6001753646       21.8518289340
Al              15.7427107358        9.0801657921       21.8510410189
Al               7.1524551568        9.0791747079       21.8531514895
Al              10.0159095378        9.0819249819       21.8501933324
Al              12.8796178046        9.0815815457       21.8530165091
Al              -0.0104850724       -0.0157926145       24.2170554794
Al               2.8546290001       -0.0173619785       24.2190172846
Al               5.7176631604       -0.0176992367       24.2200839220
Al               8.5821501565       -0.0156038035       24.2215532614
Al               1.4213835063        2.4635816794       24.2211403076
Al               4.2851878079        2.4639256326       24.2166928161
Al               7.1489196062        2.4646154624       24.2242664123
Al              10.0131180635        2.4633822350       24.2191882879
Al               2.8543838556        4.9443630393       24.2140044277
Al               5.7172430248        4.9429446445       24.2133040980
Al               8.5814401250        4.9449441380       24.2224382632
Al              11.4448549570        4.9460505663       24.2233145114
Al               4.2855877922        7.4240849234       24.2230233933
Al               7.1501544730        7.4243294701       24.2277379835
Al              10.0137245250        7.4252318776       24.2179875024
Al              12.8758892511        7.4251153409       24.2191943290
C                3.3150765997        4.7642939928       29.3929744247
C                4.7163404220        4.9960665280       28.8713425566
H                2.6054031746        4.9222721576       28.5729915686
H                3.2103869528        3.7360899046       29.7617142507
H                3.0896635922        5.4720291009       30.2005676302
C                5.8159111757        4.8203192947       29.9214985450
F                4.9407841080        4.1293617406       27.8045172543
H                5.6799702844        3.8423220287       30.4052607220
C                7.2664455091        4.8841554591       29.4650064323
F                4.7848624767        6.2828409189       28.3405466085
H                5.6711351606        5.5913653290       30.6929818553
F                7.5341443366        6.0283364110       28.7417082994
F                7.5951245061        3.8031704798       28.6673706927
H                7.9589543025        4.8722572381       30.3227155736



     Writing config-only to output data dir ./tmp/al_pvdf.save/ :
     XML data file
     NEW-OLD atomic charge density approx. for the potential

     negative rho (up, down):  1.327E-03 0.000E+00

     total cpu time spent up to now is    33731.6 secs

     Self-consistent Calculation

     iteration #  1     ecut=    60.00 Ry     beta= 0.30
     Davidson diagonalization with overlap
     ethr =  1.00E-06,  avg # of iterations =  6.0

     negative rho (up, down):  1.346E-03 0.000E+00

     total cpu time spent up to now is    33981.6 secs

     total energy              =   -3434.73372047 Ry
     estimated scf accuracy    <       0.00220236 Ry

     iteration #  2     ecut=    60.00 Ry     beta= 0.30
     Davidson diagonalization with overlap
     ethr =  7.59E-07,  avg # of iterations =  2.0

     negative rho (up, down):  1.370E-03 0.000E+00

     total cpu time spent up to now is    34143.4 secs

     total energy              =   -3434.73327235 Ry
     estimated scf accuracy    <       0.00787696 Ry

     iteration #  3     ecut=    60.00 Ry     beta= 0.30
     Davidson diagonalization with overlap
     ethr =  7.59E-07,  avg # of iterations =  5.2

     negative rho (up, down):  1.380E-03 0.000E+00

     total cpu time spent up to now is    34318.8 secs

     total energy              =   -3434.73332802 Ry
     estimated scf accuracy    <       0.02275039 Ry

     iteration #  4     ecut=    60.00 Ry     beta= 0.30
     Davidson diagonalization with overlap
     ethr =  7.59E-07,  avg # of iterations =  3.1

     negative rho (up, down):  1.392E-03 0.000E+00

     total cpu time spent up to now is    34482.4 secs

     total energy              =   -3434.73374257 Ry
     estimated scf accuracy    <       0.00067710 Ry

     iteration #  5     ecut=    60.00 Ry     beta= 0.30
     Davidson diagonalization with overlap
     ethr =  2.33E-07,  avg # of iterations =  3.7

     negative rho (up, down):  1.401E-03 0.000E+00

     total cpu time spent up to now is    34655.7 secs

     total energy              =   -3434.73379335 Ry
     estimated scf accuracy    <       0.00048514 Ry

     iteration #  6     ecut=    60.00 Ry     beta= 0.30
     Davidson diagonalization with overlap
     ethr =  1.67E-07,  avg # of iterations =  2.0

     negative rho (up, down):  1.411E-03 0.000E+00

     total cpu time spent up to now is    34811.5 secs

     total energy              =   -3434.73383034 Ry
     estimated scf accuracy    <       0.00007581 Ry

     iteration #  7     ecut=    60.00 Ry     beta= 0.30
     Davidson diagonalization with overlap
     ethr =  2.61E-08,  avg # of iterations =  2.0

     negative rho (up, down):  1.415E-03 0.000E+00

     total cpu time spent up to now is    34980.4 secs

     total energy              =   -3434.73383542 Ry
     estimated scf accuracy    <       0.00001325 Ry

     iteration #  8     ecut=    60.00 Ry     beta= 0.30
     Davidson diagonalization with overlap
     ethr =  4.57E-09,  avg # of iterations =  4.7

     negative rho (up, down):  1.418E-03 0.000E+00

     total cpu time spent up to now is    35163.9 secs

     total energy              =   -3434.73383679 Ry
     estimated scf accuracy    <       0.00000384 Ry

     iteration #  9     ecut=    60.00 Ry     beta= 0.30
     Davidson diagonalization with overlap
     ethr =  1.32E-09,  avg # of iterations =  4.0

     negative rho (up, down):  1.420E-03 0.000E+00

     total cpu time spent up to now is    35351.1 secs

     total energy              =   -3434.73383740 Ry
     estimated scf accuracy    <       0.00000160 Ry

     iteration # 10     ecut=    60.00 Ry     beta= 0.30
     Davidson diagonalization with overlap
     ethr =  5.52E-10,  avg # of iterations =  3.9

     negative rho (up, down):  1.421E-03 0.000E+00

     total cpu time spent up to now is    35522.3 secs

     total energy              =   -3434.73383757 Ry
     estimated scf accuracy    <       0.00000023 Ry

     iteration # 11     ecut=    60.00 Ry     beta= 0.30
     Davidson diagonalization with overlap
     ethr =  8.09E-11,  avg # of iterations =  5.1

     negative rho (up, down):  1.422E-03 0.000E+00

     total cpu time spent up to now is    35727.5 secs

     total energy              =   -3434.73383762 Ry
     estimated scf accuracy    <       0.00000009 Ry

     iteration # 12     ecut=    60.00 Ry     beta= 0.30
     Davidson diagonalization with overlap
     ethr =  3.10E-11,  avg # of iterations =  3.0

     negative rho (up, down):  1.422E-03 0.000E+00

     total cpu time spent up to now is    35907.6 secs

     total energy              =   -3434.73383763 Ry
     estimated scf accuracy    <       0.00000002 Ry

     iteration # 13     ecut=    60.00 Ry     beta= 0.30
     Davidson diagonalization with overlap
     ethr =  7.58E-12,  avg # of iterations =  4.0

     negative rho (up, down):  1.423E-03 0.000E+00

     total cpu time spent up to now is    36094.9 secs

     total energy              =   -3434.73383763 Ry
     estimated scf accuracy    <          8.4E-09 Ry

     iteration # 14     ecut=    60.00 Ry     beta= 0.30
     Davidson diagonalization with overlap
     ethr =  2.88E-12,  avg # of iterations =  3.2

     negative rho (up, down):  1.423E-03 0.000E+00

     total cpu time spent up to now is    36267.6 secs

     total energy              =   -3434.73383764 Ry
     estimated scf accuracy    <          9.0E-09 Ry

     iteration # 15     ecut=    60.00 Ry     beta= 0.30
     Davidson diagonalization with overlap
     ethr =  2.88E-12,  avg # of iterations =  2.3

     negative rho (up, down):  1.423E-03 0.000E+00

     total cpu time spent up to now is    36425.4 secs

     total energy              =   -3434.73383763 Ry
     estimated scf accuracy    <       0.00000002 Ry

     iteration # 16     ecut=    60.00 Ry     beta= 0.30
     Davidson diagonalization with overlap
     ethr =  2.88E-12,  avg # of iterations =  1.1

     negative rho (up, down):  1.424E-03 0.000E+00

     total cpu time spent up to now is    36572.5 secs

     total energy              =   -3434.73383764 Ry
     estimated scf accuracy    <          5.7E-10 Ry

     iteration # 17     ecut=    60.00 Ry     beta= 0.30
     Davidson diagonalization with overlap
     ethr =  1.97E-13,  avg # of iterations =  5.0

     negative rho (up, down):  1.424E-03 0.000E+00

     total cpu time spent up to now is    36769.0 secs

     total energy              =   -3434.73383764 Ry
     estimated scf accuracy    <          2.4E-10 Ry

     iteration # 18     ecut=    60.00 Ry     beta= 0.30
     Davidson diagonalization with overlap
     ethr =  1.00E-13,  avg # of iterations =  2.0

     negative rho (up, down):  1.424E-03 0.000E+00

     total cpu time spent up to now is    36928.5 secs

     End of self-consistent calculation

          k = 0.0000 0.0000 0.0000 (237007 PWs)   bands (ev):

   -27.8009 -27.5629 -26.3273 -26.1188 -16.9562 -15.3555 -13.1187 -11.7882
   -10.8318 -10.1432 -10.1189 -10.1035  -9.6655  -9.5822  -9.3410  -9.3391
    -9.3386  -9.3343  -9.3342  -9.3327  -9.0221  -8.6343  -8.6317  -8.6306
    -8.6275  -8.6273  -8.6269  -8.6238  -8.1126  -7.5458  -7.5436  -7.5427
    -7.5408  -7.5399  -7.5395  -7.5394  -7.4120  -7.0258  -6.6198  -6.3943
    -6.3938  -6.3935  -6.3931  -6.3929  -6.3926  -6.2353  -6.1726  -6.0826
    -6.0726  -6.0714  -6.0707  -6.0699  -6.0690  -5.9416  -5.7451  -5.7002
    -5.6996  -5.6994  -5.6988  -5.6981  -5.6977  -5.6891  -5.6470  -5.5096
    -5.0533  -4.9617  -4.9616  -4.9610  -4.9358  -4.9355  -4.9352  -4.6359
    -4.6355  -4.6349  -4.6346  -4.6341  -4.6339  -4.2831  -4.2821  -4.2812
    -4.2503  -4.2489  -4.2477  -4.1998  -4.1920  -4.1908  -4.1900  -4.1893
    -4.1864  -4.1623  -3.5913  -3.3722  -3.3699  -3.3682  -3.2102  -3.2101
    -3.2097  -3.2090  -3.2086  -3.2083  -3.0994  -3.0965  -3.0935  -2.1941
    -2.1921  -2.1903  -2.1889  -2.1871  -2.1824  -1.8807  -1.8774  -1.8738
    -1.5091  -1.5084  -1.5074  -1.5073  -1.5057  -1.5047  -1.4339  -1.4317
    -1.4303  -1.2004  -0.7699  -0.7696  -0.7691  -0.7688  -0.7666  -0.7664
    -0.6482  -0.6476  -0.6456  -0.6447  -0.6437  -0.6431  -0.0959  -0.0956
    -0.0929  -0.0925  -0.0906  -0.0899   0.1421   0.1461   0.1505   0.1531
     0.1548   0.1637   0.1674   0.1707   0.1742   0.2156   0.2161   0.2177
     0.2183   0.2195   0.2197   0.2292   0.2307   0.2318   0.8009   0.8014
     0.8020   0.8033   0.8038   0.8059   0.9249   0.9256   0.9266   0.9267
     0.9270   0.9279   1.1395   1.2872   1.2900   1.2937

          k = 0.0000 0.2887 0.0000 (236896 PWs)   bands (ev):

   -27.8009 -27.5629 -26.3273 -26.1188 -16.9562 -15.3555 -13.1187 -11.7882
   -10.7379 -10.1431 -10.1040 -10.0251  -9.9888  -9.6655  -9.6158  -9.6156
    -9.5822  -9.2790  -8.9292  -8.9075  -8.9072  -8.8727  -8.8725  -8.6258
    -8.5026  -8.1877  -8.1674  -8.1671  -8.1122  -7.8182  -7.8178  -7.7987
    -7.4488  -7.4122  -7.3982  -7.3979  -7.0833  -7.0824  -7.0256  -6.7166
    -6.7124  -6.6991  -6.6987  -6.6196  -6.3472  -6.3460  -6.3032  -6.3023
    -6.3020  -6.2333  -6.1697  -5.9515  -5.7451  -5.6895  -5.6251  -5.6248
    -5.6167  -5.6151  -5.6098  -5.6084  -5.6080  -5.5779  -5.5776  -5.5564
    -5.5093  -5.2539  -5.2162  -5.2160  -5.0534  -4.8905  -4.8901  -4.8251
    -4.5504  -4.5461  -4.5459  -4.5295  -4.5291  -4.4624  -4.4597  -4.1796
    -4.1769  -4.1702  -4.1454  -4.1451  -3.8467  -3.8465  -3.7418  -3.7396
    -3.5034  -3.4845  -3.4842  -3.4761  -3.4752  -3.4491  -3.3870  -3.1614
    -3.1302  -3.1299  -2.8007  -2.7403  -2.6515  -2.6502  -2.4516  -2.4487
    -2.3912  -2.3909  -2.3487  -2.3468  -2.1285  -2.1277  -2.0821  -2.0800
    -2.0512  -2.0495  -1.7582  -1.7557  -1.6939  -1.6935  -1.6794  -1.5799
    -1.5779  -1.4249  -1.1126  -1.0088  -1.0073  -1.0039  -0.9712  -0.9676
    -0.8640  -0.8635  -0.6956  -0.6950  -0.5508  -0.5496  -0.4227  -0.4210
    -0.4191  -0.3823  -0.3809  -0.1667  -0.1664  -0.1588  -0.1101  -0.1068
    -0.0852  -0.0773   0.0434   0.1432   0.1478   0.4619   0.4681   0.5422
     0.5439   0.5762   0.5787   0.7493   0.7535   0.7720   0.7750   0.9366
     0.9389   0.9541   0.9547   1.0823   1.0828   1.1291   1.1296   1.2249
     1.2639   1.2671   1.2854   1.3070   1.3112   1.4461

          k = 0.0000-0.5773 0.0000 (236880 PWs)   bands (ev):

   -27.8009 -27.5629 -26.3273 -26.1188 -16.9562 -15.3555 -13.1187 -11.7882
   -10.4588 -10.4542 -10.1431 -10.1039  -9.7467  -9.7433  -9.7090  -9.7088
    -9.6652  -9.5821  -9.0003  -9.0000  -8.6525  -8.6490  -8.6253  -8.2260
    -8.2258  -8.2256  -8.2251  -8.1125  -7.9104  -7.9100  -7.5233  -7.5231
    -7.5229  -7.5222  -7.4903  -7.4896  -7.4123  -7.1733  -7.1708  -7.0256
    -6.7910  -6.7899  -6.6206  -6.4435  -6.4429  -6.4425  -6.4422  -6.4379
    -6.4369  -6.2334  -6.1697  -6.0326  -6.0321  -6.0278  -6.0276  -5.9499
    -5.7449  -5.7162  -5.7154  -5.6890  -5.5097  -5.3401  -5.3397  -5.3367
    -5.3365  -5.2840  -5.2805  -5.0540  -4.9838  -4.9832  -4.9827  -4.9818
    -4.5531  -4.5504  -4.2838  -4.2830  -4.2808  -4.2803  -4.2699  -4.2690
    -4.1721  -3.8895  -3.8893  -3.8593  -3.8591  -3.2414  -3.2380  -3.2245
    -3.2243  -3.1843  -3.1842  -3.1837  -3.1834  -3.1736  -3.1731  -3.1223
    -3.1215  -3.1207  -3.1190  -2.9007  -2.9002  -2.8983  -2.8973  -2.5389
    -2.5359  -2.4871  -2.4856  -2.4746  -2.4735  -2.4724  -2.4712  -2.3248
    -2.3248  -2.0553  -2.0548  -1.7292  -1.7284  -1.4166  -1.4150  -1.4136
    -1.4115  -1.1681  -1.1669  -1.1662  -1.1646  -1.0934  -1.0918  -1.0008
    -1.0001  -0.9042  -0.9037  -0.8543  -0.8464  -0.7561  -0.7557  -0.7541
    -0.7533  -0.4555  -0.4550  -0.4209  -0.4204  -0.3213  -0.3200  -0.1667
    -0.1589   0.0868   0.0871   0.0878   0.0883   0.0983   0.0997   0.3027
     0.3028   0.3048   0.3057   0.7844   0.7849   0.9892   0.9901   0.9910
     0.9919   1.0050   1.0060   1.0095   1.0100   1.4720   1.4728   1.4731
     1.4741   1.4798   1.4820   1.4930   1.4954   1.4989

          k = 0.2500-0.1443 0.0000 (236890 PWs)   bands (ev):

   -27.8009 -27.5629 -26.3273 -26.1188 -16.9562 -15.3555 -13.1187 -11.7882
   -10.7379 -10.1431 -10.1040 -10.0251  -9.9888  -9.6655  -9.6160  -9.6156
    -9.5822  -9.2790  -8.9291  -8.9078  -8.9070  -8.8729  -8.8724  -8.6258
    -8.5025  -8.1874  -8.1677  -8.1669  -8.1123  -7.8186  -7.8174  -7.7986
    -7.4487  -7.4122  -7.3982  -7.3978  -7.0836  -7.0822  -7.0255  -6.7169
    -6.7127  -6.6993  -6.6985  -6.6185  -6.3471  -6.3456  -6.3032  -6.3026
    -6.3020  -6.2338  -6.1702  -5.9513  -5.7451  -5.6896  -5.6253  -5.6244
    -5.6168  -5.6150  -5.6096  -5.6087  -5.6083  -5.5781  -5.5779  -5.5564
    -5.5091  -5.2540  -5.2162  -5.2157  -5.0531  -4.8906  -4.8905  -4.8249
    -4.5502  -4.5463  -4.5462  -4.5295  -4.5287  -4.4624  -4.4599  -4.1804
    -4.1768  -4.1693  -4.1453  -4.1452  -3.8470  -3.8467  -3.7418  -3.7396
    -3.5034  -3.4848  -3.4837  -3.4758  -3.4753  -3.4490  -3.3869  -3.1620
    -3.1303  -3.1301  -2.8005  -2.7383  -2.6528  -2.6502  -2.4516  -2.4492
    -2.3915  -2.3908  -2.3485  -2.3468  -2.1291  -2.1282  -2.0841  -2.0801
    -2.0509  -2.0487  -1.7581  -1.7560  -1.6923  -1.6913  -1.6767  -1.5811
    -1.5779  -1.4243  -1.1126  -1.0090  -1.0070  -1.0038  -0.9745  -0.9676
    -0.8646  -0.8635  -0.6933  -0.6921  -0.5515  -0.5491  -0.4244  -0.4212
    -0.4188  -0.3821  -0.3807  -0.1670  -0.1666  -0.1590  -0.1117  -0.1072
    -0.0849  -0.0779   0.0445   0.1413   0.1497   0.4623   0.4676   0.5418
     0.5438   0.5754   0.5791   0.7508   0.7534   0.7679   0.7731   0.9348
     0.9393   0.9541   0.9546   1.0835   1.0842   1.1277   1.1284   1.2243
     1.2620   1.2678   1.2862   1.3046   1.3107   1.4463

          k = 0.2500-0.7217 0.0000 (236847 PWs)   bands (ev):

   -27.8009 -27.5629 -26.3273 -26.1188 -16.9562 -15.3555 -13.1187 -11.7882
   -10.5503 -10.1778 -10.1737 -10.1430 -10.1039  -9.8383  -9.6655  -9.5823
    -9.4664  -9.4639  -9.0582  -9.0578  -8.7434  -8.6258  -8.3735  -8.3713
    -8.3520  -8.3517  -8.3179  -8.1124  -7.9513  -7.9472  -7.6147  -7.4125
    -7.2666  -7.2660  -7.2638  -7.2489  -7.2463  -7.2151  -7.2145  -7.0261
    -6.8963  -6.8952  -6.8495  -6.8490  -6.6196  -6.5338  -6.5171  -6.5157
    -6.2344  -6.1755  -6.1693  -6.1657  -6.1531  -6.1523  -5.9524  -5.7982
    -5.7965  -5.7426  -5.6894  -5.5100  -5.4446  -5.4440  -5.3739  -5.0858
    -5.0850  -5.0734  -5.0532  -5.0367  -5.0361  -5.0090  -5.0050  -4.7146
    -4.7138  -4.6924  -4.6652  -4.3532  -4.3520  -4.1732  -4.0171  -4.0020
    -4.0012  -3.9775  -3.9619  -3.9197  -3.9181  -3.6584  -3.6576  -3.6131
    -3.6091  -3.3275  -3.3158  -3.3151  -3.2891  -3.2070  -3.1067  -2.9785
    -2.9732  -2.9454  -2.9427  -2.8694  -2.8673  -2.8317  -2.5788  -2.5765
    -2.5618  -2.5425  -2.2788  -2.2283  -2.2271  -2.1379  -2.1351  -2.0952
    -2.0922  -1.9359  -1.9288  -1.9266  -1.8546  -1.6177  -1.5575  -1.5533
    -1.4749  -1.4681  -1.4648  -1.4640  -1.2537  -1.2417  -1.1709  -1.0501
    -1.0477  -0.9375  -0.7397  -0.7391  -0.7154  -0.6585  -0.6577  -0.6234
    -0.6192  -0.5961  -0.5837  -0.5281  -0.3737  -0.3722  -0.0659  -0.0639
    -0.0158  -0.0148   0.0242   0.0258   0.2441   0.2464   0.3541   0.3552
     0.3816   0.3986   0.4038   0.4557   0.5967   0.5998   0.6960   0.6967
     0.7151   0.8889   1.0238   1.0241   1.0979   1.1560   1.1635   1.3964
     1.4027   1.6202   1.6404   1.6492   1.6926   1.7175

          k =-0.5000 0.2887 0.0000 (236880 PWs)   bands (ev):

   -27.8009 -27.5629 -26.3273 -26.1188 -16.9562 -15.3555 -13.1187 -11.7882
   -10.4585 -10.4545 -10.1431 -10.1039  -9.7464  -9.7436  -9.7092  -9.7087
    -9.6652  -9.5823  -9.0006  -8.9999  -8.6519  -8.6497  -8.6251  -8.2262
    -8.2259  -8.2254  -8.2249  -8.1126  -7.9107  -7.9096  -7.5236  -7.5232
    -7.5225  -7.5222  -7.4900  -7.4895  -7.4123  -7.1728  -7.1712  -7.0257
    -6.7908  -6.7898  -6.6198  -6.4437  -6.4431  -6.4423  -6.4418  -6.4379
    -6.4368  -6.2338  -6.1703  -6.0325  -6.0322  -6.0283  -6.0281  -5.9497
    -5.7451  -5.7162  -5.7144  -5.6893  -5.5100  -5.3398  -5.3396  -5.3373
    -5.3371  -5.2850  -5.2796  -5.0547  -4.9842  -4.9832  -4.9817  -4.9814
    -4.5532  -4.5505  -4.2835  -4.2830  -4.2813  -4.2809  -4.2699  -4.2688
    -4.1722  -3.8895  -3.8890  -3.8592  -3.8588  -3.2423  -3.2369  -3.2254
    -3.2248  -3.1841  -3.1840  -3.1836  -3.1835  -3.1727  -3.1716  -3.1221
    -3.1216  -3.1209  -3.1187  -2.9006  -2.8997  -2.8982  -2.8970  -2.5388
    -2.5364  -2.4878  -2.4866  -2.4765  -2.4754  -2.4724  -2.4711  -2.3269
    -2.3261  -2.0526  -2.0514  -1.7271  -1.7263  -1.4192  -1.4175  -1.4138
    -1.4113  -1.1682  -1.1671  -1.1665  -1.1641  -1.0937  -1.0921  -0.9979
    -0.9971  -0.9010  -0.9002  -0.8565  -0.8440  -0.7570  -0.7557  -0.7542
    -0.7528  -0.4570  -0.4559  -0.4218  -0.4208  -0.3220  -0.3200  -0.1665
    -0.1596   0.0868   0.0874   0.0876   0.0888   0.0978   0.0990   0.3019
     0.3020   0.3040   0.3055   0.7803   0.7810   0.9885   0.9891   0.9921
     0.9926   1.0034   1.0048   1.0077   1.0102   1.4654   1.4730   1.4733
     1.4741   1.4798   1.4866   1.4928   1.4955   1.4977

          k =-0.5000 0.5773 0.0000 (236845 PWs)   bands (ev):

   -27.8009 -27.5629 -26.3273 -26.1188 -16.9562 -15.3555 -13.1187 -11.7882
   -10.5502 -10.1781 -10.1734 -10.1430 -10.1039  -9.8383  -9.6655  -9.5823
    -9.4667  -9.4635  -9.0582  -9.0580  -8.7433  -8.6258  -8.3739  -8.3709
    -8.3523  -8.3516  -8.3177  -8.1123  -7.9514  -7.9468  -7.6146  -7.4125
    -7.2667  -7.2659  -7.2638  -7.2492  -7.2458  -7.2153  -7.2147  -7.0262
    -6.8971  -6.8943  -6.8493  -6.8491  -6.6198  -6.5334  -6.5172  -6.5161
    -6.2347  -6.1772  -6.1680  -6.1648  -6.1526  -6.1523  -5.9528  -5.7986
    -5.7963  -5.7426  -5.6893  -5.5103  -5.4447  -5.4437  -5.3739  -5.0857
    -5.0849  -5.0758  -5.0507  -5.0368  -5.0362  -5.0087  -5.0055  -4.7146
    -4.7134  -4.6926  -4.6655  -4.3532  -4.3522  -4.1730  -4.0165  -4.0022
    -4.0014  -3.9788  -3.9615  -3.9199  -3.9183  -3.6583  -3.6577  -3.6132
    -3.6085  -3.3275  -3.3158  -3.3151  -3.2888  -3.2068  -3.1051  -2.9775
    -2.9742  -2.9455  -2.9422  -2.8690  -2.8677  -2.8346  -2.5787  -2.5772
    -2.5618  -2.5430  -2.2783  -2.2276  -2.2261  -2.1367  -2.1349  -2.0936
    -2.0921  -1.9355  -1.9286  -1.9273  -1.8558  -1.6209  -1.5555  -1.5532
    -1.4716  -1.4682  -1.4668  -1.4661  -1.2522  -1.2412  -1.1696  -1.0491
    -1.0476  -0.9375  -0.7427  -0.7420  -0.7169  -0.6585  -0.6576  -0.6214
    -0.6194  -0.5938  -0.5859  -0.5258  -0.3736  -0.3717  -0.0652  -0.0639
    -0.0148  -0.0134   0.0243   0.0257   0.2440   0.2455   0.3546   0.3559
     0.3805   0.3988   0.4029   0.4564   0.5948   0.5968   0.6962   0.6968
     0.7111   0.8890   1.0237   1.0245   1.1003   1.1559   1.1599   1.3951
     1.4022   1.6208   1.6428   1.6470   1.6918   1.7238

          k =-0.2500-0.1443 0.0000 (236890 PWs)   bands (ev):

   -27.8009 -27.5629 -26.3273 -26.1188 -16.9562 -15.3555 -13.1187 -11.7882
   -10.7379 -10.1431 -10.1040 -10.0251  -9.9888  -9.6656  -9.6159  -9.6156
    -9.5822  -9.2790  -8.9292  -8.9077  -8.9072  -8.8728  -8.8725  -8.6258
    -8.5025  -8.1875  -8.1676  -8.1670  -8.1123  -7.8184  -7.8176  -7.7986
    -7.4487  -7.4122  -7.3982  -7.3978  -7.0836  -7.0822  -7.0255  -6.7169
    -6.7127  -6.6992  -6.6986  -6.6186  -6.3472  -6.3456  -6.3031  -6.3026
    -6.3020  -6.2336  -6.1702  -5.9516  -5.7449  -5.6896  -5.6251  -5.6246
    -5.6165  -5.6153  -5.6096  -5.6088  -5.6081  -5.5781  -5.5778  -5.5564
    -5.5091  -5.2540  -5.2162  -5.2158  -5.0531  -4.8906  -4.8903  -4.8249
    -4.5502  -4.5464  -4.5462  -4.5295  -4.5289  -4.4623  -4.4600  -4.1801
    -4.1770  -4.1693  -4.1452  -4.1450  -3.8471  -3.8466  -3.7416  -3.7398
    -3.5034  -3.4847  -3.4839  -3.4755  -3.4751  -3.4494  -3.3870  -3.1632
    -3.1302  -3.1300  -2.8004  -2.7363  -2.6528  -2.6514  -2.4516  -2.4494
    -2.3919  -2.3913  -2.3484  -2.3469  -2.1299  -2.1294  -2.0841  -2.0820
    -2.0494  -2.0487  -1.7580  -1.7562  -1.6902  -1.6894  -1.6738  -1.5811
    -1.5793  -1.4239  -1.1126  -1.0078  -1.0067  -1.0043  -0.9745  -0.9712
    -0.8646  -0.8638  -0.6902  -0.6894  -0.5509  -0.5497  -0.4246  -0.4231
    -0.4188  -0.3813  -0.3805  -0.1672  -0.1667  -0.1599  -0.1117  -0.1086
    -0.0849  -0.0780   0.0452   0.1436   0.1474   0.4623   0.4677   0.5423
     0.5439   0.5761   0.5781   0.7516   0.7532   0.7657   0.7680   0.9352
     0.9374   0.9541   0.9548   1.0847   1.0849   1.1264   1.1266   1.2243
     1.2629   1.2656   1.2859   1.3043   1.3088   1.4463

          k =-0.2500-0.7217 0.0000 (236847 PWs)   bands (ev):

   -27.8009 -27.5629 -26.3273 -26.1188 -16.9562 -15.3555 -13.1187 -11.7882
   -10.5503 -10.1779 -10.1735 -10.1430 -10.1039  -9.8383  -9.6655  -9.5823
    -9.4668  -9.4634  -9.0583  -9.0578  -8.7433  -8.6258  -8.3740  -8.3708
    -8.3523  -8.3514  -8.3179  -8.1124  -7.9514  -7.9471  -7.6147  -7.4125
    -7.2665  -7.2661  -7.2637  -7.2493  -7.2459  -7.2152  -7.2144  -7.0262
    -6.8967  -6.8948  -6.8495  -6.8490  -6.6196  -6.5338  -6.5167  -6.5162
    -6.2346  -6.1745  -6.1694  -6.1662  -6.1532  -6.1522  -5.9531  -5.7983
    -5.7951  -5.7433  -5.6893  -5.5100  -5.4446  -5.4439  -5.3738  -5.0859
    -5.0848  -5.0732  -5.0535  -5.0369  -5.0360  -5.0090  -5.0050  -4.7151
    -4.7133  -4.6925  -4.6654  -4.3528  -4.3523  -4.1732  -4.0183  -4.0019
    -4.0013  -3.9765  -3.9618  -3.9198  -3.9181  -3.6584  -3.6574  -3.6131
    -3.6087  -3.3275  -3.3158  -3.3152  -3.2889  -3.2069  -3.1090  -2.9792
    -2.9725  -2.9455  -2.9420  -2.8697  -2.8667  -2.8285  -2.5773  -2.5765
    -2.5619  -2.5423  -2.2788  -2.2293  -2.2286  -2.1383  -2.1361  -2.0952
    -2.0937  -1.9365  -1.9288  -1.9264  -1.8535  -1.6140  -1.5576  -1.5554
    -1.4748  -1.4715  -1.4630  -1.4620  -1.2557  -1.2421  -1.1731  -1.0515
    -1.0475  -0.9376  -0.7367  -0.7360  -0.7138  -0.6581  -0.6574  -0.6239
    -0.6205  -0.5968  -0.5830  -0.5307  -0.3739  -0.3720  -0.0662  -0.0654
    -0.0171  -0.0163   0.0248   0.0256   0.2449   0.2470   0.3527   0.3538
     0.3832   0.3994   0.4027   0.4546   0.6002   0.6015   0.6963   0.6970
     0.7200   0.8887   1.0234   1.0247   1.0946   1.1601   1.1637   1.3963
     1.4040   1.6195   1.6399   1.6499   1.6916   1.7148

          k = 0.5000 0.2887 0.0000 (236880 PWs)   bands (ev):

   -27.8009 -27.5629 -26.3273 -26.1188 -16.9562 -15.3555 -13.1187 -11.7882
   -10.4587 -10.4543 -10.1431 -10.1039  -9.7467  -9.7432  -9.7092  -9.7088
    -9.6653  -9.5823  -9.0005  -9.0000  -8.6528  -8.6488  -8.6250  -8.2261
    -8.2258  -8.2256  -8.2248  -8.1125  -7.9106  -7.9098  -7.5234  -7.5232
    -7.5230  -7.5218  -7.4901  -7.4894  -7.4123  -7.1733  -7.1708  -7.0257
    -6.7907  -6.7899  -6.6198  -6.4436  -6.4431  -6.4423  -6.4418  -6.4379
    -6.4367  -6.2337  -6.1703  -6.0325  -6.0324  -6.0281  -6.0280  -5.9502
    -5.7443  -5.7161  -5.7151  -5.6892  -5.5100  -5.3405  -5.3398  -5.3368
    -5.3367  -5.2853  -5.2794  -5.0546  -4.9839  -4.9830  -4.9820  -4.9816
    -4.5531  -4.5507  -4.2840  -4.2837  -4.2804  -4.2804  -4.2695  -4.2693
    -4.1722  -3.8896  -3.8893  -3.8593  -3.8591  -3.2430  -3.2362  -3.2263
    -3.2260  -3.1840  -3.1840  -3.1834  -3.1829  -3.1715  -3.1707  -3.1223
    -3.1210  -3.1208  -3.1190  -2.9004  -2.8986  -2.8978  -2.8965  -2.5389
    -2.5366  -2.4888  -2.4881  -2.4765  -2.4754  -2.4744  -2.4732  -2.3292
    -2.3286  -2.0491  -2.0482  -1.7253  -1.7242  -1.4192  -1.4177  -1.4162
    -1.4145  -1.1682  -1.1671  -1.1661  -1.1647  -1.0933  -1.0919  -0.9949
    -0.9942  -0.8968  -0.8964  -0.8572  -0.8432  -0.7567  -0.7557  -0.7541
    -0.7521  -0.4581  -0.4571  -0.4226  -0.4219  -0.3222  -0.3215  -0.1666
    -0.1597   0.0874   0.0878   0.0882   0.0883   0.0964   0.0977   0.3016
     0.3021   0.3037   0.3048   0.7759   0.7763   0.9881   0.9891   0.9929
     0.9931   1.0034   1.0043   1.0066   1.0089   1.4639   1.4726   1.4735
     1.4739   1.4784   1.4879   1.4938   1.4947   1.4983

     the Fermi energy is    -0.0035 ev

!    total energy              =   -3434.73383764 Ry
     estimated scf accuracy    <          2.6E-11 Ry
     smearing contrib. (-TS)   =      -0.00842110 Ry
     internal energy E=F+TS    =   -3434.72541654 Ry

     The total energy is F=E-TS. E is the sum of the following terms:
     one-electron contribution =  -11649.51284778 Ry
     hartree contribution      =    5897.42377150 Ry
     xc contribution           =    -264.12350437 Ry
     ewald contribution        =    5380.36904030 Ry
     one-center paw contrib.   =   -2798.88187618 Ry

     convergence has been achieved in  18 iterations

     negative rho (up, down):  1.424E-03 0.000E+00

     Forces acting on atoms (cartesian axes, Ry/au):

     atom    1 type  1   force =    -0.00000984   -0.00004760    0.00006313
     atom    2 type  1   force =    -0.00027372   -0.00010389   -0.00011093
     atom    3 type  1   force =     0.00014901   -0.00015956   -0.00005991
     atom    4 type  1   force =     0.00000486   -0.00004172    0.00000097
     atom    5 type  1   force =    -0.00022128   -0.00029408    0.00002064
     atom    6 type  1   force =    -0.00010411   -0.00013520   -0.00019083
     atom    7 type  1   force =     0.00017196   -0.00022882   -0.00015415
     atom    8 type  1   force =    -0.00000499   -0.00012969    0.00000095
     atom    9 type  1   force =    -0.00001109    0.00020953   -0.00012545
     atom   10 type  1   force =    -0.00005043    0.00025138   -0.00014510
     atom   11 type  1   force =    -0.00002720   -0.00000269   -0.00016655
     atom   12 type  1   force =    -0.00005376   -0.00008516   -0.00017890
     atom   13 type  1   force =     0.00000191   -0.00003493    0.00002056
     atom   14 type  1   force =    -0.00005299   -0.00001937    0.00003124
     atom   15 type  1   force =    -0.00010589   -0.00003344   -0.00018218
     atom   16 type  1   force =    -0.00000603   -0.00002301   -0.00003639
     atom   17 type  1   force =    -0.00011140    0.00018616   -0.00000187
     atom   18 type  1   force =    -0.00021950   -0.00011749    0.00026177
     atom   19 type  1   force =     0.00008148   -0.00028668    0.00040016
     atom   20 type  1   force =     0.00018981    0.00001481    0.00007494
     atom   21 type  1   force =    -0.00015550   -0.00016272    0.00020889
     atom   22 type  1   force =    -0.00008208   -0.00021184    0.00000859
     atom   23 type  1   force =     0.00003932   -0.00011541    0.00020500
     atom   24 type  1   force =     0.00014243   -0.00023012    0.00005446
     atom   25 type  1   force =    -0.00018867    0.00000588   -0.00003334
     atom   26 type  1   force =     0.00001274    0.00002101   -0.00023035
     atom   27 type  1   force =     0.00027232   -0.00002471    0.00025956
     atom   28 type  1   force =    -0.00016992   -0.00011348    0.00028039
     atom   29 type  1   force =    -0.00006071    0.00008756    0.00027790
     atom   30 type  1   force =     0.00010577    0.00025208    0.00038338
     atom   31 type  1   force =     0.00003387    0.00004622    0.00033171
     atom   32 type  1   force =    -0.00013940    0.00021961    0.00040778
     atom   33 type  1   force =    -0.00019207   -0.00017086    0.00008697
     atom   34 type  1   force =    -0.00010032   -0.00017736   -0.00000335
     atom   35 type  1   force =     0.00027145   -0.00017670   -0.00009579
     atom   36 type  1   force =     0.00002099   -0.00006259    0.00031006
     atom   37 type  1   force =    -0.00045106   -0.00026018    0.00005903
     atom   38 type  1   force =     0.00010217   -0.00014942    0.00031346
     atom   39 type  1   force =     0.00048756   -0.00021190   -0.00011125
     atom   40 type  1   force =    -0.00022278   -0.00008917    0.00006123
     atom   41 type  1   force =    -0.00003217    0.00021051    0.00027534
     atom   42 type  1   force =     0.00016649    0.00009383   -0.00000326
     atom   43 type  1   force =     0.00005272   -0.00005162    0.00009262
     atom   44 type  1   force =    -0.00009250    0.00001695   -0.00001067
     atom   45 type  1   force =     0.00000478    0.00057130   -0.00010758
     atom   46 type  1   force =    -0.00008497    0.00009732    0.00014920
     atom   47 type  1   force =     0.00006509    0.00004925    0.00023294
     atom   48 type  1   force =     0.00002982    0.00030336    0.00006296
     atom   49 type  1   force =    -0.00000485   -0.00002883    0.00003218
     atom   50 type  1   force =    -0.00011218   -0.00017969   -0.00003873
     atom   51 type  1   force =     0.00005368   -0.00024850   -0.00021736
     atom   52 type  1   force =     0.00014904   -0.00004862   -0.00004673
     atom   53 type  1   force =    -0.00022381   -0.00002102   -0.00015811
     atom   54 type  1   force =    -0.00007656    0.00000271   -0.00010050
     atom   55 type  1   force =     0.00013393   -0.00004098   -0.00017305
     atom   56 type  1   force =     0.00013239   -0.00004508   -0.00012011
     atom   57 type  1   force =    -0.00010911    0.00019851   -0.00007643
     atom   58 type  1   force =     0.00004917    0.00019569   -0.00029066
     atom   59 type  1   force =     0.00020950    0.00015817   -0.00008367
     atom   60 type  1   force =    -0.00000727    0.00016379   -0.00001976
     atom   61 type  1   force =     0.00002709    0.00014157    0.00004376
     atom   62 type  1   force =    -0.00002113    0.00020473   -0.00014277
     atom   63 type  1   force =     0.00001996   -0.00009758    0.00003876
     atom   64 type  1   force =    -0.00004975   -0.00002385   -0.00017209
     atom   65 type  1   force =     0.00019433   -0.00018430   -0.00000302
     atom   66 type  1   force =    -0.00006369    0.00023287   -0.00011579
     atom   67 type  1   force =     0.00009488    0.00044662   -0.00015696
     atom   68 type  1   force =    -0.00013729   -0.00004217   -0.00026993
     atom   69 type  1   force =     0.00015473    0.00016906   -0.00027013
     atom   70 type  1   force =     0.00011051   -0.00006292    0.00007731
     atom   71 type  1   force =     0.00003284    0.00001761   -0.00023012
     atom   72 type  1   force =    -0.00005837    0.00033255   -0.00007754
     atom   73 type  1   force =    -0.00005858    0.00008863    0.00011955
     atom   74 type  1   force =     0.00017893    0.00024172    0.00048616
     atom   75 type  1   force =    -0.00010138   -0.00003278   -0.00002066
     atom   76 type  1   force =     0.00008352   -0.00020300   -0.00032616
     atom   77 type  1   force =     0.00009703    0.00001601   -0.00015916
     atom   78 type  1   force =    -0.00016568   -0.00007370   -0.00044909
     atom   79 type  1   force =    -0.00013135   -0.00006661    0.00000145
     atom   80 type  1   force =     0.00036256   -0.00001468   -0.00006479
     atom   81 type  2   force =    -0.00004758    0.00037585   -0.00019279
     atom   82 type  2   force =     0.00018522   -0.00047841    0.00018380
     atom   83 type  3   force =    -0.00064256    0.00023790   -0.00073065
     atom   84 type  3   force =     0.00020896    0.00120875    0.00040845
     atom   85 type  3   force =    -0.00004985   -0.00118463    0.00038689
     atom   86 type  2   force =     0.00043616   -0.00040660   -0.00027615
     atom   87 type  4   force =     0.00072027    0.00037778    0.00018501
     atom   88 type  3   force =    -0.00069802    0.00045541    0.00047774
     atom   89 type  2   force =     0.00048778    0.00040572   -0.00013273
     atom   90 type  4   force =    -0.00014697   -0.00070293    0.00063676
     atom   91 type  3   force =    -0.00002431   -0.00064501   -0.00117907
     atom   92 type  4   force =     0.00033172    0.00027645   -0.00033753
     atom   93 type  4   force =    -0.00054085    0.00043078    0.00008825
     atom   94 type  3   force =    -0.00016522   -0.00023237    0.00047816

     Total force =     0.004223     Total SCF correction =     0.000009


     Computing stress (Cartesian axis) and pressure


     negative rho (up, down):  1.424E-03 0.000E+00
          total   stress  (Ry/bohr**3)                   (kbar)     P=       -6.98
  -0.00007032   0.00000013   0.00000039          -10.34        0.02        0.06
   0.00000013  -0.00007097   0.00000058            0.02      -10.44        0.09
   0.00000039   0.00000058  -0.00000099            0.06        0.09       -0.15

     Energy error            =      4.7E-05 Ry
     Gradient error          =      1.2E-03 Ry/Bohr

     number of scf cycles    =  45
     number of bfgs steps    =  44

     energy             old  =   -3434.7337906110 Ry
     energy             new  =   -3434.7338376384 Ry

     CASE: energy            _new < energy            _old

     new trust radius        =       0.0081556512 bohr
     new conv_thr            =            1.0E-10 Ry


ATOMIC_POSITIONS (angstrom)
Al              11.4543063415        1.6511351800       14.8016087101
Al               2.8639807080        1.6516755532       14.8010101837
Al               5.7257602444        1.6522406881       14.7999564710
Al               8.5896521637        1.6511276128       14.8004205943
Al              12.8873104315        4.1321703173       14.7989817452
Al               4.2951144710        4.1316052352       14.8050577734
Al               7.1571380792        4.1317557424       14.8027794086
Al              10.0219992454        4.1315820632       14.8001398191
Al              14.3182696265        6.6096616131       14.8005771910
Al               5.7264234628        6.6095945286       14.8019249835
Al               8.5900145033        6.6109027246       14.8004732157
Al              11.4541453242        6.6112673483       14.8000190096
Al              15.7495493369        9.0910181663       14.8006571276
Al               7.1585986125        9.0911457201       14.7994677451
Al              10.0225360444        9.0914483344       14.8006432637
Al              12.8859958232        9.0914032358       14.7993061967
Al              -0.0021479185       -0.0069362653       17.1681075913
Al               2.8618976122       -0.0052303022       17.1656958907
Al               5.7243297550       -0.0042164427       17.1646749839
Al               8.5865387247       -0.0059860133       17.1669898194
Al               1.4295054601        2.4755375307       17.1659235566
Al               4.2929149045        2.4752993509       17.1679351810
Al               7.1565412496        2.4744518186       17.1662231004
Al              10.0194394500        2.4760568211       17.1678934379
Al               2.8608415463        4.9548710695       17.1680233936
Al               5.7246921812        4.9549153153       17.1704532478
Al               8.5872078190        4.9547892585       17.1666913087
Al              11.4528686812        4.9551824115       17.1651062104
Al               4.2926594604        7.4351421008       17.1658011326
Al               7.1561042645        7.4339691930       17.1651733378
Al              10.0200012772        7.4344376158       17.1651026781
Al              12.8843921884        7.4337151545       17.1643516020
Al               1.4280224955        0.8179691643       19.5089161784
Al               4.2910919020        0.8180983371       19.5095438784
Al               7.1525405585        0.8179430580       19.5104157636
Al              10.0172677269        0.8176558777       19.5080087399
Al               2.8593937882        3.2988276875       19.5091334603
Al               5.7227908597        3.2975247003       19.5076887637
Al               8.5840942464        3.2985518391       19.5106415908
Al              11.4511143183        3.2988656631       19.5092468923
Al               4.2898635879        5.7784696036       19.5080137378
Al               7.1541716445        5.7784509860       19.5105201715
Al              10.0174975045        5.7778460732       19.5087730691
Al              12.8811185997        5.7779175562       19.5100025352
Al               5.7224670416        8.2555039775       19.5102894740
Al               8.5862764575        8.2576868162       19.5078809347
Al              11.4497462691        8.2578511640       19.5070400640
Al              14.3126971882        8.2568415651       19.5085743697
Al              11.4475372156        1.6409331672       21.8499077914
Al               2.8562960319        1.6413579175       21.8515409966
Al               5.7203479163        1.6417730444       21.8531957694
Al               8.5825753626        1.6408548145       21.8522875007
Al              12.8796238918        4.1210229658       21.8538607778
Al               4.2886592209        4.1207452080       21.8461136597
Al               7.1520680610        4.1208638705       21.8510797181
Al              10.0151851038        4.1215267672       21.8529240271
Al              14.3115047665        6.6012531084       21.8515462035
Al               5.7198986264        6.6012889363       21.8527784880
Al               8.5823090596        6.6008458969       21.8527704921
Al              11.4471609118        6.6003959936       21.8513922327
Al              15.7427029391        9.0805555277       21.8506361889
Al               7.1524179233        9.0795381510       21.8525240571
Al              10.0159251790        9.0817248654       21.8498274526
Al              12.8795610016        9.0815280293       21.8524014370
Al              -0.0104188569       -0.0159601527       24.2167036321
Al               2.8545788934       -0.0170096089       24.2183979910
Al               5.7176375908       -0.0171660696       24.2193512890
Al               8.5821160180       -0.0155558340       24.2207578916
Al               1.4216277496        2.4637720183       24.2202252992
Al               4.2853621501        2.4638369292       24.2162542647
Al               7.1488839073        2.4646879491       24.2232769925
Al              10.0129837098        2.4636067580       24.2186783611
Al               2.8543561854        4.9444795545       24.2136476258
Al               5.7174729144        4.9432182065       24.2134970804
Al               8.5810711618        4.9449397558       24.2218320572
Al              11.4450398752        4.9458412033       24.2223820891
Al               4.2857293330        7.4239176349       24.2221531668
Al               7.1499026630        7.4239810067       24.2264945632
Al              10.0135835215        7.4250956175       24.2176089369
Al              12.8763038613        7.4249415268       24.2186108983
C                3.3152981597        4.7648228322       29.3949436710
C                4.7166875541        4.9953685983       28.8747125861
H                2.6049673570        4.9223170404       28.5749705221
H                3.2107131369        3.7375127542       29.7637446711
H                3.0896256968        5.4713867198       30.2028464273
C                5.8162525953        4.8203839228       29.9240759675
F                4.9421990438        4.1298371373       27.8071388734
H                5.6790910670        3.8435763767       30.4086515662
C                7.2667067126        4.8843776365       29.4678726856
F                4.7847873901        6.2817254084       28.3447150610
H                5.6707881694        5.5917606209       30.6944012851
F                7.5345360645        6.0286369312       28.7448900380
F                7.5953340437        3.8026899980       28.6714872992
H                7.9585534070        4.8727554855       30.3256560110



     Writing config-only to output data dir ./tmp/al_pvdf.save/ :
     XML data file
     NEW-OLD atomic charge density approx. for the potential

     negative rho (up, down):  1.420E-03 0.000E+00

     total cpu time spent up to now is    37208.5 secs

     Self-consistent Calculation

     iteration #  1     ecut=    60.00 Ry     beta= 0.30
     Davidson diagonalization with overlap
     ethr =  1.00E-06,  avg # of iterations =  3.0

     Threshold (ethr) on eigenvalues was too large:
     Diagonalizing with lowered threshold

     Davidson diagonalization with overlap
     ethr =  1.33E-08,  avg # of iterations =  4.9

     negative rho (up, down):  1.421E-03 0.000E+00

     total cpu time spent up to now is    37582.8 secs

     total energy              =   -3434.73386051 Ry
     estimated scf accuracy    <       0.00004092 Ry

     iteration #  2     ecut=    60.00 Ry     beta= 0.30
     Davidson diagonalization with overlap
     ethr =  1.41E-08,  avg # of iterations =  2.0

     negative rho (up, down):  1.422E-03 0.000E+00

     total cpu time spent up to now is    37744.9 secs

     total energy              =   -3434.73385130 Ry
     estimated scf accuracy    <       0.00018908 Ry

     iteration #  3     ecut=    60.00 Ry     beta= 0.30
     Davidson diagonalization with overlap
     ethr =  1.41E-08,  avg # of iterations =  5.1

     negative rho (up, down):  1.422E-03 0.000E+00

     total cpu time spent up to now is    37916.5 secs

     total energy              =   -3434.73385463 Ry
     estimated scf accuracy    <       0.00034116 Ry

     iteration #  4     ecut=    60.00 Ry     beta= 0.30
     Davidson diagonalization with overlap
     ethr =  1.41E-08,  avg # of iterations =  2.8

     negative rho (up, down):  1.423E-03 0.000E+00

     total cpu time spent up to now is    38080.7 secs

     total energy              =   -3434.73385985 Ry
     estimated scf accuracy    <       0.00002580 Ry

     iteration #  5     ecut=    60.00 Ry     beta= 0.30
     Davidson diagonalization with overlap
     ethr =  8.89E-09,  avg # of iterations =  2.0

     negative rho (up, down):  1.423E-03 0.000E+00

     total cpu time spent up to now is    38244.1 secs

     total energy              =   -3434.73386184 Ry
     estimated scf accuracy    <       0.00000684 Ry

     iteration #  6     ecut=    60.00 Ry     beta= 0.30
     Davidson diagonalization with overlap
     ethr =  2.36E-09,  avg # of iterations =  2.2

     negative rho (up, down):  1.424E-03 0.000E+00

     total cpu time spent up to now is    38410.3 secs

     total energy              =   -3434.73386260 Ry
     estimated scf accuracy    <       0.00000200 Ry

     iteration #  7     ecut=    60.00 Ry     beta= 0.30
     Davidson diagonalization with overlap
     ethr =  6.88E-10,  avg # of iterations =  2.0

     negative rho (up, down):  1.424E-03 0.000E+00

     total cpu time spent up to now is    38584.3 secs

     total energy              =   -3434.73386275 Ry
     estimated scf accuracy    <       0.00000025 Ry

     iteration #  8     ecut=    60.00 Ry     beta= 0.30
     Davidson diagonalization with overlap
     ethr =  8.73E-11,  avg # of iterations =  5.2

     negative rho (up, down):  1.424E-03 0.000E+00

     total cpu time spent up to now is    38807.3 secs

     total energy              =   -3434.73386280 Ry
     estimated scf accuracy    <       0.00000006 Ry

     iteration #  9     ecut=    60.00 Ry     beta= 0.30
     Davidson diagonalization with overlap
     ethr =  2.07E-11,  avg # of iterations =  4.0

     negative rho (up, down):  1.424E-03 0.000E+00

     total cpu time spent up to now is    41927.2 secs

     total energy              =   -3434.73386281 Ry
     estimated scf accuracy    <       0.00000004 Ry

     iteration # 10     ecut=    60.00 Ry     beta= 0.30
     Davidson diagonalization with overlap
     ethr =  1.53E-11,  avg # of iterations =  1.7

     negative rho (up, down):  1.424E-03 0.000E+00

     total cpu time spent up to now is    42081.8 secs

     total energy              =   -3434.73386281 Ry
     estimated scf accuracy    <       0.00000001 Ry

     iteration # 11     ecut=    60.00 Ry     beta= 0.30
     Davidson diagonalization with overlap
     ethr =  4.71E-12,  avg # of iterations =  2.2

     negative rho (up, down):  1.424E-03 0.000E+00

     total cpu time spent up to now is    42254.7 secs

     total energy              =   -3434.73386281 Ry
     estimated scf accuracy    <          2.2E-09 Ry

     iteration # 12     ecut=    60.00 Ry     beta= 0.30
     Davidson diagonalization with overlap
     ethr =  7.45E-13,  avg # of iterations =  5.0

     negative rho (up, down):  1.424E-03 0.000E+00

     total cpu time spent up to now is    42481.8 secs

     total energy              =   -3434.73386281 Ry
     estimated scf accuracy    <          2.2E-09 Ry

     iteration # 13     ecut=    60.00 Ry     beta= 0.30
     Davidson diagonalization with overlap
     ethr =  7.45E-13,  avg # of iterations =  2.0

     negative rho (up, down):  1.424E-03 0.000E+00

     total cpu time spent up to now is    42644.9 secs

     total energy              =   -3434.73386281 Ry
     estimated scf accuracy    <          3.5E-09 Ry

     iteration # 14     ecut=    60.00 Ry     beta= 0.30
     Davidson diagonalization with overlap
     ethr =  7.45E-13,  avg # of iterations =  2.0

     negative rho (up, down):  1.424E-03 0.000E+00

     total cpu time spent up to now is    42802.3 secs

     total energy              =   -3434.73386281 Ry
     estimated scf accuracy    <          3.0E-09 Ry

     iteration # 15     ecut=    60.00 Ry     beta= 0.30
     Davidson diagonalization with overlap
     ethr =  7.45E-13,  avg # of iterations =  1.0

     negative rho (up, down):  1.424E-03 0.000E+00

     total cpu time spent up to now is    42948.8 secs

     End of self-consistent calculation

          k = 0.0000 0.0000 0.0000 (237007 PWs)   bands (ev):

   -27.8027 -27.5657 -26.3305 -26.1186 -16.9590 -15.3580 -13.1221 -11.7886
   -10.8322 -10.1451 -10.1192 -10.1051  -9.6673  -9.5846  -9.3405  -9.3391
    -9.3387  -9.3353  -9.3352  -9.3340  -9.0223  -8.6347  -8.6315  -8.6306
    -8.6281  -8.6278  -8.6277  -8.6260  -8.1140  -7.5452  -7.5437  -7.5428
    -7.5412  -7.5405  -7.5400  -7.5400  -7.4131  -7.0254  -6.6210  -6.3946
    -6.3943  -6.3938  -6.3936  -6.3935  -6.3932  -6.2364  -6.1733  -6.0824
    -6.0729  -6.0718  -6.0714  -6.0707  -6.0695  -5.9411  -5.7444  -5.7001
    -5.6997  -5.6995  -5.6990  -5.6984  -5.6982  -5.6902  -5.6471  -5.5066
    -5.0524  -4.9621  -4.9620  -4.9616  -4.9362  -4.9360  -4.9358  -4.6358
    -4.6354  -4.6351  -4.6350  -4.6346  -4.6344  -4.2833  -4.2823  -4.2815
    -4.2504  -4.2490  -4.2478  -4.1998  -4.1921  -4.1914  -4.1906  -4.1895
    -4.1864  -4.1626  -3.5915  -3.3724  -3.3702  -3.3684  -3.2106  -3.2104
    -3.2101  -3.2093  -3.2091  -3.2088  -3.0997  -3.0968  -3.0937  -2.1944
    -2.1927  -2.1908  -2.1890  -2.1874  -2.1822  -1.8811  -1.8778  -1.8742
    -1.5091  -1.5086  -1.5077  -1.5074  -1.5060  -1.5050  -1.4342  -1.4321
    -1.4307  -1.2005  -0.7701  -0.7699  -0.7694  -0.7691  -0.7675  -0.7673
    -0.6484  -0.6479  -0.6460  -0.6453  -0.6442  -0.6437  -0.0959  -0.0958
    -0.0932  -0.0928  -0.0909  -0.0903   0.1421   0.1457   0.1500   0.1533
     0.1549   0.1638   0.1672   0.1704   0.1741   0.2159   0.2161   0.2175
     0.2180   0.2191   0.2193   0.2290   0.2305   0.2316   0.8007   0.8011
     0.8018   0.8031   0.8034   0.8056   0.9249   0.9256   0.9262   0.9264
     0.9267   0.9275   1.1393   1.2870   1.2896   1.2934

          k = 0.0000 0.2887 0.0000 (236896 PWs)   bands (ev):

   -27.8027 -27.5657 -26.3305 -26.1186 -16.9590 -15.3580 -13.1221 -11.7886
   -10.7383 -10.1451 -10.1055 -10.0253  -9.9893  -9.6673  -9.6163  -9.6161
    -9.5846  -9.2792  -8.9294  -8.9077  -8.9074  -8.8732  -8.8730  -8.6290
    -8.5031  -8.1879  -8.1675  -8.1674  -8.1136  -7.8183  -7.8181  -7.7989
    -7.4492  -7.4133  -7.3986  -7.3984  -7.0835  -7.0827  -7.0251  -6.7169
    -6.7127  -6.6992  -6.6990  -6.6207  -6.3475  -6.3464  -6.3036  -6.3028
    -6.3026  -6.2345  -6.1704  -5.9509  -5.7444  -5.6907  -5.6253  -5.6250
    -5.6171  -5.6154  -5.6100  -5.6087  -5.6082  -5.5784  -5.5782  -5.5566
    -5.5063  -5.2543  -5.2167  -5.2166  -5.0524  -4.8907  -4.8903  -4.8253
    -4.5506  -4.5463  -4.5462  -4.5296  -4.5294  -4.4626  -4.4599  -4.1800
    -4.1773  -4.1707  -4.1459  -4.1456  -3.8469  -3.8467  -3.7420  -3.7397
    -3.5036  -3.4846  -3.4845  -3.4763  -3.4754  -3.4496  -3.3872  -3.1618
    -3.1306  -3.1303  -2.8010  -2.7405  -2.6518  -2.6505  -2.4519  -2.4490
    -2.3916  -2.3914  -2.3489  -2.3470  -2.1290  -2.1281  -2.0824  -2.0804
    -2.0516  -2.0501  -1.7585  -1.7560  -1.6940  -1.6938  -1.6796  -1.5800
    -1.5782  -1.4251  -1.1127  -1.0093  -1.0077  -1.0042  -0.9714  -0.9679
    -0.8644  -0.8639  -0.6957  -0.6953  -0.5511  -0.5499  -0.4229  -0.4212
    -0.4192  -0.3824  -0.3811  -0.1669  -0.1667  -0.1592  -0.1104  -0.1073
    -0.0853  -0.0775   0.0429   0.1430   0.1475   0.4618   0.4678   0.5421
     0.5437   0.5760   0.5783   0.7491   0.7532   0.7717   0.7747   0.9363
     0.9386   0.9539   0.9545   1.0818   1.0824   1.1286   1.1292   1.2247
     1.2636   1.2668   1.2853   1.3066   1.3108   1.4459

          k = 0.0000-0.5773 0.0000 (236880 PWs)   bands (ev):

   -27.8027 -27.5657 -26.3305 -26.1186 -16.9590 -15.3580 -13.1222 -11.7886
   -10.4588 -10.4552 -10.1450 -10.1055  -9.7465  -9.7438  -9.7094  -9.7093
    -9.6671  -9.5845  -9.0005  -9.0003  -8.6525  -8.6496  -8.6283  -8.2265
    -8.2263  -8.2260  -8.2256  -8.1140  -7.9105  -7.9104  -7.5234  -7.5232
    -7.5231  -7.5225  -7.4907  -7.4902  -7.4134  -7.1734  -7.1714  -7.0251
    -6.7911  -6.7902  -6.6217  -6.4436  -6.4431  -6.4426  -6.4424  -6.4383
    -6.4373  -6.2346  -6.1704  -6.0325  -6.0322  -6.0288  -6.0286  -5.9494
    -5.7443  -5.7166  -5.7156  -5.6902  -5.5067  -5.3399  -5.3396  -5.3372
    -5.3371  -5.2845  -5.2804  -5.0531  -4.9843  -4.9837  -4.9830  -4.9821
    -4.5533  -4.5506  -4.2837  -4.2830  -4.2813  -4.2809  -4.2702  -4.2695
    -4.1727  -3.8899  -3.8898  -3.8598  -3.8596  -3.2419  -3.2380  -3.2247
    -3.2246  -3.1847  -3.1847  -3.1842  -3.1839  -3.1736  -3.1733  -3.1226
    -3.1216  -3.1209  -3.1191  -2.9009  -2.9003  -2.8989  -2.8979  -2.5392
    -2.5361  -2.4871  -2.4860  -2.4746  -2.4738  -2.4726  -2.4716  -2.3252
    -2.3249  -2.0554  -2.0551  -1.7295  -1.7290  -1.4165  -1.4154  -1.4137
    -1.4120  -1.1683  -1.1672  -1.1664  -1.1648  -1.0938  -1.0923  -1.0008
    -1.0004  -0.9046  -0.9041  -0.8547  -0.8462  -0.7563  -0.7557  -0.7544
    -0.7536  -0.4558  -0.4556  -0.4210  -0.4207  -0.3216  -0.3202  -0.1668
    -0.1591   0.0865   0.0868   0.0873   0.0879   0.0981   0.0994   0.3023
     0.3025   0.3043   0.3051   0.7841   0.7847   0.9890   0.9898   0.9908
     0.9916   1.0049   1.0058   1.0091   1.0098   1.4719   1.4725   1.4727
     1.4739   1.4796   1.4799   1.4929   1.4953   1.4983

          k = 0.2500-0.1443 0.0000 (236890 PWs)   bands (ev):

   -27.8027 -27.5657 -26.3305 -26.1186 -16.9590 -15.3580 -13.1221 -11.7886
   -10.7383 -10.1450 -10.1055 -10.0253  -9.9893  -9.6673  -9.6164  -9.6161
    -9.5846  -9.2792  -8.9294  -8.9079  -8.9073  -8.8733  -8.8729  -8.6289
    -8.5030  -8.1877  -8.1678  -8.1672  -8.1138  -7.8187  -7.8178  -7.7988
    -7.4491  -7.4133  -7.3987  -7.3983  -7.0836  -7.0825  -7.0251  -6.7171
    -6.7131  -6.6995  -6.6987  -6.6196  -6.3473  -6.3461  -6.3036  -6.3031
    -6.3026  -6.2350  -6.1709  -5.9508  -5.7444  -5.6908  -5.6253  -5.6248
    -5.6172  -5.6153  -5.6097  -5.6089  -5.6086  -5.5786  -5.5784  -5.5567
    -5.5061  -5.2544  -5.2167  -5.2162  -5.0522  -4.8908  -4.8907  -4.8251
    -4.5504  -4.5466  -4.5465  -4.5297  -4.5290  -4.4626  -4.4601  -4.1807
    -4.1773  -4.1698  -4.1458  -4.1457  -3.8473  -3.8469  -3.7419  -3.7398
    -3.5036  -3.4848  -3.4840  -3.4760  -3.4755  -3.4495  -3.3871  -3.1624
    -3.1307  -3.1305  -2.8008  -2.7385  -2.6531  -2.6505  -2.4518  -2.4495
    -2.3919  -2.3913  -2.3487  -2.3470  -2.1295  -2.1286  -2.0844  -2.0804
    -2.0514  -2.0492  -1.7583  -1.7563  -1.6924  -1.6916  -1.6769  -1.5813
    -1.5781  -1.4246  -1.1127  -1.0094  -1.0074  -1.0041  -0.9747  -0.9678
    -0.8650  -0.8639  -0.6935  -0.6925  -0.5518  -0.5495  -0.4246  -0.4214
    -0.4189  -0.3823  -0.3809  -0.1672  -0.1669  -0.1594  -0.1121  -0.1077
    -0.0849  -0.0780   0.0441   0.1411   0.1495   0.4622   0.4674   0.5417
     0.5435   0.5750   0.5787   0.7507   0.7531   0.7676   0.7728   0.9345
     0.9390   0.9539   0.9544   1.0831   1.0836   1.1273   1.1280   1.2241
     1.2617   1.2674   1.2861   1.3043   1.3102   1.4460

          k = 0.2500-0.7217 0.0000 (236847 PWs)   bands (ev):

   -27.8027 -27.5657 -26.3305 -26.1186 -16.9590 -15.3580 -13.1221 -11.7886
   -10.5507 -10.1778 -10.1746 -10.1450 -10.1054  -9.8385  -9.6673  -9.5846
    -9.4663  -9.4644  -9.0587  -9.0583  -8.7436  -8.6289  -8.3735  -8.3718
    -8.3522  -8.3519  -8.3184  -8.1138  -7.9513  -7.9482  -7.6149  -7.4136
    -7.2667  -7.2662  -7.2642  -7.2488  -7.2468  -7.2155  -7.2151  -7.0257
    -6.8964  -6.8958  -6.8500  -6.8495  -6.6208  -6.5340  -6.5172  -6.5160
    -6.2356  -6.1759  -6.1697  -6.1661  -6.1533  -6.1525  -5.9519  -5.7987
    -5.7968  -5.7419  -5.6905  -5.5070  -5.4448  -5.4442  -5.3741  -5.0860
    -5.0852  -5.0738  -5.0523  -5.0372  -5.0366  -5.0094  -5.0050  -4.7149
    -4.7142  -4.6929  -4.6657  -4.3533  -4.3523  -4.1738  -4.0173  -4.0023
    -4.0016  -3.9777  -3.9624  -3.9199  -3.9183  -3.6588  -3.6580  -3.6131
    -3.6100  -3.3278  -3.3160  -3.3153  -3.2893  -3.2071  -3.1069  -2.9790
    -2.9733  -2.9453  -2.9432  -2.8697  -2.8673  -2.8319  -2.5793  -2.5770
    -2.5623  -2.5430  -2.2790  -2.2284  -2.2274  -2.1382  -2.1354  -2.0954
    -2.0924  -1.9361  -1.9291  -1.9269  -1.8548  -1.6181  -1.5578  -1.5537
    -1.4750  -1.4683  -1.4651  -1.4646  -1.2540  -1.2420  -1.1712  -1.0506
    -1.0479  -0.9376  -0.7399  -0.7393  -0.7157  -0.6587  -0.6579  -0.6238
    -0.6196  -0.5964  -0.5836  -0.5284  -0.3740  -0.3728  -0.0662  -0.0641
    -0.0159  -0.0151   0.0241   0.0255   0.2438   0.2462   0.3539   0.3550
     0.3815   0.3985   0.4036   0.4555   0.5963   0.5993   0.6956   0.6963
     0.7147   0.8887   1.0236   1.0239   1.0975   1.1559   1.1633   1.3962
     1.4025   1.6197   1.6401   1.6493   1.6922   1.7169

          k =-0.5000 0.2887 0.0000 (236880 PWs)   bands (ev):

   -27.8027 -27.5657 -26.3305 -26.1186 -16.9590 -15.3580 -13.1221 -11.7886
   -10.4585 -10.4554 -10.1450 -10.1055  -9.7463  -9.7441  -9.7096  -9.7093
    -9.6670  -9.5846  -9.0007  -9.0001  -8.6519  -8.6502  -8.6282  -8.2266
    -8.2263  -8.2259  -8.2255  -8.1140  -7.9108  -7.9100  -7.5236  -7.5233
    -7.5228  -7.5224  -7.4904  -7.4900  -7.4134  -7.1730  -7.1718  -7.0252
    -6.7909  -6.7901  -6.6209  -6.4438  -6.4431  -6.4427  -6.4421  -6.4382
    -6.4373  -6.2350  -6.1710  -6.0325  -6.0322  -6.0292  -6.0291  -5.9491
    -5.7444  -5.7164  -5.7146  -5.6905  -5.5070  -5.3397  -5.3395  -5.3378
    -5.3376  -5.2854  -5.2796  -5.0538  -4.9845  -4.9837  -4.9821  -4.9818
    -4.5534  -4.5507  -4.2835  -4.2830  -4.2818  -4.2814  -4.2703  -4.2692
    -4.1728  -3.8899  -3.8896  -3.8597  -3.8594  -3.2428  -3.2369  -3.2255
    -3.2251  -3.1845  -3.1844  -3.1841  -3.1840  -3.1727  -3.1719  -3.1223
    -3.1217  -3.1211  -3.1189  -2.9008  -2.9000  -2.8987  -2.8976  -2.5391
    -2.5367  -2.4879  -2.4869  -2.4765  -2.4757  -2.4725  -2.4715  -2.3270
    -2.3265  -2.0527  -2.0518  -1.7274  -1.7268  -1.4192  -1.4179  -1.4139
    -1.4118  -1.1684  -1.1673  -1.1668  -1.1644  -1.0941  -1.0926  -0.9980
    -0.9974  -0.9013  -0.9007  -0.8568  -0.8439  -0.7572  -0.7557  -0.7546
    -0.7530  -0.4573  -0.4564  -0.4218  -0.4211  -0.3223  -0.3202  -0.1665
    -0.1597   0.0864   0.0870   0.0873   0.0884   0.0975   0.0988   0.3014
     0.3016   0.3036   0.3050   0.7801   0.7808   0.9881   0.9887   0.9921
     0.9924   1.0033   1.0046   1.0075   1.0098   1.4651   1.4729   1.4731
     1.4736   1.4779   1.4867   1.4927   1.4954   1.4973

          k =-0.5000 0.5773 0.0000 (236845 PWs)   bands (ev):

   -27.8027 -27.5657 -26.3305 -26.1186 -16.9590 -15.3580 -13.1221 -11.7886
   -10.5507 -10.1780 -10.1744 -10.1450 -10.1055  -9.8385  -9.6673  -9.5847
    -9.4666  -9.4640  -9.0587  -9.0584  -8.7436  -8.6289  -8.3739  -8.3714
    -8.3524  -8.3518  -8.3182  -8.1137  -7.9514  -7.9478  -7.6148  -7.4136
    -7.2669  -7.2661  -7.2642  -7.2491  -7.2464  -7.2157  -7.2152  -7.0257
    -6.8972  -6.8949  -6.8498  -6.8495  -6.6209  -6.5336  -6.5173  -6.5165
    -6.2359  -6.1776  -6.1685  -6.1651  -6.1529  -6.1525  -5.9522  -5.7990
    -5.7967  -5.7420  -5.6905  -5.5073  -5.4449  -5.4439  -5.3741  -5.0859
    -5.0851  -5.0760  -5.0499  -5.0373  -5.0368  -5.0092  -5.0054  -4.7147
    -4.7140  -4.6931  -4.6660  -4.3533  -4.3525  -4.1736  -4.0167  -4.0025
    -4.0018  -3.9789  -3.9620  -3.9201  -3.9184  -3.6588  -3.6580  -3.6131
    -3.6096  -3.3277  -3.3159  -3.3154  -3.2890  -3.2070  -3.1054  -2.9780
    -2.9742  -2.9454  -2.9428  -2.8692  -2.8678  -2.8348  -2.5792  -2.5777
    -2.5623  -2.5435  -2.2785  -2.2276  -2.2265  -2.1370  -2.1353  -2.0938
    -2.0923  -1.9357  -1.9289  -1.9275  -1.8559  -1.6213  -1.5558  -1.5536
    -1.4718  -1.4684  -1.4672  -1.4667  -1.2525  -1.2415  -1.1700  -1.0494
    -1.0480  -0.9376  -0.7428  -0.7423  -0.7171  -0.6588  -0.6578  -0.6218
    -0.6198  -0.5942  -0.5857  -0.5262  -0.3737  -0.3723  -0.0655  -0.0641
    -0.0148  -0.0139   0.0242   0.0254   0.2438   0.2453   0.3545   0.3556
     0.3804   0.3987   0.4027   0.4562   0.5944   0.5963   0.6958   0.6964
     0.7108   0.8888   1.0237   1.0242   1.0999   1.1557   1.1597   1.3949
     1.4020   1.6203   1.6424   1.6472   1.6914   1.7226

          k =-0.2500-0.1443 0.0000 (236890 PWs)   bands (ev):

   -27.8027 -27.5657 -26.3305 -26.1186 -16.9590 -15.3580 -13.1221 -11.7886
   -10.7383 -10.1450 -10.1055 -10.0253  -9.9893  -9.6674  -9.6163  -9.6161
    -9.5846  -9.2792  -8.9294  -8.9078  -8.9074  -8.8733  -8.8730  -8.6289
    -8.5030  -8.1877  -8.1678  -8.1672  -8.1137  -7.8185  -7.8179  -7.7988
    -7.4491  -7.4133  -7.3986  -7.3983  -7.0837  -7.0825  -7.0250  -6.7172
    -6.7131  -6.6994  -6.6988  -6.6197  -6.3475  -6.3460  -6.3035  -6.3031
    -6.3026  -6.2348  -6.1709  -5.9510  -5.7442  -5.6908  -5.6253  -5.6249
    -5.6169  -5.6155  -5.6097  -5.6090  -5.6085  -5.5786  -5.5783  -5.5566
    -5.5061  -5.2544  -5.2166  -5.2163  -5.0521  -4.8908  -4.8905  -4.8250
    -4.5505  -4.5466  -4.5464  -4.5296  -4.5291  -4.4625  -4.4602  -4.1805
    -4.1774  -4.1699  -4.1457  -4.1455  -3.8473  -3.8469  -3.7418  -3.7399
    -3.5036  -3.4848  -3.4843  -3.4757  -3.4753  -3.4499  -3.3872  -3.1636
    -3.1306  -3.1304  -2.8006  -2.7366  -2.6531  -2.6518  -2.4519  -2.4496
    -2.3923  -2.3918  -2.3486  -2.3471  -2.1303  -2.1298  -2.0844  -2.0824
    -2.0499  -2.0492  -1.7583  -1.7564  -1.6903  -1.6897  -1.6741  -1.5812
    -1.5795  -1.4241  -1.1127  -1.0082  -1.0071  -1.0047  -0.9747  -0.9714
    -0.8650  -0.8642  -0.6903  -0.6898  -0.5512  -0.5501  -0.4247  -0.4233
    -0.4189  -0.3815  -0.3806  -0.1675  -0.1669  -0.1603  -0.1121  -0.1091
    -0.0850  -0.0782   0.0448   0.1434   0.1472   0.4622   0.4674   0.5421
     0.5436   0.5758   0.5777   0.7513   0.7530   0.7655   0.7677   0.9349
     0.9371   0.9539   0.9546   1.0842   1.0845   1.1260   1.1262   1.2241
     1.2626   1.2653   1.2858   1.3039   1.3084   1.4460

          k =-0.2500-0.7217 0.0000 (236847 PWs)   bands (ev):

   -27.8027 -27.5657 -26.3305 -26.1186 -16.9590 -15.3580 -13.1221 -11.7886
   -10.5507 -10.1780 -10.1745 -10.1450 -10.1054  -9.8385  -9.6673  -9.5846
    -9.4667  -9.4639  -9.0587  -9.0583  -8.7436  -8.6290  -8.3740  -8.3713
    -8.3524  -8.3517  -8.3184  -8.1138  -7.9515  -7.9480  -7.6149  -7.4136
    -7.2667  -7.2662  -7.2641  -7.2493  -7.2464  -7.2157  -7.2149  -7.0257
    -6.8968  -6.8954  -6.8500  -6.8495  -6.6207  -6.5340  -6.5168  -6.5165
    -6.2358  -6.1749  -6.1697  -6.1666  -6.1534  -6.1524  -5.9526  -5.7987
    -5.7956  -5.7427  -5.6905  -5.5070  -5.4448  -5.4442  -5.3740  -5.0861
    -5.0850  -5.0736  -5.0526  -5.0373  -5.0364  -5.0093  -5.0051  -4.7153
    -4.7139  -4.6930  -4.6659  -4.3529  -4.3525  -4.1738  -4.0185  -4.0023
    -4.0017  -3.9766  -3.9623  -3.9200  -3.9183  -3.6588  -3.6578  -3.6131
    -3.6097  -3.3278  -3.3159  -3.3154  -3.2891  -3.2071  -3.1092  -2.9795
    -2.9727  -2.9454  -2.9425  -2.8699  -2.8669  -2.8288  -2.5778  -2.5770
    -2.5624  -2.5428  -2.2791  -2.2294  -2.2289  -2.1385  -2.1365  -2.0954
    -2.0939  -1.9368  -1.9290  -1.9267  -1.8536  -1.6145  -1.5579  -1.5557
    -1.4750  -1.4717  -1.4634  -1.4625  -1.2560  -1.2423  -1.1734  -1.0517
    -1.0479  -0.9377  -0.7370  -0.7362  -0.7141  -0.6583  -0.6576  -0.6243
    -0.6209  -0.5970  -0.5830  -0.5310  -0.3741  -0.3725  -0.0665  -0.0656
    -0.0172  -0.0166   0.0245   0.0255   0.2447   0.2467   0.3524   0.3536
     0.3830   0.3992   0.4026   0.4544   0.5998   0.6010   0.6958   0.6966
     0.7196   0.8885   1.0233   1.0244   1.0943   1.1600   1.1634   1.3961
     1.4038   1.6191   1.6396   1.6500   1.6913   1.7140

          k = 0.5000 0.2887 0.0000 (236880 PWs)   bands (ev):

   -27.8027 -27.5657 -26.3305 -26.1186 -16.9590 -15.3580 -13.1221 -11.7886
   -10.4587 -10.4553 -10.1450 -10.1055  -9.7466  -9.7437  -9.7096  -9.7093
    -9.6671  -9.5846  -9.0006  -9.0002  -8.6529  -8.6493  -8.6281  -8.2265
    -8.2262  -8.2261  -8.2254  -8.1140  -7.9107  -7.9102  -7.5236  -7.5233
    -7.5231  -7.5222  -7.4906  -7.4899  -7.4134  -7.1734  -7.1714  -7.0252
    -6.7908  -6.7902  -6.6210  -6.4437  -6.4432  -6.4427  -6.4421  -6.4383
    -6.4372  -6.2349  -6.1710  -6.0325  -6.0325  -6.0291  -6.0290  -5.9496
    -5.7436  -5.7163  -5.7154  -5.6904  -5.5070  -5.3404  -5.3397  -5.3373
    -5.3371  -5.2856  -5.2795  -5.0537  -4.9843  -4.9835  -4.9824  -4.9819
    -4.5533  -4.5509  -4.2839  -4.2836  -4.2809  -4.2809  -4.2699  -4.2697
    -4.1728  -3.8900  -3.8898  -3.8598  -3.8596  -3.2433  -3.2364  -3.2265
    -3.2263  -3.1845  -3.1844  -3.1838  -3.1834  -3.1715  -3.1709  -3.1225
    -3.1213  -3.1210  -3.1192  -2.9005  -2.8990  -2.8982  -2.8972  -2.5392
    -2.5368  -2.4889  -2.4884  -2.4765  -2.4757  -2.4745  -2.4735  -2.3293
    -2.3290  -2.0492  -2.0486  -1.7256  -1.7248  -1.4192  -1.4180  -1.4163
    -1.4149  -1.1684  -1.1673  -1.1665  -1.1649  -1.0937  -1.0924  -0.9952
    -0.9944  -0.8972  -0.8969  -0.8574  -0.8432  -0.7569  -0.7557  -0.7544
    -0.7523  -0.4584  -0.4577  -0.4227  -0.4222  -0.3225  -0.3217  -0.1666
    -0.1598   0.0870   0.0875   0.0878   0.0879   0.0961   0.0974   0.3012
     0.3016   0.3032   0.3043   0.7757   0.7762   0.9880   0.9886   0.9927
     0.9929   1.0033   1.0041   1.0064   1.0085   1.4637   1.4722   1.4732
     1.4737   1.4772   1.4878   1.4936   1.4946   1.4980

     the Fermi energy is    -0.0037 ev

!    total energy              =   -3434.73386281 Ry
     estimated scf accuracy    <          9.1E-11 Ry
     smearing contrib. (-TS)   =      -0.00842381 Ry
     internal energy E=F+TS    =   -3434.72543900 Ry

     The total energy is F=E-TS. E is the sum of the following terms:
     one-electron contribution =  -11647.21791348 Ry
     hartree contribution      =    5896.27448336 Ry
     xc contribution           =    -264.12772318 Ry
     ewald contribution        =    5379.22773410 Ry
     one-center paw contrib.   =   -2798.88201980 Ry

     convergence has been achieved in  15 iterations

     negative rho (up, down):  1.424E-03 0.000E+00

     Forces acting on atoms (cartesian axes, Ry/au):

     atom    1 type  1   force =    -0.00001987   -0.00005233    0.00005670
     atom    2 type  1   force =    -0.00023364   -0.00011726   -0.00009654
     atom    3 type  1   force =     0.00011019   -0.00017705   -0.00005411
     atom    4 type  1   force =     0.00001443   -0.00005648    0.00000411
     atom    5 type  1   force =    -0.00020770   -0.00024375    0.00002060
     atom    6 type  1   force =    -0.00011033   -0.00012736   -0.00023549
     atom    7 type  1   force =     0.00016383   -0.00018765   -0.00016652
     atom    8 type  1   force =    -0.00000137   -0.00012069    0.00000270
     atom    9 type  1   force =    -0.00003997    0.00017219   -0.00010894
     atom   10 type  1   force =    -0.00002835    0.00022271   -0.00014304
     atom   11 type  1   force =    -0.00003678   -0.00001391   -0.00013370
     atom   12 type  1   force =    -0.00003623   -0.00009337   -0.00013119
     atom   13 type  1   force =    -0.00000330   -0.00002165    0.00001961
     atom   14 type  1   force =    -0.00005072   -0.00001736    0.00003438
     atom   15 type  1   force =    -0.00009749   -0.00001455   -0.00013645
     atom   16 type  1   force =    -0.00000838   -0.00002045   -0.00001454
     atom   17 type  1   force =    -0.00010755    0.00015039    0.00002019
     atom   18 type  1   force =    -0.00018140   -0.00009978    0.00023947
     atom   19 type  1   force =     0.00006371   -0.00023653    0.00036064
     atom   20 type  1   force =     0.00016721    0.00001354    0.00008861
     atom   21 type  1   force =    -0.00012673   -0.00013949    0.00019047
     atom   22 type  1   force =    -0.00007066   -0.00018674    0.00008976
     atom   23 type  1   force =     0.00003023   -0.00009180    0.00022816
     atom   24 type  1   force =     0.00010773   -0.00020511    0.00006680
     atom   25 type  1   force =    -0.00016137    0.00000615    0.00005225
     atom   26 type  1   force =     0.00001637    0.00001887   -0.00007762
     atom   27 type  1   force =     0.00021402   -0.00003049    0.00026162
     atom   28 type  1   force =    -0.00013925   -0.00009431    0.00025963
     atom   29 type  1   force =    -0.00004780    0.00006119    0.00027636
     atom   30 type  1   force =     0.00007405    0.00019830    0.00036386
     atom   31 type  1   force =     0.00002321    0.00003717    0.00031903
     atom   32 type  1   force =    -0.00010913    0.00017406    0.00036984
     atom   33 type  1   force =    -0.00016130   -0.00014359    0.00000423
     atom   34 type  1   force =    -0.00008767   -0.00010178   -0.00003774
     atom   35 type  1   force =     0.00022301   -0.00013327   -0.00013704
     atom   36 type  1   force =     0.00002248   -0.00005166    0.00016797
     atom   37 type  1   force =    -0.00034078   -0.00019841    0.00001108
     atom   38 type  1   force =     0.00005738   -0.00010390    0.00020397
     atom   39 type  1   force =     0.00039659   -0.00016737   -0.00015137
     atom   40 type  1   force =    -0.00019157   -0.00007543   -0.00001024
     atom   41 type  1   force =    -0.00001810    0.00013088    0.00017542
     atom   42 type  1   force =     0.00010129    0.00004795   -0.00005308
     atom   43 type  1   force =     0.00003434   -0.00004504    0.00002202
     atom   44 type  1   force =    -0.00003081   -0.00001211   -0.00004390
     atom   45 type  1   force =     0.00000671    0.00047293   -0.00015182
     atom   46 type  1   force =    -0.00007492    0.00007591    0.00006595
     atom   47 type  1   force =     0.00005162    0.00004221    0.00012437
     atom   48 type  1   force =     0.00002941    0.00024835    0.00000067
     atom   49 type  1   force =     0.00000744   -0.00000369    0.00007996
     atom   50 type  1   force =    -0.00003754   -0.00011348   -0.00001886
     atom   51 type  1   force =     0.00003093   -0.00017289   -0.00016510
     atom   52 type  1   force =     0.00008437    0.00000186    0.00000149
     atom   53 type  1   force =    -0.00012968    0.00001670   -0.00012536
     atom   54 type  1   force =    -0.00004275    0.00002149    0.00001947
     atom   55 type  1   force =     0.00007966   -0.00000424   -0.00008969
     atom   56 type  1   force =     0.00007000   -0.00002267   -0.00006635
     atom   57 type  1   force =    -0.00007388    0.00012785   -0.00003391
     atom   58 type  1   force =     0.00004416    0.00011508   -0.00021603
     atom   59 type  1   force =     0.00015313    0.00010593   -0.00002738
     atom   60 type  1   force =     0.00000880    0.00012624    0.00002393
     atom   61 type  1   force =     0.00003198    0.00006843    0.00008393
     atom   62 type  1   force =    -0.00002070    0.00014291   -0.00008254
     atom   63 type  1   force =     0.00000978   -0.00006189    0.00008140
     atom   64 type  1   force =    -0.00003838   -0.00001184   -0.00011153
     atom   65 type  1   force =     0.00018204   -0.00014555   -0.00000089
     atom   66 type  1   force =    -0.00006445    0.00016175   -0.00009758
     atom   67 type  1   force =     0.00010313    0.00034078   -0.00013935
     atom   68 type  1   force =    -0.00012472   -0.00004624   -0.00023737
     atom   69 type  1   force =     0.00011737    0.00014149   -0.00023164
     atom   70 type  1   force =     0.00009984   -0.00000055    0.00002157
     atom   71 type  1   force =     0.00004046    0.00002443   -0.00022975
     atom   72 type  1   force =    -0.00003077    0.00029489   -0.00007198
     atom   73 type  1   force =    -0.00001766    0.00005876    0.00005607
     atom   74 type  1   force =     0.00011898    0.00017956    0.00034318
     atom   75 type  1   force =    -0.00003510   -0.00003362   -0.00004932
     atom   76 type  1   force =     0.00004088   -0.00016240   -0.00028810
     atom   77 type  1   force =     0.00008169    0.00004342   -0.00015433
     atom   78 type  1   force =    -0.00011390    0.00000120   -0.00041733
     atom   79 type  1   force =    -0.00009798   -0.00003543    0.00000150
     atom   80 type  1   force =     0.00028640    0.00003395   -0.00005593
     atom   81 type  2   force =    -0.00047145   -0.00001577   -0.00051515
     atom   82 type  2   force =     0.00022994   -0.00011328   -0.00064439
     atom   83 type  3   force =    -0.00013575    0.00029575   -0.00048842
     atom   84 type  3   force =    -0.00006276    0.00010956    0.00073026
     atom   85 type  3   force =    -0.00009026   -0.00062515    0.00068243
     atom   86 type  2   force =     0.00011313   -0.00034071   -0.00019585
     atom   87 type  4   force =     0.00052747    0.00000379    0.00020784
     atom   88 type  3   force =    -0.00043084   -0.00020605    0.00078003
     atom   89 type  2   force =     0.00013641    0.00024574    0.00006090
     atom   90 type  4   force =     0.00010253    0.00055594    0.00006892
     atom   91 type  3   force =     0.00001974   -0.00019981   -0.00069071
     atom   92 type  4   force =     0.00034683    0.00014028   -0.00056865
     atom   93 type  4   force =    -0.00035523    0.00047441   -0.00026293
     atom   94 type  3   force =     0.00012205   -0.00020903    0.00081638

     Total force =     0.003342     Total SCF correction =     0.000015


     Computing stress (Cartesian axis) and pressure


     negative rho (up, down):  1.424E-03 0.000E+00
          total   stress  (Ry/bohr**3)                   (kbar)     P=       -6.95
  -0.00007027   0.00000015   0.00000037          -10.34        0.02        0.05
   0.00000015  -0.00007068   0.00000052            0.02      -10.40        0.08
   0.00000037   0.00000052  -0.00000079            0.05        0.08       -0.12

     Energy error            =      2.5E-05 Ry
     Gradient error          =      8.2E-04 Ry/Bohr

     bfgs converged in  46 scf cycles and  45 bfgs steps
     (criteria: energy <  1.0E-04 Ry, force <  1.0E-03 Ry/Bohr)

     End of BFGS Geometry Optimization

     Final energy             =   -3434.7338628084 Ry

     File ./tmp/al_pvdf.bfgs deleted, as requested
Begin final coordinates

ATOMIC_POSITIONS (angstrom)
Al              11.4543063415        1.6511351800       14.8016087101
Al               2.8639807080        1.6516755532       14.8010101837
Al               5.7257602444        1.6522406881       14.7999564710
Al               8.5896521637        1.6511276128       14.8004205943
Al              12.8873104315        4.1321703173       14.7989817452
Al               4.2951144710        4.1316052352       14.8050577734
Al               7.1571380792        4.1317557424       14.8027794086
Al              10.0219992454        4.1315820632       14.8001398191
Al              14.3182696265        6.6096616131       14.8005771910
Al               5.7264234628        6.6095945286       14.8019249835
Al               8.5900145033        6.6109027246       14.8004732157
Al              11.4541453242        6.6112673483       14.8000190096
Al              15.7495493369        9.0910181663       14.8006571276
Al               7.1585986125        9.0911457201       14.7994677451
Al              10.0225360444        9.0914483344       14.8006432637
Al              12.8859958232        9.0914032358       14.7993061967
Al              -0.0021479185       -0.0069362653       17.1681075913
Al               2.8618976122       -0.0052303022       17.1656958907
Al               5.7243297550       -0.0042164427       17.1646749839
Al               8.5865387247       -0.0059860133       17.1669898194
Al               1.4295054601        2.4755375307       17.1659235566
Al               4.2929149045        2.4752993509       17.1679351810
Al               7.1565412496        2.4744518186       17.1662231004
Al              10.0194394500        2.4760568211       17.1678934379
Al               2.8608415463        4.9548710695       17.1680233936
Al               5.7246921812        4.9549153153       17.1704532478
Al               8.5872078190        4.9547892585       17.1666913087
Al              11.4528686812        4.9551824115       17.1651062104
Al               4.2926594604        7.4351421008       17.1658011326
Al               7.1561042645        7.4339691930       17.1651733378
Al              10.0200012772        7.4344376158       17.1651026781
Al              12.8843921884        7.4337151545       17.1643516020
Al               1.4280224955        0.8179691643       19.5089161784
Al               4.2910919020        0.8180983371       19.5095438784
Al               7.1525405585        0.8179430580       19.5104157636
Al              10.0172677269        0.8176558777       19.5080087399
Al               2.8593937882        3.2988276875       19.5091334603
Al               5.7227908597        3.2975247003       19.5076887637
Al               8.5840942464        3.2985518391       19.5106415908
Al              11.4511143183        3.2988656631       19.5092468923
Al               4.2898635879        5.7784696036       19.5080137378
Al               7.1541716445        5.7784509860       19.5105201715
Al              10.0174975045        5.7778460732       19.5087730691
Al              12.8811185997        5.7779175562       19.5100025352
Al               5.7224670416        8.2555039775       19.5102894740
Al               8.5862764575        8.2576868162       19.5078809347
Al              11.4497462691        8.2578511640       19.5070400640
Al              14.3126971882        8.2568415651       19.5085743697
Al              11.4475372156        1.6409331672       21.8499077914
Al               2.8562960319        1.6413579175       21.8515409966
Al               5.7203479163        1.6417730444       21.8531957694
Al               8.5825753626        1.6408548145       21.8522875007
Al              12.8796238918        4.1210229658       21.8538607778
Al               4.2886592209        4.1207452080       21.8461136597
Al               7.1520680610        4.1208638705       21.8510797181
Al              10.0151851038        4.1215267672       21.8529240271
Al              14.3115047665        6.6012531084       21.8515462035
Al               5.7198986264        6.6012889363       21.8527784880
Al               8.5823090596        6.6008458969       21.8527704921
Al              11.4471609118        6.6003959936       21.8513922327
Al              15.7427029391        9.0805555277       21.8506361889
Al               7.1524179233        9.0795381510       21.8525240571
Al              10.0159251790        9.0817248654       21.8498274526
Al              12.8795610016        9.0815280293       21.8524014370
Al              -0.0104188569       -0.0159601527       24.2167036321
Al               2.8545788934       -0.0170096089       24.2183979910
Al               5.7176375908       -0.0171660696       24.2193512890
Al               8.5821160180       -0.0155558340       24.2207578916
Al               1.4216277496        2.4637720183       24.2202252992
Al               4.2853621501        2.4638369292       24.2162542647
Al               7.1488839073        2.4646879491       24.2232769925
Al              10.0129837098        2.4636067580       24.2186783611
Al               2.8543561854        4.9444795545       24.2136476258
Al               5.7174729144        4.9432182065       24.2134970804
Al               8.5810711618        4.9449397558       24.2218320572
Al              11.4450398752        4.9458412033       24.2223820891
Al               4.2857293330        7.4239176349       24.2221531668
Al               7.1499026630        7.4239810067       24.2264945632
Al              10.0135835215        7.4250956175       24.2176089369
Al              12.8763038613        7.4249415268       24.2186108983
C                3.3152981597        4.7648228322       29.3949436710
C                4.7166875541        4.9953685983       28.8747125861
H                2.6049673570        4.9223170404       28.5749705221
H                3.2107131369        3.7375127542       29.7637446711
H                3.0896256968        5.4713867198       30.2028464273
C                5.8162525953        4.8203839228       29.9240759675
F                4.9421990438        4.1298371373       27.8071388734
H                5.6790910670        3.8435763767       30.4086515662
C                7.2667067126        4.8843776365       29.4678726856
F                4.7847873901        6.2817254084       28.3447150610
H                5.6707881694        5.5917606209       30.6944012851
F                7.5345360645        6.0286369312       28.7448900380
F                7.5953340437        3.8026899980       28.6714872992
H                7.9585534070        4.8727554855       30.3256560110
End final coordinates



     Writing all to output data dir ./tmp/al_pvdf.save/ :
     XML data file, charge density, pseudopotentials, collected wavefunctions

     init_run     :    114.00s CPU    119.21s WALL (       1 calls)
     electrons    :  35568.58s CPU  40036.86s WALL (      11 calls)
     update_pot   :     23.97s CPU     25.02s WALL (      10 calls)
     forces       :    588.55s CPU    613.21s WALL (      11 calls)
     stress       :   2181.91s CPU   2244.67s WALL (      11 calls)

     Called by init_run:
     wfcinit      :    106.50s CPU    109.84s WALL (       1 calls)
     potinit      :      2.02s CPU      2.76s WALL (       1 calls)
     hinit0       :      1.24s CPU      1.35s WALL (       1 calls)

     Called by electrons:
     c_bands      :  30139.42s CPU  31154.83s WALL (     199 calls)
     sum_band     :   4618.82s CPU   7853.11s WALL (     199 calls)
     v_of_rho     :    107.73s CPU    125.60s WALL (     209 calls)
     newd         :    425.54s CPU    629.50s WALL (     209 calls)
     PAW_pot      :    299.05s CPU    300.71s WALL (     219 calls)
     mix_rho      :     20.81s CPU     23.25s WALL (     199 calls)

     Called by c_bands:
     init_us_2    :    683.41s CPU    690.35s WALL (    4310 calls)
     cegterg      :  28638.80s CPU  29644.07s WALL (    1994 calls)

     Called by *egterg:
     cdiaghg      :    806.76s CPU    829.76s WALL (    9429 calls)
     h_psi        :  18076.42s CPU  18771.34s WALL (    9553 calls)
     s_psi        :   4783.90s CPU   4810.10s WALL (    9553 calls)
     g_psi        :     30.40s CPU     30.66s WALL (    7549 calls)

     Called by h_psi:
     h_psi:calbec :   5087.40s CPU   5131.36s WALL (    9553 calls)
     vloc_psi     :   8154.07s CPU   8714.83s WALL (    9553 calls)
                                        0.00s GPU  (    9553 calls)
     add_vuspsi   :   4801.16s CPU   4827.63s WALL (    9553 calls)

     General routines
     calbec       :   9017.51s CPU  11999.49s WALL (   13513 calls)
     fft          :    116.69s CPU    127.54s WALL (    2981 calls)
     ffts         :      3.31s CPU      3.80s WALL (     408 calls)
     fftw         :   8322.21s CPU   8980.43s WALL ( 2043140 calls)
     interpolate  :      7.88s CPU      8.64s WALL (     209 calls)

     Parallel routines

     PWSCF        :     10h43m CPU     12h 0m WALL


   This run was terminated on:  20:54:49   5Jul2026            

=------------------------------------------------------------------------------=
   JOB DONE.
=------------------------------------------------------------------------------=
