
     Program PWSCF v.7.5 starts on  7Jul2026 at 12:26:32 

     This program is part of the open-source Quantum ESPRESSO suite
     for quantum simulation of materials; please cite
         "P. Giannozzi et al., J. Phys.:Condens. Matter 21 395502 (2009);
         "P. Giannozzi et al., J. Phys.:Condens. Matter 29 465901 (2017);
         "P. Giannozzi et al., J. Chem. Phys. 152 154105 (2020);
          URL http://www.quantum-espresso.org", 
     in publications or presentations arising from this work. More details at
     http://www.quantum-espresso.org/quote

     Parallel version (MPI), running on    24 processors

     MPI processes distributed on     1 nodes
     208494 MiB available memory on the printing compute node when the environment starts

     Reading input from al2o3_scf.in

     Current dimensions of program PWSCF are:
     Max number of different atomic species (ntypx) = 10
     Max number of k-points (npk) =  40000
     Max angular momentum in pseudopotentials (lmaxx) =  4
     file Al.pbe-n-kjpaw_psl.1.0.0.UPF: wavefunction(s)  3S 3P renormalized
     file O.pbe-n-kjpaw_psl.0.1.UPF: wavefunction(s)  2P renormalized
     Found identity + (  0.0000 -0.5000  0.0000) symmetry
     This is a supercell, fractional translations are disabled
     Message from routine setup:
     using ibrav=0 with symmetry is DISCOURAGED, use correct ibrav instead

     R & G space division:  proc/nbgrp/npool/nimage =      24
     Subspace diagonalization in iterative solution of the eigenvalue problem:
     one sub-group per band group will be used
     custom distributed-memory algorithm (size of sub-group:  3*  3 procs)


     Parallelization info
     --------------------
     sticks:   dense  smooth     PW     G-vecs:    dense   smooth      PW
     Min         455     227     59               157159    55563    7561
     Max         456     228     60               157166    55578    7590
     Sum       10939    5461   1429              3771945  1333651  181653

     Using Slab Decomposition



     bravais-lattice index     =            0
     lattice parameter (alat)  =      18.1604  a.u.
     unit-cell volume          =   21237.8132 (a.u.)^3
     number of atoms/cell      =          120
     number of atomic types    =            2
     number of electrons       =       576.00
     number of Kohn-Sham states=          288
     kinetic-energy cutoff     =      60.0000  Ry
     charge density cutoff     =     480.0000  Ry
     scf convergence threshold =      1.0E-08
     mixing beta               =       0.3000
     number of iterations used =            8  plain     mixing
     Exchange-correlation= SLA  PW   PBX  PBC
                           (   1   4   3   4   0   0   0)

     celldm(1)=  18.160371  celldm(2)=   0.000000  celldm(3)=   0.000000
     celldm(4)=   0.000000  celldm(5)=   0.000000  celldm(6)=   0.000000

     crystal axes: (cart. coord. in units of alat)
               a(1) = (   1.000000   0.000000   0.000000 )  
               a(2) = (  -0.500000   0.866025   0.000000 )  
               a(3) = (   0.000000   0.000000   4.094541 )  

     reciprocal axes: (cart. coord. in units 2 pi/alat)
               b(1) = (  1.000000  0.577351 -0.000000 )  
               b(2) = (  0.000000  1.154701  0.000000 )  
               b(3) = (  0.000000 -0.000000  0.244228 )  


     PseudoPot. # 1 for Al read from file:
     ./Al.pbe-n-kjpaw_psl.1.0.0.UPF
     MD5 check sum: cfc449ca30b5f3223ec38ddd88ac046d
     Pseudo is Projector augmented-wave + core cor, Zval =  3.0
     Generated using "atomic" code by A. Dal Corso  v.5.1
     Shape of augmentation charge: PSQ
     Using radial grid of 1135 points,  6 beta functions with: 
                l(1) =   0
                l(2) =   0
                l(3) =   1
                l(4) =   1
                l(5) =   2
                l(6) =   2
     Q(r) pseudized with 0 coefficients 


     PseudoPot. # 2 for O  read from file:
     ./O.pbe-n-kjpaw_psl.0.1.UPF
     MD5 check sum: 0234752ac141de4415c5fc33072bef88
     Pseudo is Projector augmented-wave + core cor, Zval =  6.0
     Generated using "atomic" code by A. Dal Corso  v.5.0.99 svn rev. 10869
     Shape of augmentation charge: BESSEL
     Using radial grid of 1095 points,  4 beta functions with: 
                l(1) =   0
                l(2) =   0
                l(3) =   1
                l(4) =   1
     Q(r) pseudized with 0 coefficients 


     atomic species   valence    mass     pseudopotential
     Al                3.00    26.98154     Al( 1.00)
     O                 6.00    15.99900     O ( 1.00)

      6 Sym. Ops., with inversion, found



   Cartesian axes

     site n.     atom                  positions (alat units)
         1        Al     tau(   1) = (   0.0000000   0.2886751   2.4969893  )
         2        Al     tau(   2) = (   0.2500000   0.1443376   2.2977772  )
         3        Al     tau(   3) = (   0.0000000   0.0000000   2.2508135  )
         4        Al     tau(   4) = (  -0.0000000   0.2886751   2.0745549  )
         5        Al     tau(   5) = (   0.0000000   0.0000000   1.5695993  )
         6        Al     tau(   6) = (   0.0000000   0.2886751   1.4658601  )
         7        Al     tau(   7) = (   0.2500000   0.1443376   2.6286807  )
         8        Al     tau(   8) = (   0.0000000   0.0000000   2.5249415  )
         9        Al     tau(   9) = (   0.2500000   0.1443376   2.0199859  )
        10        Al     tau(  10) = (   0.0000000   0.0000000   1.8437273  )
        11        Al     tau(  11) = (   0.0000000   0.2886751   1.7967636  )
        12        Al     tau(  12) = (   0.2500000   0.1443376   1.5975515  )
        13        O      tau(  13) = (   0.0968681   0.1437070   2.1610469  )
        14        O      tau(  14) = (   0.1725498   0.2980776   2.3907832  )
        15        O      tau(  15) = (   0.3260199   0.2772690   2.1610469  )
        16        O      tau(  16) = (   0.3271120   0.0120367   2.1610469  )
        17        O      tau(  17) = (   0.4218679   0.1345414   2.3907832  )
        18        O      tau(  18) = (   0.1555823   0.0003937   2.3907832  )
        19        O      tau(  19) = (  -0.1576935   0.2955292   2.6169175  )
        20        O      tau(  20) = (   0.1652175   0.0111980   1.4776233  )
        21        O      tau(  21) = (   0.0847825   0.4218147   2.6169175  )
        22        O      tau(  22) = (   0.0729110   0.1486816   2.6169175  )
        23        O      tau(  23) = (   0.1770890   0.2843311   1.4776233  )
        24        O      tau(  24) = (   0.4076935   0.1374835   1.4776233  )
        25        O      tau(  25) = (   0.3444177  -0.0003937   1.7037575  )
        26        O      tau(  26) = (  -0.0760199   0.1557437   1.9334939  )
        27        O      tau(  27) = (   0.0774502   0.1349351   1.7037575  )
        28        O      tau(  28) = (   0.3281321   0.2984713   1.7037575  )
        29        O      tau(  29) = (  -0.0771120   0.4209760   1.9334939  )
        30        O      tau(  30) = (   0.1531319   0.2893057   1.9334939  )
        31        Al     tau(  31) = (  -0.2500000   0.7216878   2.4969893  )
        32        Al     tau(  32) = (   0.0000000   0.5773503   2.2977772  )
        33        Al     tau(  33) = (  -0.2500000   0.4330127   2.2508135  )
        34        Al     tau(  34) = (  -0.2500000   0.7216878   2.0745549  )
        35        Al     tau(  35) = (  -0.2500000   0.4330127   1.5695993  )
        36        Al     tau(  36) = (  -0.2500000   0.7216878   1.4658601  )
        37        Al     tau(  37) = (   0.0000000   0.5773503   2.6286807  )
        38        Al     tau(  38) = (  -0.2500000   0.4330127   2.5249415  )
        39        Al     tau(  39) = (   0.0000000   0.5773503   2.0199859  )
        40        Al     tau(  40) = (  -0.2500000   0.4330127   1.8437273  )
        41        Al     tau(  41) = (  -0.2500000   0.7216878   1.7967636  )
        42        Al     tau(  42) = (   0.0000000   0.5773503   1.5975515  )
        43        O      tau(  43) = (  -0.1531319   0.5767197   2.1610469  )
        44        O      tau(  44) = (  -0.0774502   0.7310903   2.3907832  )
        45        O      tau(  45) = (   0.0760199   0.7102817   2.1610469  )
        46        O      tau(  46) = (   0.0771120   0.4450494   2.1610469  )
        47        O      tau(  47) = (   0.1718679   0.5675541   2.3907832  )
        48        O      tau(  48) = (  -0.0944177   0.4334064   2.3907832  )
        49        O      tau(  49) = (  -0.4076935   0.7285419   2.6169175  )
        50        O      tau(  50) = (  -0.0847825   0.4442107   1.4776233  )
        51        O      tau(  51) = (  -0.1652175   0.8548274   2.6169175  )
        52        O      tau(  52) = (  -0.1770890   0.5816943   2.6169175  )
        53        O      tau(  53) = (  -0.0729110   0.7173438   1.4776233  )
        54        O      tau(  54) = (   0.1576935   0.5704962   1.4776233  )
        55        O      tau(  55) = (   0.0944177   0.4326190   1.7037575  )
        56        O      tau(  56) = (  -0.3260199   0.5887564   1.9334939  )
        57        O      tau(  57) = (  -0.1725498   0.5679478   1.7037575  )
        58        O      tau(  58) = (   0.0781321   0.7314840   1.7037575  )
        59        O      tau(  59) = (  -0.3271120   0.8539887   1.9334939  )
        60        O      tau(  60) = (  -0.0968681   0.7223184   1.9334939  )
        61        Al     tau(  61) = (   0.5000000   0.2886751   2.4969893  )
        62        Al     tau(  62) = (   0.7500000   0.1443376   2.2977772  )
        63        Al     tau(  63) = (   0.5000000   0.0000000   2.2508135  )
        64        Al     tau(  64) = (   0.5000000   0.2886751   2.0745549  )
        65        Al     tau(  65) = (   0.5000000   0.0000000   1.5695993  )
        66        Al     tau(  66) = (   0.5000000   0.2886751   1.4658601  )
        67        Al     tau(  67) = (   0.7500000   0.1443376   2.6286807  )
        68        Al     tau(  68) = (   0.5000000  -0.0000000   2.5249415  )
        69        Al     tau(  69) = (   0.7500000   0.1443376   2.0199859  )
        70        Al     tau(  70) = (   0.5000000   0.0000000   1.8437273  )
        71        Al     tau(  71) = (   0.5000000   0.2886751   1.7967636  )
        72        Al     tau(  72) = (   0.7500000   0.1443376   1.5975515  )
        73        O      tau(  73) = (   0.5968681   0.1437070   2.1610469  )
        74        O      tau(  74) = (   0.6725498   0.2980776   2.3907832  )
        75        O      tau(  75) = (   0.8260199   0.2772690   2.1610469  )
        76        O      tau(  76) = (   0.8271120   0.0120367   2.1610469  )
        77        O      tau(  77) = (   0.9218679   0.1345414   2.3907832  )
        78        O      tau(  78) = (   0.6555823   0.0003937   2.3907832  )
        79        O      tau(  79) = (   0.3423065   0.2955292   2.6169175  )
        80        O      tau(  80) = (   0.6652175   0.0111980   1.4776233  )
        81        O      tau(  81) = (   0.5847825   0.4218147   2.6169175  )
        82        O      tau(  82) = (   0.5729110   0.1486816   2.6169175  )
        83        O      tau(  83) = (   0.6770890   0.2843311   1.4776233  )
        84        O      tau(  84) = (   0.9076935   0.1374835   1.4776233  )
        85        O      tau(  85) = (   0.8444177  -0.0003937   1.7037575  )
        86        O      tau(  86) = (   0.4239801   0.1557437   1.9334939  )
        87        O      tau(  87) = (   0.5774502   0.1349351   1.7037575  )
        88        O      tau(  88) = (   0.8281321   0.2984713   1.7037575  )
        89        O      tau(  89) = (   0.4228880   0.4209760   1.9334939  )
        90        O      tau(  90) = (   0.6531319   0.2893057   1.9334939  )
        91        Al     tau(  91) = (   0.2500000   0.7216878   2.4969893  )
        92        Al     tau(  92) = (   0.5000000   0.5773503   2.2977772  )
        93        Al     tau(  93) = (   0.2500000   0.4330127   2.2508135  )
        94        Al     tau(  94) = (   0.2500000   0.7216878   2.0745549  )
        95        Al     tau(  95) = (   0.2500000   0.4330127   1.5695993  )
        96        Al     tau(  96) = (   0.2500000   0.7216878   1.4658601  )
        97        Al     tau(  97) = (   0.5000000   0.5773503   2.6286807  )
        98        Al     tau(  98) = (   0.2500000   0.4330127   2.5249415  )
        99        Al     tau(  99) = (   0.5000000   0.5773503   2.0199859  )
       100        Al     tau( 100) = (   0.2500000   0.4330127   1.8437273  )
       101        Al     tau( 101) = (   0.2500000   0.7216878   1.7967636  )
       102        Al     tau( 102) = (   0.5000000   0.5773503   1.5975515  )
       103        O      tau( 103) = (   0.3468681   0.5767197   2.1610469  )
       104        O      tau( 104) = (   0.4225498   0.7310903   2.3907832  )
       105        O      tau( 105) = (   0.5760199   0.7102817   2.1610469  )
       106        O      tau( 106) = (   0.5771120   0.4450494   2.1610469  )
       107        O      tau( 107) = (   0.6718679   0.5675541   2.3907832  )
       108        O      tau( 108) = (   0.4055823   0.4334064   2.3907832  )
       109        O      tau( 109) = (   0.0923065   0.7285419   2.6169175  )
       110        O      tau( 110) = (   0.4152175   0.4442107   1.4776233  )
       111        O      tau( 111) = (   0.3347825   0.8548274   2.6169175  )
       112        O      tau( 112) = (   0.3229110   0.5816943   2.6169175  )
       113        O      tau( 113) = (   0.4270890   0.7173438   1.4776233  )
       114        O      tau( 114) = (   0.6576935   0.5704962   1.4776233  )
       115        O      tau( 115) = (   0.5944177   0.4326190   1.7037575  )
       116        O      tau( 116) = (   0.1739801   0.5887564   1.9334939  )
       117        O      tau( 117) = (   0.3274502   0.5679478   1.7037575  )
       118        O      tau( 118) = (   0.5781321   0.7314840   1.7037575  )
       119        O      tau( 119) = (   0.1728880   0.8539887   1.9334939  )
       120        O      tau( 120) = (   0.4031319   0.7223184   1.9334939  )

     number of k points=     8
                       cart. coord. in units 2pi/alat
        k(    1) = (   0.0000000   0.0000000   0.0000000), wk =   0.0555556
        k(    2) = (   0.0000000   0.1924502   0.0000000), wk =   0.3333333
        k(    3) = (   0.0000000   0.3849004   0.0000000), wk =   0.3333333
        k(    4) = (   0.0000000  -0.5773505   0.0000000), wk =   0.1666667
        k(    5) = (   0.1666667   0.2886753   0.0000000), wk =   0.3333333
        k(    6) = (   0.1666667   0.4811254   0.0000000), wk =   0.3333333
        k(    7) = (   0.3333333   0.5773505   0.0000000), wk =   0.1111111
        k(    8) = (  -0.1666667   0.4811254   0.0000000), wk =   0.3333333

     Dense  grid:  3771945 G-vectors     FFT dimensions: ( 128, 128, 540)

     Smooth grid:  1333651 G-vectors     FFT dimensions: (  90,  90, 375)

     Estimated max dynamical RAM per process >       1.45 GB

     Estimated total dynamical RAM >      34.85 GB
