120
Lattice="9.61005444 0.0 0.0 -4.805027219999999 8.322551276791438 0.0 0.0 0.0 39.34875975" Properties=species:S:1:pos:R:3:spacegroup_kinds:I:1 spacegroup="P 1" unit_cell=conventional occupancy="_JSON {\"0\": {\"Al\": 1.0}, \"1\": {\"Al\": 1.0}, \"2\": {\"Al\": 1.0}, \"3\": {\"Al\": 1.0}, \"4\": {\"Al\": 1.0}, \"5\": {\"Al\": 1.0}, \"6\": {\"Al\": 1.0}, \"7\": {\"Al\": 1.0}, \"8\": {\"Al\": 1.0}, \"9\": {\"Al\": 1.0}, \"10\": {\"Al\": 1.0}, \"11\": {\"Al\": 1.0}, \"12\": {\"O\": 1.0}, \"13\": {\"O\": 1.0}, \"14\": {\"O\": 1.0}, \"15\": {\"O\": 1.0}, \"16\": {\"O\": 1.0}, \"17\": {\"O\": 1.0}, \"18\": {\"O\": 1.0}, \"19\": {\"O\": 1.0}, \"20\": {\"O\": 1.0}, \"21\": {\"O\": 1.0}, \"22\": {\"O\": 1.0}, \"23\": {\"O\": 1.0}, \"24\": {\"O\": 1.0}, \"25\": {\"O\": 1.0}, \"26\": {\"O\": 1.0}, \"27\": {\"O\": 1.0}, \"28\": {\"O\": 1.0}, \"29\": {\"O\": 1.0}}" pbc="T T T"
Al       0.00000000       2.77418376      23.80036845        0
Al       2.40251361       1.38709188      22.10651793        1
Al       0.00000000       0.00000000      21.61432620        2
Al       0.00000000       2.77418376      19.92047581        3
Al       0.00000000       0.00000000      15.05619957        4
Al       0.00000000       2.77418376      13.36234918        5
Al       2.40251361       1.38709188      25.98641057        6
Al       0.00000000       0.00000000      24.29256018        7
Al       2.40251361       1.38709188      19.42828394        8
Al       0.00000000       0.00000000      17.73443355        9
Al       0.00000000       2.77418376      17.24224182       10
Al       2.40251361       1.38709188      15.54839130       11
O        0.93147617       1.38709188      20.76740094       12
O        1.66699488       2.88731983      22.95344319       13
O        3.13803236       2.66104768      20.76740094       14
O        3.13803235       0.11313605      20.76740094       15
O        4.06950849       1.27395581      22.95344319       16
O        1.47103746       0.00000000      22.95344319       17
O       -1.47103748       2.77418376      25.13948544       18
O        1.66699490       0.11313605      14.20927431       19
O        0.73551871       4.04813958      25.13948544       20
O        0.73551872       1.50022796      25.13948544       21
O        1.66699489       2.66104768      14.20927431       22
O        3.87355109       1.38709188      14.20927431       23
O        3.33398976       0.00000000      16.39531656       24
O       -0.73551875       1.50022796      18.58135881       25
O        0.73551873       1.27395581      16.39531656       26
O        3.13803234       2.88731983      16.39531656       27
O       -0.73551874       4.04813958      18.58135881       28
O        1.47103744       2.77418376      18.58135881       29
Al      -2.40251361       6.93545940      23.80036845        0
Al       0.00000000       5.54836752      22.10651793        1
Al      -2.40251361       4.16127564      21.61432620        2
Al      -2.40251361       6.93545940      19.92047581        3
Al      -2.40251361       4.16127564      15.05619957        4
Al      -2.40251361       6.93545940      13.36234918        5
Al       0.00000000       5.54836752      25.98641057        6
Al      -2.40251361       4.16127564      24.29256018        7
Al       0.00000000       5.54836752      19.42828394        8
Al      -2.40251361       4.16127564      17.73443355        9
Al      -2.40251361       6.93545940      17.24224182       10
Al       0.00000000       5.54836752      15.54839130       11
O       -1.47103744       5.54836752      20.76740094       12
O       -0.73551873       7.04859547      22.95344319       13
O        0.73551875       6.82232331      20.76740094       14
O        0.73551874       4.27441169      20.76740094       15
O        1.66699488       5.43523145      22.95344319       16
O       -0.93147615       4.16127564      22.95344319       17
O       -3.87355109       6.93545940      25.13948544       18
O       -0.73551871       4.27441169      14.20927431       19
O       -1.66699490       8.20941522      25.13948544       20
O       -1.66699489       5.66150360      25.13948544       21
O       -0.73551872       6.82232331      14.20927431       22
O        1.47103748       5.54836752      14.20927431       23
O        0.93147615       4.16127564      16.39531656       24
O       -3.13803236       5.66150360      18.58135881       25
O       -1.66699488       5.43523145      16.39531656       26
O        0.73551873       7.04859547      16.39531656       27
O       -3.13803235       8.20941522      18.58135881       28
O       -0.93147617       6.93545940      18.58135881       29
Al       4.80502722       2.77418376      23.80036845        0
Al       7.20754083       1.38709188      22.10651793        1
Al       4.80502722       0.00000000      21.61432620        2
Al       4.80502722       2.77418376      19.92047581        3
Al       4.80502722       0.00000000      15.05619957        4
Al       4.80502722       2.77418376      13.36234918        5
Al       7.20754083       1.38709188      25.98641057        6
Al       4.80502722       0.00000000      24.29256018        7
Al       7.20754083       1.38709188      19.42828394        8
Al       4.80502722       0.00000000      17.73443355        9
Al       4.80502722       2.77418376      17.24224182       10
Al       7.20754083       1.38709188      15.54839130       11
O        5.73650339       1.38709188      20.76740094       12
O        6.47202210       2.88731983      22.95344319       13
O        7.94305958       2.66104768      20.76740094       14
O        7.94305957       0.11313605      20.76740094       15
O        8.87453571       1.27395581      22.95344319       16
O        6.27606468       0.00000000      22.95344319       17
O        3.33398974       2.77418376      25.13948544       18
O        6.47202212       0.11313605      14.20927431       19
O        5.54054593       4.04813958      25.13948544       20
O        5.54054594       1.50022796      25.13948544       21
O        6.47202211       2.66104768      14.20927431       22
O        8.67857831       1.38709188      14.20927431       23
O        8.13901698       0.00000000      16.39531656       24
O        4.06950847       1.50022796      18.58135881       25
O        5.54054595       1.27395581      16.39531656       26
O        7.94305956       2.88731983      16.39531656       27
O        4.06950848       4.04813958      18.58135881       28
O        6.27606466       2.77418376      18.58135881       29
Al       2.40251361       6.93545940      23.80036845        0
Al       4.80502722       5.54836752      22.10651793        1
Al       2.40251361       4.16127564      21.61432620        2
Al       2.40251361       6.93545940      19.92047581        3
Al       2.40251361       4.16127564      15.05619957        4
Al       2.40251361       6.93545940      13.36234918        5
Al       4.80502722       5.54836752      25.98641057        6
Al       2.40251361       4.16127564      24.29256018        7
Al       4.80502722       5.54836752      19.42828394        8
Al       2.40251361       4.16127564      17.73443355        9
Al       2.40251361       6.93545940      17.24224182       10
Al       4.80502722       5.54836752      15.54839130       11
O        3.33398978       5.54836752      20.76740094       12
O        4.06950849       7.04859547      22.95344319       13
O        5.54054597       6.82232331      20.76740094       14
O        5.54054596       4.27441169      20.76740094       15
O        6.47202210       5.43523145      22.95344319       16
O        3.87355107       4.16127564      22.95344319       17
O        0.93147613       6.93545940      25.13948544       18
O        4.06950851       4.27441169      14.20927431       19
O        3.13803232       8.20941522      25.13948544       20
O        3.13803233       5.66150360      25.13948544       21
O        4.06950850       6.82232331      14.20927431       22
O        6.27606470       5.54836752      14.20927431       23
O        5.73650337       4.16127564      16.39531656       24
O        1.66699486       5.66150360      18.58135881       25
O        3.13803234       5.43523145      16.39531656       26
O        5.54054595       7.04859547      16.39531656       27
O        1.66699487       8.20941522      18.58135881       28
O        3.87355105       6.93545940      18.58135881       29
