30
Lattice="4.80502722 0.0 2.942230602394453e-16 -2.4025136099999997 4.161275638395719 2.942230602394453e-16 0.0 0.0 39.34875975" Properties=species:S:1:pos:R:3:bulk_wyckoff:S:1:bulk_equivalent:I:1:oxi_states:R:1 pbc="T T T"
Al       0.00000000       2.77418376      23.80036845 c         0       3.00000000
Al       2.40251361       1.38709188      22.10651793 c         0       3.00000000
Al       0.00000000       0.00000000      21.61432620 c         0       3.00000000
Al       0.00000000       2.77418376      19.92047581 c         0       3.00000000
Al       0.00000000       0.00000000      15.05619957 c         0       3.00000000
Al       0.00000000       2.77418376      13.36234918 c         0       3.00000000
Al       2.40251361       1.38709188      25.98641057 c         0       3.00000000
Al       0.00000000       0.00000000      24.29256018 c         0       3.00000000
Al       2.40251361       1.38709188      19.42828394 c         0       3.00000000
Al       0.00000000       0.00000000      17.73443355 c         0       3.00000000
Al       0.00000000       2.77418376      17.24224182 c         0       3.00000000
Al       2.40251361       1.38709188      15.54839130 c         0       3.00000000
O        0.93147617       1.38709188      20.76740094 e        12      -2.00000000
O        1.66699488       2.88731983      22.95344319 e        12      -2.00000000
O        3.13803236       2.66104768      20.76740094 e        12      -2.00000000
O        3.13803235       0.11313605      20.76740094 e        12      -2.00000000
O       -0.73551873       1.27395581      22.95344319 e        12      -2.00000000
O        1.47103746       0.00000000      22.95344319 e        12      -2.00000000
O       -1.47103748       2.77418376      25.13948544 e        12      -2.00000000
O        1.66699490       0.11313605      14.20927431 e        12      -2.00000000
O        0.73551871       4.04813958      25.13948544 e        12      -2.00000000
O        0.73551872       1.50022796      25.13948544 e        12      -2.00000000
O        1.66699489       2.66104768      14.20927431 e        12      -2.00000000
O        3.87355109       1.38709188      14.20927431 e        12      -2.00000000
O        3.33398976       0.00000000      16.39531656 e        12      -2.00000000
O       -0.73551875       1.50022796      18.58135881 e        12      -2.00000000
O        0.73551873       1.27395581      16.39531656 e        12      -2.00000000
O       -1.66699488       2.88731983      16.39531656 e        12      -2.00000000
O       -0.73551874       4.04813958      18.58135881 e        12      -2.00000000
O        1.47103744       2.77418376      18.58135881 e        12      -2.00000000
