
     Program PWSCF v.7.5 starts on  6Jul2026 at 19: 0:27 

     This program is part of the open-source Quantum ESPRESSO suite
     for quantum simulation of materials; please cite
         "P. Giannozzi et al., J. Phys.:Condens. Matter 21 395502 (2009);
         "P. Giannozzi et al., J. Phys.:Condens. Matter 29 465901 (2017);
         "P. Giannozzi et al., J. Chem. Phys. 152 154105 (2020);
          URL http://www.quantum-espresso.org", 
     in publications or presentations arising from this work. More details at
     http://www.quantum-espresso.org/quote

     Parallel version (MPI), running on    24 processors

     MPI processes distributed on     1 nodes
     250095 MiB available memory on the printing compute node when the environment starts

     Reading input from al2o3_relax.in
Warning: card &CELL ignored

     Current dimensions of program PWSCF are:
     Max number of different atomic species (ntypx) = 10
     Max number of k-points (npk) =  40000
     Max angular momentum in pseudopotentials (lmaxx) =  4
     file Al.pbe-n-kjpaw_psl.1.0.0.UPF: wavefunction(s)  3S 3P renormalized
     file O.pbe-n-kjpaw_psl.0.1.UPF: wavefunction(s)  2P renormalized
     Found identity + (  0.0000 -0.5000  0.0000) symmetry
     This is a supercell, fractional translations are disabled
     Message from routine setup:
     using ibrav=0 with symmetry is DISCOURAGED, use correct ibrav instead

     R & G space division:  proc/nbgrp/npool/nimage =      24
     Subspace diagonalization in iterative solution of the eigenvalue problem:
     one sub-group per band group will be used
     custom distributed-memory algorithm (size of sub-group:  3*  3 procs)


     Parallelization info
     --------------------
     sticks:   dense  smooth     PW     G-vecs:    dense   smooth      PW
     Min         455     227     59               157159    55563    7485
     Max         456     228     60               157166    55578    7512
     Sum       10939    5461   1417              3771945  1333651  179721

     Using Slab Decomposition



     bravais-lattice index     =            0
     lattice parameter (alat)  =      18.1604  a.u.
     unit-cell volume          =   21237.8220 (a.u.)^3
     number of atoms/cell      =          120
     number of atomic types    =            2
     number of electrons       =       576.00
     number of Kohn-Sham states=          288
     kinetic-energy cutoff     =      60.0000  Ry
     charge density cutoff     =     480.0000  Ry
     scf convergence threshold =      1.0E-08
     mixing beta               =       0.3000
     number of iterations used =            8  plain     mixing
     energy convergence thresh.=      1.0E-04
     force convergence thresh. =      1.0E-03
     Exchange-correlation= SLA  PW   PBX  PBC
                           (   1   4   3   4   0   0   0)
     nstep                     =           50


     celldm(1)=  18.160371  celldm(2)=   0.000000  celldm(3)=   0.000000
     celldm(4)=   0.000000  celldm(5)=   0.000000  celldm(6)=   0.000000

     crystal axes: (cart. coord. in units of alat)
               a(1) = (   1.000000   0.000000   0.000000 )  
               a(2) = (  -0.500000   0.866025   0.000000 )  
               a(3) = (   0.000000   0.000000   4.094541 )  

     reciprocal axes: (cart. coord. in units 2 pi/alat)
               b(1) = (  1.000000  0.577350 -0.000000 )  
               b(2) = (  0.000000  1.154701  0.000000 )  
               b(3) = (  0.000000 -0.000000  0.244228 )  


     PseudoPot. # 1 for Al read from file:
     ./Al.pbe-n-kjpaw_psl.1.0.0.UPF
     MD5 check sum: cfc449ca30b5f3223ec38ddd88ac046d
     Pseudo is Projector augmented-wave + core cor, Zval =  3.0
     Generated using "atomic" code by A. Dal Corso  v.5.1
     Shape of augmentation charge: PSQ
     Using radial grid of 1135 points,  6 beta functions with: 
                l(1) =   0
                l(2) =   0
                l(3) =   1
                l(4) =   1
                l(5) =   2
                l(6) =   2
     Q(r) pseudized with 0 coefficients 


     PseudoPot. # 2 for O  read from file:
     ./O.pbe-n-kjpaw_psl.0.1.UPF
     MD5 check sum: 0234752ac141de4415c5fc33072bef88
     Pseudo is Projector augmented-wave + core cor, Zval =  6.0
     Generated using "atomic" code by A. Dal Corso  v.5.0.99 svn rev. 10869
     Shape of augmentation charge: BESSEL
     Using radial grid of 1095 points,  4 beta functions with: 
                l(1) =   0
                l(2) =   0
                l(3) =   1
                l(4) =   1
     Q(r) pseudized with 0 coefficients 


     atomic species   valence    mass     pseudopotential
     Al                3.00    26.98154     Al( 1.00)
     O                 6.00    15.99900     O ( 1.00)

      6 Sym. Ops., with inversion, found



   Cartesian axes

     site n.     atom                  positions (alat units)
         1        Al     tau(   1) = (   0.0000000   0.2886751   2.4766112  )
         2        Al     tau(   2) = (   0.2500000   0.1443376   2.3003530  )
         3        Al     tau(   3) = (   0.0000000   0.0000000   2.2491367  )
         4        Al     tau(   4) = (   0.0000000   0.2886751   2.0728786  )
         5        Al     tau(   5) = (   0.0000000   0.0000000   1.5667132  )
         6        Al     tau(   6) = (   0.0000000   0.2886751   1.3904551  )
         7        Al     tau(   7) = (   0.2500000   0.1443376   2.7040857  )
         8        Al     tau(   8) = (   0.0000000   0.0000000   2.5278275  )
         9        Al     tau(   9) = (   0.2500000   0.1443376   2.0216622  )
        10        Al     tau(  10) = (   0.0000000   0.0000000   1.8454041  )
        11        Al     tau(  11) = (   0.0000000   0.2886751   1.7941877  )
        12        Al     tau(  12) = (   0.2500000   0.1443376   1.6179296  )
        13        O      tau(  13) = (   0.0969273   0.1443376   2.1610076  )
        14        O      tau(  14) = (   0.1734636   0.3004478   2.3884821  )
        15        O      tau(  15) = (   0.3265364   0.2769025   2.1610076  )
        16        O      tau(  16) = (   0.3265364   0.0117727   2.1610076  )
        17        O      tau(  17) = (   0.4234636   0.1325649   2.3884821  )
        18        O      tau(  18) = (   0.1530727   0.0000000   2.3884821  )
        19        O      tau(  19) = (  -0.1530728   0.2886751   2.6159566  )
        20        O      tau(  20) = (   0.1734636   0.0117727   1.4785842  )
        21        O      tau(  21) = (   0.0765364   0.4212400   2.6159566  )
        22        O      tau(  22) = (   0.0765364   0.1561102   2.6159566  )
        23        O      tau(  23) = (   0.1734636   0.2769025   1.4785842  )
        24        O      tau(  24) = (   0.4030728   0.1443376   1.4785842  )
        25        O      tau(  25) = (   0.3469273   0.0000000   1.7060587  )
        26        O      tau(  26) = (  -0.0765364   0.1561102   1.9335331  )
        27        O      tau(  27) = (   0.0765364   0.1325649   1.7060587  )
        28        O      tau(  28) = (   0.3265364   0.3004478   1.7060587  )
        29        O      tau(  29) = (  -0.0765364   0.4212400   1.9335331  )
        30        O      tau(  30) = (   0.1530727   0.2886751   1.9335331  )
        31        Al     tau(  31) = (  -0.2500000   0.7216878   2.4766112  )
        32        Al     tau(  32) = (   0.0000000   0.5773503   2.3003530  )
        33        Al     tau(  33) = (  -0.2500000   0.4330127   2.2491367  )
        34        Al     tau(  34) = (  -0.2500000   0.7216878   2.0728786  )
        35        Al     tau(  35) = (  -0.2500000   0.4330127   1.5667132  )
        36        Al     tau(  36) = (  -0.2500000   0.7216878   1.3904551  )
        37        Al     tau(  37) = (   0.0000000   0.5773503   2.7040857  )
        38        Al     tau(  38) = (  -0.2500000   0.4330127   2.5278275  )
        39        Al     tau(  39) = (   0.0000000   0.5773503   2.0216622  )
        40        Al     tau(  40) = (  -0.2500000   0.4330127   1.8454041  )
        41        Al     tau(  41) = (  -0.2500000   0.7216878   1.7941877  )
        42        Al     tau(  42) = (   0.0000000   0.5773503   1.6179296  )
        43        O      tau(  43) = (  -0.1530727   0.5773503   2.1610076  )
        44        O      tau(  44) = (  -0.0765364   0.7334605   2.3884821  )
        45        O      tau(  45) = (   0.0765364   0.7099152   2.1610076  )
        46        O      tau(  46) = (   0.0765364   0.4447854   2.1610076  )
        47        O      tau(  47) = (   0.1734636   0.5655776   2.3884821  )
        48        O      tau(  48) = (  -0.0969273   0.4330127   2.3884821  )
        49        O      tau(  49) = (  -0.4030728   0.7216878   2.6159566  )
        50        O      tau(  50) = (  -0.0765364   0.4447854   1.4785842  )
        51        O      tau(  51) = (  -0.1734636   0.8542527   2.6159566  )
        52        O      tau(  52) = (  -0.1734636   0.5891229   2.6159566  )
        53        O      tau(  53) = (  -0.0765364   0.7099152   1.4785842  )
        54        O      tau(  54) = (   0.1530728   0.5773503   1.4785842  )
        55        O      tau(  55) = (   0.0969273   0.4330127   1.7060587  )
        56        O      tau(  56) = (  -0.3265364   0.5891229   1.9335331  )
        57        O      tau(  57) = (  -0.1734636   0.5655776   1.7060587  )
        58        O      tau(  58) = (   0.0765364   0.7334605   1.7060587  )
        59        O      tau(  59) = (  -0.3265364   0.8542527   1.9335331  )
        60        O      tau(  60) = (  -0.0969273   0.7216878   1.9335331  )
        61        Al     tau(  61) = (   0.5000000   0.2886751   2.4766112  )
        62        Al     tau(  62) = (   0.7500000   0.1443376   2.3003530  )
        63        Al     tau(  63) = (   0.5000000   0.0000000   2.2491367  )
        64        Al     tau(  64) = (   0.5000000   0.2886751   2.0728786  )
        65        Al     tau(  65) = (   0.5000000   0.0000000   1.5667132  )
        66        Al     tau(  66) = (   0.5000000   0.2886751   1.3904551  )
        67        Al     tau(  67) = (   0.7500000   0.1443376   2.7040857  )
        68        Al     tau(  68) = (   0.5000000   0.0000000   2.5278275  )
        69        Al     tau(  69) = (   0.7500000   0.1443376   2.0216622  )
        70        Al     tau(  70) = (   0.5000000   0.0000000   1.8454041  )
        71        Al     tau(  71) = (   0.5000000   0.2886751   1.7941877  )
        72        Al     tau(  72) = (   0.7500000   0.1443376   1.6179296  )
        73        O      tau(  73) = (   0.5969273   0.1443376   2.1610076  )
        74        O      tau(  74) = (   0.6734636   0.3004478   2.3884821  )
        75        O      tau(  75) = (   0.8265364   0.2769025   2.1610076  )
        76        O      tau(  76) = (   0.8265364   0.0117727   2.1610076  )
        77        O      tau(  77) = (   0.9234636   0.1325649   2.3884821  )
        78        O      tau(  78) = (   0.6530727   0.0000000   2.3884821  )
        79        O      tau(  79) = (   0.3469272   0.2886751   2.6159566  )
        80        O      tau(  80) = (   0.6734636   0.0117727   1.4785842  )
        81        O      tau(  81) = (   0.5765364   0.4212400   2.6159566  )
        82        O      tau(  82) = (   0.5765364   0.1561102   2.6159566  )
        83        O      tau(  83) = (   0.6734636   0.2769025   1.4785842  )
        84        O      tau(  84) = (   0.9030728   0.1443376   1.4785842  )
        85        O      tau(  85) = (   0.8469273   0.0000000   1.7060587  )
        86        O      tau(  86) = (   0.4234636   0.1561102   1.9335331  )
        87        O      tau(  87) = (   0.5765364   0.1325649   1.7060587  )
        88        O      tau(  88) = (   0.8265364   0.3004478   1.7060587  )
        89        O      tau(  89) = (   0.4234636   0.4212400   1.9335331  )
        90        O      tau(  90) = (   0.6530727   0.2886751   1.9335331  )
        91        Al     tau(  91) = (   0.2500000   0.7216878   2.4766112  )
        92        Al     tau(  92) = (   0.5000000   0.5773503   2.3003530  )
        93        Al     tau(  93) = (   0.2500000   0.4330127   2.2491367  )
        94        Al     tau(  94) = (   0.2500000   0.7216878   2.0728786  )
        95        Al     tau(  95) = (   0.2500000   0.4330127   1.5667132  )
        96        Al     tau(  96) = (   0.2500000   0.7216878   1.3904551  )
        97        Al     tau(  97) = (   0.5000000   0.5773503   2.7040857  )
        98        Al     tau(  98) = (   0.2500000   0.4330127   2.5278275  )
        99        Al     tau(  99) = (   0.5000000   0.5773503   2.0216622  )
       100        Al     tau( 100) = (   0.2500000   0.4330127   1.8454041  )
       101        Al     tau( 101) = (   0.2500000   0.7216878   1.7941877  )
       102        Al     tau( 102) = (   0.5000000   0.5773503   1.6179296  )
       103        O      tau( 103) = (   0.3469273   0.5773503   2.1610076  )
       104        O      tau( 104) = (   0.4234636   0.7334605   2.3884821  )
       105        O      tau( 105) = (   0.5765364   0.7099152   2.1610076  )
       106        O      tau( 106) = (   0.5765364   0.4447854   2.1610076  )
       107        O      tau( 107) = (   0.6734636   0.5655776   2.3884821  )
       108        O      tau( 108) = (   0.4030727   0.4330127   2.3884821  )
       109        O      tau( 109) = (   0.0969272   0.7216878   2.6159566  )
       110        O      tau( 110) = (   0.4234636   0.4447854   1.4785842  )
       111        O      tau( 111) = (   0.3265364   0.8542527   2.6159566  )
       112        O      tau( 112) = (   0.3265364   0.5891229   2.6159566  )
       113        O      tau( 113) = (   0.4234636   0.7099152   1.4785842  )
       114        O      tau( 114) = (   0.6530728   0.5773503   1.4785842  )
       115        O      tau( 115) = (   0.5969273   0.4330127   1.7060587  )
       116        O      tau( 116) = (   0.1734636   0.5891229   1.9335331  )
       117        O      tau( 117) = (   0.3265364   0.5655776   1.7060587  )
       118        O      tau( 118) = (   0.5765364   0.7334605   1.7060587  )
       119        O      tau( 119) = (   0.1734636   0.8542527   1.9335331  )
       120        O      tau( 120) = (   0.4030727   0.7216878   1.9335331  )

     number of k points=     4
                       cart. coord. in units 2pi/alat
        k(    1) = (   0.0000000   0.0000000   0.0000000), wk =   0.1250000
        k(    2) = (   0.0000000   0.2886751   0.0000000), wk =   0.7500000
        k(    3) = (   0.0000000  -0.5773503   0.0000000), wk =   0.3750000
        k(    4) = (   0.2500000   0.4330127   0.0000000), wk =   0.7500000

     Dense  grid:  3771945 G-vectors     FFT dimensions: ( 128, 128, 540)

     Smooth grid:  1333651 G-vectors     FFT dimensions: (  90,  90, 375)

     Estimated max dynamical RAM per process >       1.33 GB

     Estimated total dynamical RAM >      31.99 GB

     Initial potential from superposition of free atoms

     starting charge     575.8900, renormalised to     576.0000

     negative rho (up, down):  2.327E-03 0.000E+00
     Starting wfcs are  480 randomized atomic wfcs
     Checking if some PAW data can be deallocated... 

     total cpu time spent up to now is       48.3 secs

     Self-consistent Calculation

     iteration #  1     ecut=    60.00 Ry     beta= 0.30
     Davidson diagonalization with overlap
     ethr =  1.00E-02,  avg # of iterations =  2.0

     negative rho (up, down):  2.318E-03 0.000E+00

     total cpu time spent up to now is      130.7 secs

     total energy              =   -4904.74358792 Ry
     estimated scf accuracy    <      32.30448169 Ry

     iteration #  2     ecut=    60.00 Ry     beta= 0.30
     Davidson diagonalization with overlap
     ethr =  5.61E-03,  avg # of iterations =  2.0

     negative rho (up, down):  2.807E-03 0.000E+00

     total cpu time spent up to now is      216.2 secs

     total energy              =   -4908.35312468 Ry
     estimated scf accuracy    <       3.04818080 Ry

     iteration #  3     ecut=    60.00 Ry     beta= 0.30
     Davidson diagonalization with overlap
     ethr =  5.29E-04,  avg # of iterations =  8.2

     negative rho (up, down):  2.723E-03 0.000E+00

     total cpu time spent up to now is      344.0 secs

     total energy              =   -4909.11840113 Ry
     estimated scf accuracy    <      14.63898407 Ry

     iteration #  4     ecut=    60.00 Ry     beta= 0.30
     Davidson diagonalization with overlap
     ethr =  5.29E-04,  avg # of iterations =  9.5

     negative rho (up, down):  3.120E-03 0.000E+00

     total cpu time spent up to now is      427.6 secs

     total energy              =   -4909.08805312 Ry
     estimated scf accuracy    <       1.49328508 Ry

     iteration #  5     ecut=    60.00 Ry     beta= 0.30
     Davidson diagonalization with overlap
     ethr =  2.59E-04,  avg # of iterations =  6.5

     negative rho (up, down):  3.453E-03 0.000E+00

     total cpu time spent up to now is      527.0 secs

     total energy              =   -4909.72144343 Ry
     estimated scf accuracy    <       0.69455300 Ry

     iteration #  6     ecut=    60.00 Ry     beta= 0.30
     Davidson diagonalization with overlap
     ethr =  1.21E-04,  avg # of iterations =  3.5

     negative rho (up, down):  3.521E-03 0.000E+00

     total cpu time spent up to now is      597.1 secs

     total energy              =   -4909.49510427 Ry
     estimated scf accuracy    <       0.89179000 Ry

     iteration #  7     ecut=    60.00 Ry     beta= 0.30
     Davidson diagonalization with overlap
     ethr =  1.21E-04,  avg # of iterations =  2.2

     negative rho (up, down):  3.504E-03 0.000E+00

     total cpu time spent up to now is      671.5 secs

     total energy              =   -4909.51079469 Ry
     estimated scf accuracy    <       0.27503651 Ry

     iteration #  8     ecut=    60.00 Ry     beta= 0.30
     Davidson diagonalization with overlap
     ethr =  4.77E-05,  avg # of iterations =  6.2

     negative rho (up, down):  3.537E-03 0.000E+00

     total cpu time spent up to now is      753.1 secs

     total energy              =   -4909.53608177 Ry
     estimated scf accuracy    <       0.05741436 Ry

     iteration #  9     ecut=    60.00 Ry     beta= 0.30
     Davidson diagonalization with overlap
     ethr =  9.97E-06,  avg # of iterations =  5.5

     negative rho (up, down):  3.585E-03 0.000E+00

     total cpu time spent up to now is      831.6 secs

     total energy              =   -4909.54149189 Ry
     estimated scf accuracy    <       0.01936310 Ry

     iteration # 10     ecut=    60.00 Ry     beta= 0.30
     Davidson diagonalization with overlap
     ethr =  3.36E-06,  avg # of iterations =  2.0

     negative rho (up, down):  3.640E-03 0.000E+00

     total cpu time spent up to now is      899.7 secs

     total energy              =   -4909.54090315 Ry
     estimated scf accuracy    <       0.01475634 Ry

     iteration # 11     ecut=    60.00 Ry     beta= 0.30
     Davidson diagonalization with overlap
     ethr =  2.56E-06,  avg # of iterations =  1.8

     negative rho (up, down):  3.744E-03 0.000E+00

     total cpu time spent up to now is      966.2 secs

     total energy              =   -4909.53930346 Ry
     estimated scf accuracy    <       0.01086914 Ry

     iteration # 12     ecut=    60.00 Ry     beta= 0.30
     Davidson diagonalization with overlap
     ethr =  1.89E-06,  avg # of iterations =  7.0

     negative rho (up, down):  3.871E-03 0.000E+00

     total cpu time spent up to now is     1042.1 secs

     total energy              =   -4909.53960079 Ry
     estimated scf accuracy    <       0.00350974 Ry

     iteration # 13     ecut=    60.00 Ry     beta= 0.30
     Davidson diagonalization with overlap
     ethr =  6.09E-07,  avg # of iterations =  5.2

     negative rho (up, down):  3.887E-03 0.000E+00

     total cpu time spent up to now is     1128.9 secs

     total energy              =   -4909.53965483 Ry
     estimated scf accuracy    <       0.00166880 Ry

     iteration # 14     ecut=    60.00 Ry     beta= 0.30
     Davidson diagonalization with overlap
     ethr =  2.90E-07,  avg # of iterations =  6.8

     negative rho (up, down):  3.899E-03 0.000E+00

     total cpu time spent up to now is     1218.2 secs

     total energy              =   -4909.53997579 Ry
     estimated scf accuracy    <       0.00004230 Ry

     iteration # 15     ecut=    60.00 Ry     beta= 0.30
     Davidson diagonalization with overlap
     ethr =  7.34E-09,  avg # of iterations =  7.0

     negative rho (up, down):  3.915E-03 0.000E+00

     total cpu time spent up to now is     1341.0 secs

     total energy              =   -4909.53998126 Ry
     estimated scf accuracy    <       0.00004277 Ry

     iteration # 16     ecut=    60.00 Ry     beta= 0.30
     Davidson diagonalization with overlap
     ethr =  7.34E-09,  avg # of iterations =  7.5

     negative rho (up, down):  3.921E-03 0.000E+00

     total cpu time spent up to now is     1468.0 secs

     total energy              =   -4909.53997539 Ry
     estimated scf accuracy    <       0.00024623 Ry

     iteration # 17     ecut=    60.00 Ry     beta= 0.30
     Davidson diagonalization with overlap
     ethr =  7.34E-09,  avg # of iterations =  7.5

     negative rho (up, down):  3.923E-03 0.000E+00

     total cpu time spent up to now is     1576.3 secs

     total energy              =   -4909.54000038 Ry
     estimated scf accuracy    <       0.00000360 Ry

     iteration # 18     ecut=    60.00 Ry     beta= 0.30
     Davidson diagonalization with overlap
     ethr =  6.24E-10,  avg # of iterations =  9.2

     negative rho (up, down):  3.923E-03 0.000E+00

     total cpu time spent up to now is     1706.1 secs

     total energy              =   -4909.54000201 Ry
     estimated scf accuracy    <       0.00001053 Ry

     iteration # 19     ecut=    60.00 Ry     beta= 0.30
     Davidson diagonalization with overlap
     ethr =  6.24E-10,  avg # of iterations =  6.8

     negative rho (up, down):  3.924E-03 0.000E+00

     total cpu time spent up to now is     1792.8 secs

     total energy              =   -4909.54000200 Ry
     estimated scf accuracy    <       0.00000198 Ry

     iteration # 20     ecut=    60.00 Ry     beta= 0.30
     Davidson diagonalization with overlap
     ethr =  3.44E-10,  avg # of iterations =  7.0

     negative rho (up, down):  3.924E-03 0.000E+00

     total cpu time spent up to now is     1891.1 secs

     total energy              =   -4909.54000254 Ry
     estimated scf accuracy    <       0.00000044 Ry

     iteration # 21     ecut=    60.00 Ry     beta= 0.30
     Davidson diagonalization with overlap
     ethr =  7.60E-11,  avg # of iterations =  2.0

     negative rho (up, down):  3.925E-03 0.000E+00

     total cpu time spent up to now is     1960.3 secs

     total energy              =   -4909.54000245 Ry
     estimated scf accuracy    <       0.00000023 Ry

     iteration # 22     ecut=    60.00 Ry     beta= 0.30
     Davidson diagonalization with overlap
     ethr =  3.98E-11,  avg # of iterations =  6.2

     negative rho (up, down):  3.925E-03 0.000E+00

     total cpu time spent up to now is     2062.6 secs

     total energy              =   -4909.54000252 Ry
     estimated scf accuracy    <       0.00000010 Ry

     iteration # 23     ecut=    60.00 Ry     beta= 0.30
     Davidson diagonalization with overlap
     ethr =  1.69E-11,  avg # of iterations =  2.2

     negative rho (up, down):  3.925E-03 0.000E+00

     total cpu time spent up to now is     2133.4 secs

     total energy              =   -4909.54000252 Ry
     estimated scf accuracy    <       0.00000002 Ry

     iteration # 24     ecut=    60.00 Ry     beta= 0.30
     Davidson diagonalization with overlap
     ethr =  4.02E-12,  avg # of iterations =  6.0

     negative rho (up, down):  3.924E-03 0.000E+00

     total cpu time spent up to now is     2216.9 secs

     End of self-consistent calculation

          k = 0.0000 0.0000 0.0000 (166875 PWs)   bands (ev):

   -19.2204 -18.8019 -18.2998 -18.2998 -18.2998 -18.2421 -18.2421 -18.2421
   -18.2358 -18.0068 -18.0068 -18.0068 -17.7457 -17.7457 -17.7457 -17.6201
   -17.4058 -17.4058 -17.4058 -17.2903 -17.2903 -17.2903 -17.1522 -17.1522
   -17.1522 -17.0118 -17.0118 -17.0118 -16.9583 -16.9462 -16.9462 -16.9462
   -16.8841 -16.8841 -16.8841 -16.8764 -16.8462 -16.8462 -16.7704 -16.7704
   -16.7704 -16.7498 -16.7498 -16.6448 -16.6448 -16.5975 -16.5975 -16.5975
   -16.5877 -16.5877 -16.3876 -16.3876 -16.3876 -16.3672 -16.3672 -16.3672
   -16.2651 -16.2651 -16.2651 -16.2549 -16.2549 -16.2549 -15.9271 -15.9271
   -15.9271 -15.9267 -15.9267 -15.9267 -15.7954 -15.7954 -15.7953 -15.7953
    -6.7668  -6.5401  -6.5401  -6.5401  -6.5290  -6.5290  -6.5290  -6.1993
    -6.1993  -6.1993  -6.1112  -5.9620  -5.8750  -5.8060  -5.8060  -5.8060
    -5.7419  -5.7419  -5.7419  -5.5770  -5.5770  -5.4780  -5.4274  -5.4274
    -5.4274  -5.2084  -5.2084  -5.2084  -5.1851  -5.1851  -5.1851  -5.1654
    -5.1563  -5.1563  -5.0115  -5.0115  -5.0115  -4.9207  -4.9207  -4.9207
    -4.9147  -4.8189  -4.8189  -4.8189  -4.5691  -4.5691  -4.3075  -4.3075
    -4.2395  -4.2395  -4.2395  -4.1958  -4.0108  -4.0108  -4.0108  -3.9689
    -3.9689  -3.9689  -3.8497  -3.8497  -3.8497  -3.8213  -3.8213  -3.8213
    -3.6822  -3.6822  -3.6289  -3.6289  -3.6289  -3.5857  -3.5857  -3.4951
    -3.4717  -3.4466  -3.4466  -3.4466  -3.4432  -3.4432  -3.4432  -3.3822
    -3.3822  -3.3822  -3.2149  -3.1941  -3.1628  -3.1628  -3.1628  -3.0531
    -3.0531  -3.0531  -3.0081  -2.7751  -2.6642  -2.6642  -2.6642  -2.6074
    -2.6074  -2.6074  -2.5106  -2.5106  -2.5106  -2.4835  -2.4835  -2.4835
    -2.4251  -2.3955  -2.3955  -2.3955  -2.3573  -2.3573  -2.3573  -2.3190
    -2.3190  -2.3136  -2.3136  -2.3136  -2.2568  -2.2568  -2.1039  -2.1039
    -2.1039  -1.9938  -1.9938  -1.9938  -1.8408  -1.8407  -1.8407  -1.8407
    -1.7582  -1.7582  -1.7547  -1.7547  -1.7547  -1.6827  -1.6827  -1.6827
    -1.6636  -1.6636  -1.6636  -1.6241  -1.6241  -1.5448  -1.5448  -1.5448
    -1.5280  -1.5280  -1.5280  -1.4722  -1.4722  -1.4722  -1.4222  -1.4222
    -1.4222  -1.3753  -1.3753  -1.3753  -1.3428  -1.2296  -1.2296  -1.2296
    -1.2132  -1.2132  -1.2116  -1.2116  -1.2116  -1.1552  -1.1552  -1.0555
    -1.0555  -1.0555  -0.9318  -0.9318  -0.9318  -0.9274  -0.9274  -0.9274
    -0.8323  -0.8142  -0.8142  -0.8142  -0.7407  -0.7407  -0.7325  -0.7325
    -0.7325  -0.7310  -0.7310  -0.7310  -0.6863  -0.6863  -0.5216  -0.5216
    -0.3844  -0.3844  -0.3716  -0.3716  -0.3716  -0.3413  -0.3413  -0.3413
    -0.2060  -0.2060  -0.2060  -0.1840  -0.1840  -0.1840   0.1307   0.1307
     0.1307   0.1441   0.1441   0.1441   0.5178   0.5178   0.5204   0.5204

          k = 0.0000 0.2887 0.0000 (166721 PWs)   bands (ev):

   -19.1514 -18.7382 -18.6404 -18.4165 -18.4164 -18.2880 -18.1814 -18.1409
   -18.1379 -17.9747 -17.9673 -17.9123 -17.7051 -17.6976 -17.6651 -17.5813
   -17.4316 -17.4168 -17.3781 -17.3074 -17.2655 -17.1665 -17.1645 -17.1485
   -17.1238 -17.0660 -17.0498 -17.0428 -16.9989 -16.9832 -16.9828 -16.9419
   -16.9208 -16.9173 -16.8608 -16.8225 -16.8152 -16.7978 -16.7926 -16.7884
   -16.7846 -16.7567 -16.7446 -16.6737 -16.6541 -16.6144 -16.6122 -16.5913
   -16.5827 -16.5729 -16.5467 -16.5139 -16.4324 -16.4322 -16.4031 -16.4015
   -16.1889 -16.1885 -16.1777 -16.1777 -16.1070 -16.1005 -15.9599 -15.9599
   -15.9585 -15.9585 -15.9094 -15.9090 -15.8308 -15.8307 -15.8167 -15.8166
    -6.7108  -6.5756  -6.4549  -6.4489  -6.3989  -6.3746  -6.3594  -6.2203
    -6.1588  -6.0885  -6.0757  -6.0122  -6.0053  -5.9455  -5.8899  -5.8725
    -5.7696  -5.7528  -5.7288  -5.6920  -5.5767  -5.5448  -5.5046  -5.4761
    -5.4748  -5.3344  -5.3212  -5.3057  -5.2601  -5.1966  -5.1511  -5.1491
    -5.0777  -5.0658  -5.0476  -5.0421  -4.9980  -4.9626  -4.9468  -4.8875
    -4.8145  -4.7781  -4.7397  -4.7104  -4.7029  -4.4051  -4.3890  -4.3521
    -4.3177  -4.3088  -4.3007  -4.2315  -4.1418  -4.0998  -4.0770  -4.0702
    -4.0659  -4.0386  -3.9522  -3.9353  -3.8929  -3.8789  -3.8517  -3.8414
    -3.7540  -3.6804  -3.6772  -3.6690  -3.6218  -3.6053  -3.5579  -3.5253
    -3.4666  -3.4362  -3.4297  -3.4004  -3.2857  -3.2823  -3.2674  -3.2521
    -3.2157  -3.2074  -3.1544  -3.1519  -3.0220  -2.9906  -2.9740  -2.9581
    -2.9372  -2.9131  -2.8505  -2.7944  -2.7759  -2.7476  -2.7034  -2.6998
    -2.6556  -2.6384  -2.5956  -2.5896  -2.5565  -2.5392  -2.4951  -2.4674
    -2.4646  -2.4594  -2.4264  -2.3761  -2.3450  -2.3380  -2.2973  -2.2901
    -2.2447  -2.1925  -2.1817  -2.1532  -2.1466  -2.1151  -2.0976  -2.0590
    -2.0189  -1.9911  -1.9888  -1.9496  -1.9335  -1.9293  -1.8795  -1.8794
    -1.8387  -1.8269  -1.8101  -1.7990  -1.7635  -1.7573  -1.7443  -1.6911
    -1.6850  -1.6555  -1.6486  -1.6355  -1.6166  -1.6124  -1.5927  -1.5742
    -1.5539  -1.5287  -1.5287  -1.5026  -1.4962  -1.4945  -1.4442  -1.4105
    -1.3627  -1.3624  -1.3467  -1.3410  -1.2914  -1.2804  -1.2484  -1.2399
    -1.2024  -1.2012  -1.1913  -1.1436  -1.1425  -1.1133  -1.0357  -1.0328
    -1.0311  -0.9939  -0.9880  -0.9534  -0.9480  -0.9472  -0.9249  -0.8863
    -0.8642  -0.8466  -0.8205  -0.8119  -0.8018  -0.8012  -0.7757  -0.7680
    -0.7508  -0.7435  -0.7181  -0.7096  -0.7057  -0.6761  -0.6148  -0.6037
    -0.5440  -0.4115  -0.3844  -0.3787  -0.3678  -0.3411  -0.3019  -0.2841
    -0.2403  -0.2295  -0.2072  -0.1969  -0.1778  -0.1640   0.1748   0.1762
     0.1853   0.1892   0.2045   0.2166   0.3068   0.3312   0.4797   0.4829

          k = 0.0000-0.5774 0.0000 (166636 PWs)   bands (ev):

   -18.9509 -18.9509 -18.5555 -18.5555 -18.4681 -18.4681 -18.1442 -18.1442
   -18.0324 -18.0324 -17.8315 -17.8315 -17.7298 -17.7298 -17.5193 -17.5193
   -17.3871 -17.3871 -17.3359 -17.3359 -17.2055 -17.2055 -17.2027 -17.2027
   -17.0785 -17.0785 -17.0310 -17.0310 -17.0151 -17.0151 -16.9890 -16.9890
   -16.9220 -16.9220 -16.8784 -16.8784 -16.8610 -16.8610 -16.7354 -16.7354
   -16.7158 -16.7158 -16.6838 -16.6838 -16.6765 -16.6765 -16.6709 -16.6709
   -16.6098 -16.6098 -16.5637 -16.5637 -16.4577 -16.4577 -16.4238 -16.4238
   -16.0943 -16.0943 -16.0912 -16.0912 -16.0230 -16.0230 -16.0201 -16.0201
   -15.9378 -15.9378 -15.9368 -15.9368 -15.8648 -15.8648 -15.8645 -15.8645
    -6.5954  -6.5954  -6.2896  -6.2896  -6.2256  -6.2256  -6.1689  -6.1689
    -6.1688  -6.1688  -6.0783  -6.0783  -6.0135  -6.0135  -5.8724  -5.8724
    -5.8229  -5.8229  -5.7644  -5.7644  -5.6561  -5.6561  -5.5969  -5.5969
    -5.4922  -5.4922  -5.4642  -5.4642  -5.3015  -5.3015  -5.2585  -5.2585
    -5.0270  -5.0270  -4.9865  -4.9865  -4.9333  -4.9333  -4.9231  -4.9231
    -4.6389  -4.6389  -4.6287  -4.6287  -4.5678  -4.5678  -4.4765  -4.4765
    -4.3606  -4.3606  -4.3201  -4.3201  -4.2235  -4.2235  -4.0865  -4.0865
    -4.0219  -4.0219  -4.0153  -4.0153  -3.9362  -3.9362  -3.8484  -3.8484
    -3.8062  -3.8062  -3.6877  -3.6877  -3.5840  -3.5840  -3.4683  -3.4683
    -3.4526  -3.4526  -3.3975  -3.3975  -3.2806  -3.2806  -3.2355  -3.2355
    -3.1347  -3.1347  -3.0540  -3.0540  -2.9892  -2.9892  -2.9858  -2.9858
    -2.9333  -2.9333  -2.8242  -2.8242  -2.6088  -2.6088  -2.5757  -2.5757
    -2.5565  -2.5565  -2.5255  -2.5255  -2.4992  -2.4992  -2.4379  -2.4379
    -2.4083  -2.4083  -2.3393  -2.3393  -2.3105  -2.3105  -2.2882  -2.2882
    -2.2351  -2.2351  -2.2033  -2.2033  -2.1657  -2.1657  -2.0242  -2.0242
    -2.0219  -2.0219  -1.9683  -1.9683  -1.9564  -1.9564  -1.8624  -1.8624
    -1.8408  -1.8408  -1.8256  -1.8256  -1.7933  -1.7933  -1.7104  -1.7104
    -1.7060  -1.7060  -1.6613  -1.6613  -1.6477  -1.6477  -1.6188  -1.6188
    -1.6035  -1.6035  -1.5779  -1.5779  -1.4358  -1.4358  -1.4249  -1.4249
    -1.3820  -1.3820  -1.3605  -1.3605  -1.3328  -1.3328  -1.2434  -1.2434
    -1.1912  -1.1912  -1.1870  -1.1870  -1.0979  -1.0979  -1.0592  -1.0592
    -1.0260  -1.0260  -0.9601  -0.9601  -0.9068  -0.9068  -0.8926  -0.8926
    -0.8492  -0.8492  -0.8375  -0.8375  -0.8239  -0.8239  -0.7948  -0.7948
    -0.7523  -0.7523  -0.7382  -0.7382  -0.6547  -0.6547  -0.5873  -0.5873
    -0.5725  -0.5725  -0.4983  -0.4983  -0.3373  -0.3373  -0.3044  -0.3044
    -0.1932  -0.1932  -0.1839  -0.1839  -0.0587  -0.0587  -0.0113  -0.0113
     0.2308   0.2308   0.2398   0.2398   0.3643   0.3643   0.3703   0.3703

          k = 0.2500 0.4330 0.0000 (166642 PWs)   bands (ev):

   -19.0166 -18.7605 -18.7605 -18.6149 -18.3867 -18.3865 -18.1459 -18.0998
   -18.0788 -17.9150 -17.9136 -17.9092 -17.8326 -17.5722 -17.5685 -17.5232
   -17.4646 -17.3226 -17.2898 -17.2826 -17.2333 -17.1942 -17.1719 -17.1439
   -17.1364 -17.1356 -17.0962 -17.0932 -17.0065 -16.9941 -16.9742 -16.9600
   -16.9275 -16.8961 -16.8917 -16.8521 -16.8447 -16.8104 -16.7893 -16.7713
   -16.7335 -16.7075 -16.6944 -16.6902 -16.6759 -16.6715 -16.6346 -16.6104
   -16.5922 -16.5812 -16.5786 -16.5748 -16.5655 -16.5634 -16.3170 -16.3046
   -16.1946 -16.1867 -16.0665 -16.0608 -16.0142 -16.0141 -16.0116 -16.0115
   -15.9224 -15.9222 -15.9216 -15.9215 -15.8917 -15.8915 -15.8614 -15.8612
    -6.6027  -6.4823  -6.4807  -6.3100  -6.2492  -6.2319  -6.2152  -6.1500
    -6.1359  -6.1352  -6.0498  -6.0366  -5.9581  -5.9555  -5.9161  -5.8974
    -5.8270  -5.8111  -5.7525  -5.7144  -5.6822  -5.6769  -5.6753  -5.5561
    -5.5437  -5.4972  -5.3822  -5.3436  -5.3001  -5.2994  -5.2850  -5.2270
    -5.1229  -5.0919  -5.0376  -4.9988  -4.9515  -4.9504  -4.9086  -4.8907
    -4.7714  -4.6701  -4.6088  -4.5924  -4.5727  -4.5427  -4.4515  -4.4286
    -4.3919  -4.3197  -4.2611  -4.2310  -4.1849  -4.1579  -4.1459  -4.1240
    -4.1012  -4.0266  -3.9659  -3.9532  -3.9499  -3.9214  -3.8793  -3.8309
    -3.8127  -3.7932  -3.7705  -3.7096  -3.6842  -3.6586  -3.5661  -3.5060
    -3.4790  -3.3962  -3.3270  -3.3062  -3.2719  -3.2673  -3.2668  -3.1705
    -3.1045  -3.1028  -3.0837  -3.0553  -3.0183  -2.9600  -2.8941  -2.8921
    -2.8886  -2.8864  -2.8477  -2.7538  -2.7340  -2.6849  -2.6661  -2.6212
    -2.6097  -2.5910  -2.5472  -2.5332  -2.4740  -2.4674  -2.4468  -2.4384
    -2.4161  -2.3975  -2.3662  -2.3243  -2.3178  -2.3006  -2.2312  -2.2290
    -2.2147  -2.2107  -2.1763  -2.1417  -2.1245  -2.0999  -2.0886  -2.0390
    -2.0239  -2.0153  -2.0093  -1.9753  -1.9653  -1.9234  -1.9078  -1.8819
    -1.8782  -1.8487  -1.8181  -1.8161  -1.8161  -1.8045  -1.8002  -1.7949
    -1.7312  -1.7123  -1.7055  -1.6590  -1.6386  -1.6216  -1.6201  -1.5886
    -1.5701  -1.5668  -1.5513  -1.4860  -1.4846  -1.4638  -1.4189  -1.4137
    -1.4086  -1.3494  -1.3441  -1.3430  -1.3077  -1.3023  -1.2650  -1.2215
    -1.2095  -1.2051  -1.1791  -1.1438  -1.1419  -1.0909  -1.0827  -1.0628
    -1.0361  -1.0327  -0.9769  -0.9238  -0.9225  -0.9025  -0.8992  -0.8924
    -0.8733  -0.8674  -0.8533  -0.8344  -0.8195  -0.8089  -0.8024  -0.7999
    -0.7911  -0.7909  -0.7147  -0.6987  -0.6753  -0.6436  -0.6195  -0.5826
    -0.5809  -0.4520  -0.4485  -0.4285  -0.4256  -0.4094  -0.2609  -0.2462
    -0.2294  -0.2256  -0.1822  -0.1766  -0.1411  -0.1321   0.0191   0.0632
     0.2014   0.2156   0.2943   0.2996   0.3000   0.3046   0.4163   0.4199

     highest occupied level (ev):     0.5204

!    total energy              =   -4909.54000253 Ry
     total all-electron energy =    -34161.369772 Ry
     estimated scf accuracy    <          1.7E-10 Ry

     The total energy is the sum of the following terms:
     one-electron contribution =  -81161.17771250 Ry
     hartree contribution      =   40851.15612406 Ry
     xc contribution           =    -672.78142937 Ry
     ewald contribution        =   38420.93897652 Ry
     one-center paw contrib.   =   -2347.67596124 Ry

     convergence has been achieved in  24 iterations

     negative rho (up, down):  3.924E-03 0.000E+00

     Forces acting on atoms (cartesian axes, Ry/au):

     atom    1 type  1   force =     0.00000000    0.00000000    0.07823808
     atom    2 type  1   force =     0.00000000    0.00000000    0.00619517
     atom    3 type  1   force =     0.00000000   -0.00000000    0.00287226
     atom    4 type  1   force =    -0.00000000    0.00000001    0.00024755
     atom    5 type  1   force =     0.00000000   -0.00000000   -0.03282973
     atom    6 type  1   force =    -0.00000001   -0.00000000    0.25667389
     atom    7 type  1   force =    -0.00000001    0.00000001   -0.25667389
     atom    8 type  1   force =     0.00000000    0.00000000    0.03282973
     atom    9 type  1   force =     0.00000001    0.00000000   -0.00024755
     atom   10 type  1   force =     0.00000000    0.00000000   -0.00287226
     atom   11 type  1   force =     0.00000000    0.00000000   -0.00619517
     atom   12 type  1   force =     0.00000000   -0.00000000   -0.07823808
     atom   13 type  2   force =     0.00026887   -0.00015263   -0.00061379
     atom   14 type  2   force =    -0.00516183    0.00158798   -0.00493542
     atom   15 type  2   force =    -0.00026662   -0.00015652   -0.00061379
     atom   16 type  2   force =    -0.00000223    0.00030916   -0.00061380
     atom   17 type  2   force =     0.00395615    0.00367627   -0.00493543
     atom   18 type  2   force =     0.00120566   -0.00526427   -0.00493542
     atom   19 type  2   force =    -0.07240643   -0.02257448    0.05219990
     atom   20 type  2   force =    -0.01665317   -0.07399301   -0.05219989
     atom   21 type  2   force =     0.01665315    0.07399308    0.05219992
     atom   22 type  2   force =     0.05575324   -0.05141857    0.05219989
     atom   23 type  2   force =    -0.05575329    0.05141856   -0.05219990
     atom   24 type  2   force =     0.07240646    0.02257449   -0.05219992
     atom   25 type  2   force =    -0.00120569    0.00526427    0.00493542
     atom   26 type  2   force =     0.00026662    0.00015653    0.00061379
     atom   27 type  2   force =     0.00516183   -0.00158800    0.00493542
     atom   28 type  2   force =    -0.00395615   -0.00367628    0.00493543
     atom   29 type  2   force =     0.00000224   -0.00030916    0.00061379
     atom   30 type  2   force =    -0.00026885    0.00015265    0.00061380
     atom   31 type  1   force =     0.00000000   -0.00000000    0.07823808
     atom   32 type  1   force =     0.00000000    0.00000000    0.00619516
     atom   33 type  1   force =     0.00000000   -0.00000000    0.00287225
     atom   34 type  1   force =     0.00000001   -0.00000000    0.00024755
     atom   35 type  1   force =     0.00000000   -0.00000000   -0.03282973
     atom   36 type  1   force =     0.00000000    0.00000001    0.25667389
     atom   37 type  1   force =     0.00000000    0.00000000   -0.25667392
     atom   38 type  1   force =    -0.00000000    0.00000000    0.03282973
     atom   39 type  1   force =     0.00000000   -0.00000000   -0.00024755
     atom   40 type  1   force =    -0.00000000    0.00000000   -0.00287225
     atom   41 type  1   force =     0.00000000   -0.00000000   -0.00619517
     atom   42 type  1   force =     0.00000000   -0.00000000   -0.07823808
     atom   43 type  2   force =     0.00026886   -0.00015264   -0.00061380
     atom   44 type  2   force =    -0.00516183    0.00158799   -0.00493543
     atom   45 type  2   force =    -0.00026662   -0.00015652   -0.00061380
     atom   46 type  2   force =    -0.00000224    0.00030916   -0.00061380
     atom   47 type  2   force =     0.00395615    0.00367628   -0.00493543
     atom   48 type  2   force =     0.00120567   -0.00526427   -0.00493543
     atom   49 type  2   force =    -0.07240641   -0.02257444    0.05219989
     atom   50 type  2   force =    -0.01665316   -0.07399305   -0.05219988
     atom   51 type  2   force =     0.01665314    0.07399304    0.05219990
     atom   52 type  2   force =     0.05575331   -0.05141859    0.05219992
     atom   53 type  2   force =    -0.05575328    0.05141858   -0.05219988
     atom   54 type  2   force =     0.07240644    0.02257446   -0.05219988
     atom   55 type  2   force =    -0.00120567    0.00526426    0.00493543
     atom   56 type  2   force =     0.00026663    0.00015651    0.00061380
     atom   57 type  2   force =     0.00516182   -0.00158799    0.00493543
     atom   58 type  2   force =    -0.00395615   -0.00367627    0.00493543
     atom   59 type  2   force =     0.00000225   -0.00030916    0.00061379
     atom   60 type  2   force =    -0.00026886    0.00015264    0.00061379
     atom   61 type  1   force =     0.00000000   -0.00000000    0.07823808
     atom   62 type  1   force =    -0.00000000    0.00000000    0.00619517
     atom   63 type  1   force =    -0.00000000    0.00000000    0.00287225
     atom   64 type  1   force =     0.00000000    0.00000000    0.00024755
     atom   65 type  1   force =    -0.00000000    0.00000000   -0.03282973
     atom   66 type  1   force =     0.00000000   -0.00000000    0.25667392
     atom   67 type  1   force =    -0.00000000   -0.00000001   -0.25667389
     atom   68 type  1   force =     0.00000000   -0.00000000    0.03282973
     atom   69 type  1   force =    -0.00000001    0.00000000   -0.00024755
     atom   70 type  1   force =     0.00000000   -0.00000000   -0.00287225
     atom   71 type  1   force =     0.00000000    0.00000000   -0.00619516
     atom   72 type  1   force =    -0.00000000    0.00000000   -0.07823808
     atom   73 type  2   force =     0.00026886   -0.00015264   -0.00061379
     atom   74 type  2   force =    -0.00516182    0.00158799   -0.00493543
     atom   75 type  2   force =    -0.00026663   -0.00015651   -0.00061380
     atom   76 type  2   force =    -0.00000225    0.00030916   -0.00061379
     atom   77 type  2   force =     0.00395616    0.00367627   -0.00493542
     atom   78 type  2   force =     0.00120569   -0.00526427   -0.00493542
     atom   79 type  2   force =    -0.07240644   -0.02257446    0.05219988
     atom   80 type  2   force =    -0.01665314   -0.07399304   -0.05219990
     atom   81 type  2   force =     0.01665316    0.07399305    0.05219988
     atom   82 type  2   force =     0.05575328   -0.05141858    0.05219988
     atom   83 type  2   force =    -0.05575331    0.05141859   -0.05219992
     atom   84 type  2   force =     0.07240641    0.02257444   -0.05219989
     atom   85 type  2   force =    -0.00120566    0.00526427    0.00493542
     atom   86 type  2   force =     0.00026662    0.00015652    0.00061380
     atom   87 type  2   force =     0.00516183   -0.00158799    0.00493543
     atom   88 type  2   force =    -0.00395614   -0.00367629    0.00493542
     atom   89 type  2   force =     0.00000224   -0.00030916    0.00061380
     atom   90 type  2   force =    -0.00026886    0.00015264    0.00061380
     atom   91 type  1   force =    -0.00000000    0.00000000    0.07823808
     atom   92 type  1   force =    -0.00000000   -0.00000000    0.00619517
     atom   93 type  1   force =     0.00000000    0.00000000    0.00287225
     atom   94 type  1   force =    -0.00000001   -0.00000000    0.00024755
     atom   95 type  1   force =     0.00000000    0.00000000   -0.03282973
     atom   96 type  1   force =     0.00000001   -0.00000001    0.25667389
     atom   97 type  1   force =     0.00000001    0.00000000   -0.25667389
     atom   98 type  1   force =    -0.00000000   -0.00000000    0.03282973
     atom   99 type  1   force =     0.00000000   -0.00000001   -0.00024755
     atom  100 type  1   force =    -0.00000000   -0.00000000   -0.00287225
     atom  101 type  1   force =    -0.00000000   -0.00000000   -0.00619517
     atom  102 type  1   force =    -0.00000000   -0.00000000   -0.07823808
     atom  103 type  2   force =     0.00026885   -0.00015265   -0.00061380
     atom  104 type  2   force =    -0.00516183    0.00158800   -0.00493542
     atom  105 type  2   force =    -0.00026662   -0.00015653   -0.00061379
     atom  106 type  2   force =    -0.00000224    0.00030916   -0.00061379
     atom  107 type  2   force =     0.00395614    0.00367629   -0.00493542
     atom  108 type  2   force =     0.00120567   -0.00526426   -0.00493543
     atom  109 type  2   force =    -0.07240646   -0.02257449    0.05219992
     atom  110 type  2   force =    -0.01665315   -0.07399308   -0.05219992
     atom  111 type  2   force =     0.01665317    0.07399301    0.05219989
     atom  112 type  2   force =     0.05575329   -0.05141856    0.05219990
     atom  113 type  2   force =    -0.05575324    0.05141857   -0.05219989
     atom  114 type  2   force =     0.07240643    0.02257448   -0.05219990
     atom  115 type  2   force =    -0.00120567    0.00526427    0.00493543
     atom  116 type  2   force =     0.00026662    0.00015652    0.00061379
     atom  117 type  2   force =     0.00516183   -0.00158798    0.00493542
     atom  118 type  2   force =    -0.00395616   -0.00367627    0.00493542
     atom  119 type  2   force =     0.00000223   -0.00030916    0.00061380
     atom  120 type  2   force =    -0.00026887    0.00015263    0.00061379

     Total force =     0.888687     Total SCF correction =     0.000028


     Computing stress (Cartesian axis) and pressure


     negative rho (up, down):  3.924E-03 0.000E+00
          total   stress  (Ry/bohr**3)                   (kbar)     P=      -13.73
  -0.00002117   0.00000000   0.00000000           -3.11        0.00        0.00
   0.00000000  -0.00002117  -0.00000000            0.00       -3.11       -0.00
   0.00000000  -0.00000000  -0.00023761            0.00       -0.00      -34.95


     BFGS Geometry Optimization
     Energy error            =      7.9E-01 Ry
     Gradient error          =      2.6E-01 Ry/Bohr

     number of scf cycles    =   1
     number of bfgs steps    =   0

     energy             new  =   -4909.5400025313 Ry

     new trust radius        =       0.2566739231 bohr
     new conv_thr            =       0.0000000100 Ry


ATOMIC_POSITIONS (angstrom)
Al               0.0000000014        2.7741837610       23.8417702594
Al               2.4025136122        1.3870918813       22.1097962706
Al               0.0000000000       -0.0000000000       21.6158461321
Al              -0.0000000008        2.7741837638       19.9206068095
Al               0.0000000000       -0.0000000000       15.0388268254
Al              -0.0000000049        2.7741837597       13.4981751513
Al               2.4025136072        1.3870918841       25.8505845987
Al               0.0000000000        0.0000000000       24.3099329246
Al               2.4025136129        1.3870918826       19.4281529405
Al               0.0000000000        0.0000000000       17.7329136179
Al               0.0000000000        2.7741837625       17.2389634794
Al               2.4025136116        1.3870918792       15.5069894906
O                0.9316184475        1.3870111107       20.7670761372
O                1.6642633569        2.8881601519       22.9508314769
O                3.1378912689        2.6609648547       20.7670761360
O                3.1380311720        0.1132996497       20.7670761323
O                4.0716019934        1.2759012106       22.9508314747
O                1.4716754703       -0.0027857332       22.9508314791
O               -1.5093533108        2.7622378597       25.1671084382
O                1.6581824227        0.0739806366       14.1816513175
O                0.7443311763        4.0872950316       25.1671084478
O                0.7650220640        1.4730184241       25.1671084325
O                1.6374915214        2.6882572127       14.1816513118
O                3.9118669389        1.3990377861       14.1816513022
O                3.3333517386        0.0027857293       16.3979282731
O               -0.7353776629        1.5003107913       18.5816836128
O                0.7382502508        1.2731154766       16.3979282709
O                3.1359388339        2.8853744267       16.3979282770
O               -0.7355175567        4.0479759789       18.5816836140
O                1.4708951695        2.7742645397       18.5816836177
Al              -2.4025136099        6.9354593983       23.8417702594
Al               0.0000000000        5.5483675200       22.1097962684
Al              -2.4025136090        4.1612756383       21.6158461316
Al              -2.4025136063        6.9354593988       19.9206068095
Al              -2.4025136093        4.1612756388       15.0388268260
Al              -2.4025136078        6.9354594044       13.4981751513
Al               0.0000000000        5.5483675200       25.8505845793
Al              -2.4025136107        4.1612756412       24.3099329240
Al               0.0000000000        5.5483675200       19.4281529437
Al              -2.4025136110        4.1612756417       17.7329136184
Al              -2.4025136078        6.9354593987       17.2389634794
Al               0.0000000000        5.5483675200       15.5069894898
O               -1.4708951635        5.5482867448       20.7670761290
O               -0.7382502517        7.0494357978       22.9508314730
O                0.7353776584        6.8222404825       20.7670761290
O                0.7355175551        4.2745752927       20.7670761290
O                1.6690883861        5.4371768533       22.9508314730
O               -0.9308381344        4.1584899089       22.9508314730
O               -3.9118669114        6.9235135226       25.1671084325
O               -0.7443311819        4.2352562563       14.1816513212
O               -1.6581824377        8.2485706530       25.1671084382
O               -1.6374915074        5.6342940545       25.1671084478
O               -0.7650220843        6.8495328513       14.1816513212
O                1.5093533162        5.5603134123       14.1816513212
O                0.9308381354        4.1640613674       16.3979282753
O               -3.1378912675        5.6615864200       18.5816836177
O               -1.6642633620        5.4343911231       16.3979282753
O                0.7334252266        7.0466500694       16.3979282753
O               -3.1380311595        8.2092516194       18.5816836128
O               -0.9316184443        6.9355401758       18.5816836140
Al               4.8050272200        2.7741837600       23.8417702602
Al               7.2075408278        1.3870918813       22.1097962706
Al               4.8050272181        0.0000000000       21.6158461316
Al               4.8050272200        2.7741837600       19.9206068063
Al               4.8050272186        0.0000000000       15.0388268260
Al               4.8050272200        2.7741837600       13.4981751707
Al               7.2075408278        1.3870918756       25.8505845987
Al               4.8050272214       -0.0000000000       24.3099329240
Al               7.2075408263        1.3870918812       19.4281529405
Al               4.8050272219       -0.0000000000       17.7329136184
Al               4.8050272200        2.7741837600       17.2389634816
Al               7.2075408299        1.3870918817       15.5069894906
O                5.7366456643        1.3870111042       20.7670761360
O                6.4692905820        2.8881601569       22.9508314747
O                7.9429184875        2.6609648600       20.7670761323
O                7.9430583795        0.1132996506       20.7670761372
O                8.8766292205        1.2759012097       22.9508314791
O                6.2767027014       -0.0027857293       22.9508314769
O                3.2956739038        2.7622378677       25.1671084288
O                6.4632096577        0.0739806170       14.1816513118
O                5.5493584019        4.0872950137       25.1671084288
O                5.5700493043        1.4730184187       25.1671084288
O                6.4425187274        2.6882572255       14.1816513022
O                8.7168941314        1.3990377574       14.1816513175
O                8.1383789697        0.0027857332       16.3979282709
O                4.0696495616        1.5003107875       18.5816836210
O                5.5432774717        1.2731154822       16.3979282770
O                7.9409660583        2.8853744226       16.3979282731
O                4.0695096649        4.0479759773       18.5816836210
O                6.2759223835        2.7742645352       18.5816836210
Al               2.4025136084        6.9354594008       23.8417702594
Al               4.8050272200        5.5483675175       22.1097962706
Al               2.4025136110        4.1612756417       21.6158461316
Al               2.4025136071        6.9354593974       19.9206068095
Al               2.4025136107        4.1612756412       15.0388268260
Al               2.4025136127        6.9354593959       13.4981751513
Al               4.8050272249        5.5483675203       25.8505845987
Al               2.4025136093        4.1612756388       24.3099329240
Al               4.8050272208        5.5483675162       19.4281529405
Al               2.4025136090        4.1612756383       17.7329136184
Al               2.4025136078        6.9354593987       17.2389634794
Al               4.8050272186        5.5483675190       15.5069894906
O                3.3341320505        5.5482867403       20.7670761323
O                4.0667769692        7.0494358034       22.9508314791
O                5.5404048829        6.8222404787       20.7670761372
O                5.5405447767        4.2745752911       20.7670761360
O                6.4741156017        5.4371768574       22.9508314769
O                3.8741890846        4.1584899126       22.9508314747
O                0.8931602811        6.9235134939       25.1671084478
O                4.0606960437        4.2352562384       14.1816513022
O                3.1468447973        8.2485706334       25.1671084325
O                3.1675356986        5.6342940673       25.1671084382
O                4.0400051560        6.8495328459       14.1816513175
O                6.3143805308        5.5603134203       14.1816513118
O                5.7358653544        4.1640613711       16.3979282770
O                1.6671359511        5.6615864253       18.5816836140
O                3.1407638631        5.4343911281       16.3979282731
O                5.5384524395        7.0466500703       16.3979282709
O                1.6669960480        8.2092516203       18.5816836177
O                3.8734087725        6.9355401693       18.5816836128



     Writing config-only to output data dir ./tmp/al2o3.save/ :
     XML data file
     NEW-OLD atomic charge density approx. for the potential

     negative rho (up, down):  4.695E-03 0.000E+00

     total cpu time spent up to now is     2336.3 secs

     Self-consistent Calculation

     iteration #  1     ecut=    60.00 Ry     beta= 0.30
     Davidson diagonalization with overlap
     ethr =  1.00E-06,  avg # of iterations = 12.2

     negative rho (up, down):  4.392E-03 0.000E+00

     total cpu time spent up to now is     2606.2 secs

     total energy              =   -4910.18395295 Ry
     estimated scf accuracy    <       0.09256314 Ry

     iteration #  2     ecut=    60.00 Ry     beta= 0.30
     Davidson diagonalization with overlap
     ethr =  1.61E-05,  avg # of iterations =  2.0

     negative rho (up, down):  4.173E-03 0.000E+00

     total cpu time spent up to now is     2682.2 secs

     total energy              =   -4910.18499791 Ry
     estimated scf accuracy    <       0.01725630 Ry

     iteration #  3     ecut=    60.00 Ry     beta= 0.30
     Davidson diagonalization with overlap
     ethr =  3.00E-06,  avg # of iterations =  2.8

     negative rho (up, down):  4.057E-03 0.000E+00

     total cpu time spent up to now is     2769.2 secs

     total energy              =   -4910.18747332 Ry
     estimated scf accuracy    <       0.00305752 Ry

     iteration #  4     ecut=    60.00 Ry     beta= 0.30
     Davidson diagonalization with overlap
     ethr =  5.31E-07,  avg # of iterations =  3.8

     negative rho (up, down):  4.047E-03 0.000E+00

     total cpu time spent up to now is     2858.5 secs

     total energy              =   -4910.18803694 Ry
     estimated scf accuracy    <       0.00033864 Ry

     iteration #  5     ecut=    60.00 Ry     beta= 0.30
     Davidson diagonalization with overlap
     ethr =  5.88E-08,  avg # of iterations =  5.8

     negative rho (up, down):  4.036E-03 0.000E+00

     total cpu time spent up to now is     2951.0 secs

     total energy              =   -4910.18812694 Ry
     estimated scf accuracy    <       0.00015166 Ry

     iteration #  6     ecut=    60.00 Ry     beta= 0.30
     Davidson diagonalization with overlap
     ethr =  2.63E-08,  avg # of iterations =  2.8

     negative rho (up, down):  4.029E-03 0.000E+00

     total cpu time spent up to now is     3023.2 secs

     total energy              =   -4910.18815002 Ry
     estimated scf accuracy    <       0.00003719 Ry

     iteration #  7     ecut=    60.00 Ry     beta= 0.30
     Davidson diagonalization with overlap
     ethr =  6.46E-09,  avg # of iterations =  4.2

     negative rho (up, down):  4.030E-03 0.000E+00

     total cpu time spent up to now is     3103.4 secs

     total energy              =   -4910.18815664 Ry
     estimated scf accuracy    <       0.00000530 Ry

     iteration #  8     ecut=    60.00 Ry     beta= 0.30
     Davidson diagonalization with overlap
     ethr =  9.20E-10,  avg # of iterations =  5.2

     negative rho (up, down):  4.035E-03 0.000E+00

     total cpu time spent up to now is     3194.6 secs

     total energy              =   -4910.18815790 Ry
     estimated scf accuracy    <       0.00000053 Ry

     iteration #  9     ecut=    60.00 Ry     beta= 0.30
     Davidson diagonalization with overlap
     ethr =  9.15E-11,  avg # of iterations =  4.5

     negative rho (up, down):  4.039E-03 0.000E+00

     total cpu time spent up to now is     3295.4 secs

     total energy              =   -4910.18815809 Ry
     estimated scf accuracy    <       0.00000014 Ry

     iteration # 10     ecut=    60.00 Ry     beta= 0.30
     Davidson diagonalization with overlap
     ethr =  2.48E-11,  avg # of iterations =  5.8

     negative rho (up, down):  4.042E-03 0.000E+00

     total cpu time spent up to now is     3389.9 secs

     total energy              =   -4910.18815816 Ry
     estimated scf accuracy    <       0.00000005 Ry

     iteration # 11     ecut=    60.00 Ry     beta= 0.30
     Davidson diagonalization with overlap
     ethr =  8.12E-12,  avg # of iterations =  6.8

     negative rho (up, down):  4.044E-03 0.000E+00

     total cpu time spent up to now is     3493.9 secs

     total energy              =   -4910.18815821 Ry
     estimated scf accuracy    <       0.00000006 Ry

     iteration # 12     ecut=    60.00 Ry     beta= 0.30
     Davidson diagonalization with overlap
     ethr =  8.12E-12,  avg # of iterations =  4.2

     negative rho (up, down):  4.045E-03 0.000E+00

     total cpu time spent up to now is     3575.8 secs

     total energy              =   -4910.18815823 Ry
     estimated scf accuracy    <       0.00000001 Ry

     iteration # 13     ecut=    60.00 Ry     beta= 0.30
     Davidson diagonalization with overlap
     ethr =  1.89E-12,  avg # of iterations =  5.8

     negative rho (up, down):  4.048E-03 0.000E+00

     total cpu time spent up to now is     3669.8 secs

     End of self-consistent calculation

          k = 0.0000 0.0000 0.0000 (166875 PWs)   bands (ev):

   -19.1556 -18.8040 -18.2909 -18.2188 -18.2188 -18.2188 -18.1936 -18.1936
   -18.1936 -17.9968 -17.9968 -17.9968 -17.7339 -17.7323 -17.7323 -17.7323
   -17.4114 -17.4114 -17.4114 -17.3832 -17.3832 -17.3832 -17.2848 -17.0818
   -17.0818 -17.0818 -17.0772 -17.0758 -17.0758 -17.0758 -16.9307 -16.9307
   -16.9307 -16.9307 -16.9307 -16.9307 -16.7635 -16.7635 -16.7599 -16.7599
   -16.7599 -16.7146 -16.7146 -16.7146 -16.7010 -16.7010 -16.6645 -16.6645
   -16.6645 -16.6077 -16.6077 -16.5792 -16.5792 -16.5792 -16.5620 -16.5620
   -16.5620 -16.5421 -16.5421 -16.5421 -16.5170 -16.5170 -16.3587 -16.3587
   -16.3587 -16.3455 -16.3455 -16.3455 -16.2589 -16.2589 -16.2585 -16.2585
    -6.7707  -6.4991  -6.4991  -6.4991  -6.4707  -6.4707  -6.4707  -6.2408
    -6.2408  -6.2408  -6.1572  -5.9765  -5.9284  -5.9284  -5.9284  -5.8423
    -5.7154  -5.7154  -5.7154  -5.5354  -5.5354  -5.4744  -5.4744  -5.4744
    -5.4603  -5.4024  -5.4024  -5.4024  -5.2613  -5.2351  -5.2351  -5.2351
    -5.1941  -5.1941  -5.0734  -5.0734  -5.0734  -5.0017  -5.0017  -5.0017
    -4.9223  -4.8813  -4.8813  -4.8813  -4.6471  -4.6471  -4.3078  -4.2493
    -4.2493  -4.1811  -4.1811  -4.1811  -4.0972  -4.0972  -4.0972  -4.0041
    -4.0041  -4.0041  -3.9662  -3.9662  -3.8744  -3.8744  -3.8744  -3.8661
    -3.8661  -3.8661  -3.8111  -3.8111  -3.8030  -3.8030  -3.8030  -3.6346
    -3.6032  -3.6032  -3.6032  -3.5997  -3.5997  -3.5997  -3.5975  -3.5582
    -3.5582  -3.5582  -3.3598  -3.2815  -3.2815  -3.2815  -3.2182  -3.2163
    -3.2163  -3.2163  -3.0921  -2.9008  -2.8002  -2.8002  -2.8002  -2.7231
    -2.7231  -2.7231  -2.6845  -2.5494  -2.5494  -2.5494  -2.5476  -2.5476
    -2.5476  -2.4931  -2.4931  -2.4931  -2.4539  -2.4539  -2.4539  -2.4181
    -2.4181  -2.3766  -2.3766  -2.3766  -2.3142  -2.3142  -2.2501  -2.2501
    -2.2501  -2.1046  -2.1046  -2.1046  -2.0984  -1.9110  -1.9110  -1.9110
    -1.8744  -1.8744  -1.7508  -1.7508  -1.7508  -1.7453  -1.7453  -1.7453
    -1.7144  -1.7144  -1.6388  -1.6388  -1.6388  -1.6187  -1.6187  -1.6187
    -1.5703  -1.5703  -1.5703  -1.4911  -1.4832  -1.4832  -1.4832  -1.4803
    -1.4803  -1.4803  -1.3955  -1.3955  -1.3955  -1.3592  -1.3592  -1.3378
    -1.3378  -1.3052  -1.3052  -1.3052  -1.2717  -1.2717  -1.2717  -1.1464
    -1.1464  -1.1464  -1.1269  -1.1269  -1.1269  -1.1117  -1.1117  -1.1117
    -0.9668  -0.9668  -0.9668  -0.8508  -0.8508  -0.8508  -0.7856  -0.7513
    -0.7513  -0.7513  -0.7068  -0.7068  -0.6910  -0.6910  -0.6910  -0.6669
    -0.6669  -0.6509  -0.6509  -0.6509  -0.5073  -0.5073  -0.4637  -0.4637
    -0.4637  -0.4411  -0.4411  -0.4411  -0.3266  -0.3266  -0.2913  -0.2913
    -0.2913  -0.2487  -0.2487  -0.2487   0.0288   0.0288   0.0384   0.0384

          k = 0.0000 0.2887 0.0000 (166721 PWs)   bands (ev):

   -19.0864 -18.7395 -18.5735 -18.3480 -18.3479 -18.2788 -18.2340 -18.1122
   -18.1101 -17.9386 -17.9325 -17.9022 -17.6866 -17.6822 -17.6752 -17.6452
   -17.4562 -17.4414 -17.3862 -17.3290 -17.2931 -17.2748 -17.2485 -17.1627
   -17.1501 -17.1050 -17.0775 -17.0775 -17.0680 -17.0401 -17.0267 -17.0113
   -16.9162 -16.8806 -16.8694 -16.8506 -16.8411 -16.8348 -16.8196 -16.8097
   -16.7764 -16.7607 -16.7466 -16.7448 -16.7376 -16.7337 -16.7154 -16.6446
   -16.6338 -16.6303 -16.6212 -16.5912 -16.5755 -16.5564 -16.5545 -16.5384
   -16.5159 -16.5021 -16.4920 -16.4864 -16.4851 -16.4427 -16.3825 -16.3806
   -16.3584 -16.3584 -16.3422 -16.3327 -16.2847 -16.2832 -16.2727 -16.2714
    -6.7116  -6.5370  -6.4129  -6.4078  -6.3395  -6.3158  -6.3144  -6.1988
    -6.1574  -6.1219  -6.1211  -6.1071  -5.9850  -5.9156  -5.8773  -5.8730
    -5.8634  -5.8256  -5.7924  -5.7203  -5.6286  -5.5644  -5.5405  -5.5213
    -5.5004  -5.4277  -5.4222  -5.4162  -5.3802  -5.2694  -5.2457  -5.1879
    -5.1756  -5.1070  -5.0958  -5.0901  -5.0473  -5.0383  -5.0112  -4.9206
    -4.9049  -4.8754  -4.8542  -4.8345  -4.7702  -4.4528  -4.4147  -4.3647
    -4.3305  -4.3252  -4.2849  -4.2577  -4.2278  -4.1926  -4.1838  -4.1140
    -4.1129  -4.0956  -4.0452  -4.0233  -4.0129  -3.9506  -3.9478  -3.9411
    -3.9192  -3.9027  -3.8862  -3.8289  -3.8071  -3.7782  -3.7413  -3.6968
    -3.5934  -3.5223  -3.5209  -3.4567  -3.4414  -3.3966  -3.3841  -3.3710
    -3.3397  -3.3239  -3.2682  -3.2405  -3.1667  -3.1498  -3.1141  -3.0727
    -3.0232  -2.9457  -2.9040  -2.8845  -2.8520  -2.8515  -2.8423  -2.7970
    -2.7957  -2.7623  -2.7268  -2.7028  -2.6509  -2.6092  -2.6017  -2.6004
    -2.5733  -2.5146  -2.4982  -2.4770  -2.4672  -2.4448  -2.4099  -2.3658
    -2.3540  -2.2948  -2.2883  -2.2619  -2.2580  -2.2293  -2.2164  -2.1776
    -2.1439  -2.1423  -2.0832  -2.0819  -2.0587  -2.0244  -1.9539  -1.9195
    -1.8806  -1.8697  -1.8572  -1.8219  -1.8124  -1.7809  -1.7761  -1.7534
    -1.7415  -1.7407  -1.7365  -1.6977  -1.6973  -1.6677  -1.6636  -1.6208
    -1.6104  -1.5672  -1.5659  -1.5494  -1.5415  -1.5303  -1.4829  -1.4732
    -1.4489  -1.4468  -1.4451  -1.4211  -1.4115  -1.3720  -1.3621  -1.3515
    -1.3032  -1.2549  -1.2338  -1.2285  -1.2217  -1.1996  -1.1960  -1.1671
    -1.1463  -1.1335  -1.0969  -1.0933  -1.0821  -1.0559  -1.0314  -1.0249
    -0.9715  -0.9517  -0.9084  -0.9007  -0.8924  -0.8742  -0.8337  -0.8232
    -0.8042  -0.7929  -0.7495  -0.7248  -0.7196  -0.6801  -0.6711  -0.6581
    -0.6233  -0.6213  -0.6211  -0.6197  -0.5906  -0.5648  -0.5238  -0.5138
    -0.4789  -0.4751  -0.4599  -0.4374  -0.4129  -0.3596  -0.2579  -0.2542
    -0.2495  -0.2256  -0.2131  -0.2065  -0.1583  -0.1071  -0.0041   0.0085

          k = 0.0000-0.5774 0.0000 (166636 PWs)   bands (ev):

   -18.8852 -18.8852 -18.5540 -18.5540 -18.4002 -18.4002 -18.1303 -18.1303
   -18.0750 -18.0750 -17.8128 -17.8128 -17.6624 -17.6624 -17.5704 -17.5704
   -17.4081 -17.4081 -17.3461 -17.3461 -17.2471 -17.2471 -17.1919 -17.1919
   -17.1342 -17.1342 -17.0962 -17.0962 -17.0401 -17.0401 -16.9947 -16.9947
   -16.9611 -16.9611 -16.9583 -16.9583 -16.8567 -16.8567 -16.8396 -16.8396
   -16.7778 -16.7778 -16.7771 -16.7771 -16.7012 -16.7012 -16.6732 -16.6732
   -16.6583 -16.6583 -16.6393 -16.6393 -16.5782 -16.5782 -16.5045 -16.5045
   -16.4702 -16.4702 -16.4416 -16.4416 -16.4137 -16.4137 -16.3940 -16.3940
   -16.3622 -16.3622 -16.3488 -16.3488 -16.3050 -16.3050 -16.3028 -16.3028
    -6.5800  -6.5800  -6.2387  -6.2387  -6.1984  -6.1984  -6.1451  -6.1451
    -6.1234  -6.1234  -6.0494  -6.0494  -6.0412  -6.0412  -5.8547  -5.8547
    -5.8534  -5.8534  -5.8025  -5.8025  -5.7307  -5.7307  -5.6356  -5.6356
    -5.5603  -5.5603  -5.4971  -5.4971  -5.4357  -5.4357  -5.4020  -5.4020
    -5.1519  -5.1519  -5.1331  -5.1331  -4.9793  -4.9793  -4.9528  -4.9528
    -4.7241  -4.7241  -4.6395  -4.6395  -4.5837  -4.5837  -4.5347  -4.5347
    -4.5193  -4.5193  -4.3853  -4.3853  -4.2731  -4.2731  -4.1984  -4.1984
    -4.1178  -4.1178  -4.1149  -4.1149  -4.0797  -4.0797  -3.9916  -3.9916
    -3.9710  -3.9710  -3.7998  -3.7998  -3.6644  -3.6644  -3.5748  -3.5748
    -3.5222  -3.5222  -3.4547  -3.4547  -3.3659  -3.3659  -3.3512  -3.3512
    -3.2143  -3.2143  -3.2050  -3.2050  -3.1293  -3.1293  -3.0963  -3.0963
    -3.0768  -3.0768  -2.8697  -2.8697  -2.8199  -2.8199  -2.6855  -2.6855
    -2.6847  -2.6847  -2.5863  -2.5863  -2.5809  -2.5809  -2.5273  -2.5273
    -2.4863  -2.4863  -2.4772  -2.4772  -2.4320  -2.4320  -2.3279  -2.3279
    -2.3258  -2.3258  -2.2616  -2.2616  -2.2441  -2.2441  -2.1924  -2.1924
    -2.1496  -2.1496  -2.1381  -2.1381  -2.0218  -2.0218  -1.9697  -1.9697
    -1.9125  -1.9125  -1.8949  -1.8949  -1.8668  -1.8668  -1.8569  -1.8569
    -1.7286  -1.7286  -1.7050  -1.7050  -1.6937  -1.6937  -1.6520  -1.6520
    -1.5990  -1.5990  -1.5887  -1.5887  -1.5806  -1.5806  -1.4982  -1.4982
    -1.4488  -1.4488  -1.4286  -1.4286  -1.4255  -1.4255  -1.3074  -1.3074
    -1.2869  -1.2869  -1.2319  -1.2319  -1.2052  -1.2052  -1.1324  -1.1324
    -1.1161  -1.1161  -1.0884  -1.0884  -1.0214  -1.0214  -1.0026  -1.0026
    -0.9815  -0.9815  -0.9292  -0.9292  -0.9209  -0.9209  -0.8672  -0.8672
    -0.8414  -0.8414  -0.7794  -0.7794  -0.6972  -0.6972  -0.6714  -0.6714
    -0.6532  -0.6532  -0.6366  -0.6366  -0.5894  -0.5894  -0.4912  -0.4912
    -0.4808  -0.4808  -0.4640  -0.4640  -0.4316  -0.4316  -0.3114  -0.3114
    -0.2068  -0.2068  -0.1754  -0.1754  -0.1097  -0.1097  -0.0865  -0.0865

          k = 0.2500 0.4330 0.0000 (166642 PWs)   bands (ev):

   -18.9511 -18.6942 -18.6942 -18.6144 -18.3816 -18.3815 -18.1255 -18.0628
   -18.0483 -17.9405 -17.9396 -17.8972 -17.7784 -17.6017 -17.5436 -17.5399
   -17.4687 -17.3483 -17.3088 -17.3026 -17.2571 -17.2431 -17.2163 -17.2001
   -17.1820 -17.1372 -17.1181 -17.1062 -17.0066 -16.9984 -16.9843 -16.9819
   -16.9726 -16.9628 -16.9506 -16.9210 -16.8674 -16.8659 -16.8579 -16.8562
   -16.8374 -16.7758 -16.7712 -16.7537 -16.7455 -16.7063 -16.6950 -16.6840
   -16.6320 -16.6306 -16.6136 -16.6080 -16.5513 -16.5475 -16.5226 -16.5212
   -16.5101 -16.5049 -16.4683 -16.4185 -16.4141 -16.4133 -16.3871 -16.3829
   -16.3506 -16.3495 -16.3360 -16.3357 -16.3261 -16.3212 -16.3036 -16.2996
    -6.5971  -6.4552  -6.4532  -6.2587  -6.2028  -6.1970  -6.1522  -6.1144
    -6.1011  -6.0956  -6.0754  -6.0501  -6.0098  -6.0001  -5.8844  -5.8474
    -5.8332  -5.8243  -5.7956  -5.7630  -5.7521  -5.7188  -5.6969  -5.6081
    -5.6056  -5.5528  -5.4696  -5.4684  -5.4460  -5.4052  -5.3711  -5.2878
    -5.2208  -5.1905  -5.1448  -5.1361  -5.0696  -4.9828  -4.9695  -4.9222
    -4.8366  -4.7467  -4.6988  -4.6716  -4.6047  -4.5866  -4.5541  -4.4546
    -4.4385  -4.4149  -4.3797  -4.3515  -4.2916  -4.2629  -4.2352  -4.2025
    -4.1866  -4.1499  -4.0580  -4.0565  -4.0280  -4.0131  -3.9860  -3.9842
    -3.8788  -3.8589  -3.8465  -3.8218  -3.8142  -3.8073  -3.6525  -3.6176
    -3.6013  -3.4941  -3.4736  -3.4515  -3.4455  -3.3752  -3.3655  -3.3007
    -3.2478  -3.2123  -3.2112  -3.1764  -3.1294  -3.0468  -3.0153  -2.9843
    -2.9788  -2.9656  -2.9642  -2.8840  -2.8379  -2.7327  -2.7143  -2.6782
    -2.6593  -2.6530  -2.6503  -2.6373  -2.6156  -2.5812  -2.5623  -2.5475
    -2.5264  -2.4662  -2.4506  -2.4421  -2.4366  -2.3837  -2.3637  -2.3553
    -2.3353  -2.3285  -2.2457  -2.2226  -2.2202  -2.2194  -2.2043  -2.1415
    -2.1255  -2.0928  -2.0702  -2.0632  -2.0566  -2.0355  -2.0170  -1.9876
    -1.9675  -1.9479  -1.9231  -1.9157  -1.9137  -1.8563  -1.8530  -1.8411
    -1.8190  -1.8143  -1.7450  -1.7155  -1.7082  -1.7016  -1.6756  -1.6575
    -1.6208  -1.6189  -1.5850  -1.5622  -1.5514  -1.5330  -1.4973  -1.4906
    -1.4798  -1.4434  -1.3977  -1.3919  -1.3749  -1.3620  -1.3518  -1.3403
    -1.3270  -1.3075  -1.2653  -1.2295  -1.2104  -1.1611  -1.1607  -1.1112
    -1.0891  -1.0806  -1.0795  -1.0605  -1.0529  -1.0500  -1.0199  -0.9863
    -0.9751  -0.9601  -0.9555  -0.9445  -0.9263  -0.8853  -0.8720  -0.8425
    -0.8359  -0.8263  -0.7935  -0.7399  -0.7350  -0.7029  -0.7024  -0.6893
    -0.6582  -0.6527  -0.6369  -0.5959  -0.5914  -0.5769  -0.5440  -0.5270
    -0.4955  -0.4738  -0.4599  -0.4319  -0.4186  -0.4005  -0.3859  -0.2823
    -0.2206  -0.1848  -0.1623  -0.1527  -0.1429  -0.1288  -0.0481  -0.0454

     highest occupied level (ev):     0.0384

!    total energy              =   -4910.18815823 Ry
     total all-electron energy =    -34162.017928 Ry
     estimated scf accuracy    <          8.6E-10 Ry

     The total energy is the sum of the following terms:
     one-electron contribution =  -81089.88908620 Ry
     hartree contribution      =   40813.93532755 Ry
     xc contribution           =    -673.85025493 Ry
     ewald contribution        =   38387.32977024 Ry
     one-center paw contrib.   =   -2347.71391489 Ry

     convergence has been achieved in  13 iterations

     negative rho (up, down):  4.048E-03 0.000E+00

     Forces acting on atoms (cartesian axes, Ry/au):

     atom    1 type  1   force =    -0.00000000   -0.00000000    0.05381140
     atom    2 type  1   force =    -0.00000000   -0.00000000   -0.00296318
     atom    3 type  1   force =     0.00000000    0.00000000   -0.00030256
     atom    4 type  1   force =    -0.00000000   -0.00000000    0.00001996
     atom    5 type  1   force =     0.00000000   -0.00000000   -0.01023308
     atom    6 type  1   force =    -0.00000000   -0.00000001    0.17824297
     atom    7 type  1   force =    -0.00000001   -0.00000000   -0.17824297
     atom    8 type  1   force =     0.00000000    0.00000000    0.01023308
     atom    9 type  1   force =    -0.00000000   -0.00000000   -0.00001996
     atom   10 type  1   force =     0.00000000    0.00000000    0.00030256
     atom   11 type  1   force =     0.00000000   -0.00000000    0.00296318
     atom   12 type  1   force =    -0.00000000    0.00000000   -0.05381140
     atom   13 type  2   force =     0.00047942   -0.00089617    0.00112999
     atom   14 type  2   force =    -0.00920553    0.00208407    0.01177781
     atom   15 type  2   force =    -0.00101581    0.00003289    0.00112999
     atom   16 type  2   force =     0.00053639    0.00086327    0.00112999
     atom   17 type  2   force =     0.00640762    0.00693019    0.01177781
     atom   18 type  2   force =     0.00279792   -0.00901425    0.01177780
     atom   19 type  2   force =    -0.03245024    0.00493600    0.02721940
     atom   20 type  2   force =    -0.02049980   -0.02563474   -0.02721940
     atom   21 type  2   force =     0.02049982    0.02563470    0.02721939
     atom   22 type  2   force =     0.01195044   -0.03057072    0.02721940
     atom   23 type  2   force =    -0.01195042    0.03057073   -0.02721940
     atom   24 type  2   force =     0.03245022   -0.00493602   -0.02721939
     atom   25 type  2   force =    -0.00279791    0.00901426   -0.01177781
     atom   26 type  2   force =     0.00101581   -0.00003290   -0.00112999
     atom   27 type  2   force =     0.00920553   -0.00208406   -0.01177780
     atom   28 type  2   force =    -0.00640762   -0.00693019   -0.01177781
     atom   29 type  2   force =    -0.00053639   -0.00086327   -0.00112999
     atom   30 type  2   force =    -0.00047942    0.00089616   -0.00112999
     atom   31 type  1   force =    -0.00000000    0.00000000    0.05381140
     atom   32 type  1   force =     0.00000000    0.00000000   -0.00296318
     atom   33 type  1   force =    -0.00000000    0.00000000   -0.00030256
     atom   34 type  1   force =    -0.00000000    0.00000000    0.00001996
     atom   35 type  1   force =    -0.00000000    0.00000000   -0.01023308
     atom   36 type  1   force =    -0.00000001    0.00000001    0.17824297
     atom   37 type  1   force =     0.00000000    0.00000000   -0.17824294
     atom   38 type  1   force =     0.00000000   -0.00000000    0.01023308
     atom   39 type  1   force =     0.00000000   -0.00000000   -0.00001997
     atom   40 type  1   force =     0.00000000   -0.00000000    0.00030256
     atom   41 type  1   force =    -0.00000000    0.00000000    0.00296318
     atom   42 type  1   force =     0.00000000    0.00000000   -0.05381139
     atom   43 type  2   force =     0.00047942   -0.00089617    0.00112999
     atom   44 type  2   force =    -0.00920553    0.00208406    0.01177781
     atom   45 type  2   force =    -0.00101581    0.00003290    0.00112999
     atom   46 type  2   force =     0.00053639    0.00086327    0.00112999
     atom   47 type  2   force =     0.00640762    0.00693019    0.01177781
     atom   48 type  2   force =     0.00279791   -0.00901426    0.01177781
     atom   49 type  2   force =    -0.03245024    0.00493598    0.02721940
     atom   50 type  2   force =    -0.02049981   -0.02563473   -0.02721940
     atom   51 type  2   force =     0.02049982    0.02563473    0.02721940
     atom   52 type  2   force =     0.01195039   -0.03057072    0.02721939
     atom   53 type  2   force =    -0.01195042    0.03057072   -0.02721940
     atom   54 type  2   force =     0.03245023   -0.00493599   -0.02721940
     atom   55 type  2   force =    -0.00279791    0.00901426   -0.01177781
     atom   56 type  2   force =     0.00101581   -0.00003289   -0.00112999
     atom   57 type  2   force =     0.00920553   -0.00208407   -0.01177781
     atom   58 type  2   force =    -0.00640762   -0.00693019   -0.01177781
     atom   59 type  2   force =    -0.00053640   -0.00086327   -0.00112999
     atom   60 type  2   force =    -0.00047942    0.00089616   -0.00112999
     atom   61 type  1   force =     0.00000000    0.00000000    0.05381139
     atom   62 type  1   force =     0.00000000   -0.00000000   -0.00296318
     atom   63 type  1   force =     0.00000000   -0.00000000   -0.00030256
     atom   64 type  1   force =     0.00000000    0.00000000    0.00001997
     atom   65 type  1   force =     0.00000000    0.00000000   -0.01023308
     atom   66 type  1   force =     0.00000000   -0.00000000    0.17824294
     atom   67 type  1   force =     0.00000001   -0.00000001   -0.17824297
     atom   68 type  1   force =    -0.00000000   -0.00000000    0.01023308
     atom   69 type  1   force =     0.00000000   -0.00000000   -0.00001996
     atom   70 type  1   force =    -0.00000000    0.00000000    0.00030256
     atom   71 type  1   force =     0.00000000   -0.00000000    0.00296318
     atom   72 type  1   force =     0.00000000   -0.00000000   -0.05381140
     atom   73 type  2   force =     0.00047942   -0.00089616    0.00112999
     atom   74 type  2   force =    -0.00920553    0.00208407    0.01177781
     atom   75 type  2   force =    -0.00101581    0.00003289    0.00112999
     atom   76 type  2   force =     0.00053640    0.00086327    0.00112999
     atom   77 type  2   force =     0.00640761    0.00693020    0.01177780
     atom   78 type  2   force =     0.00279791   -0.00901426    0.01177781
     atom   79 type  2   force =    -0.03245023    0.00493599    0.02721940
     atom   80 type  2   force =    -0.02049982   -0.02563473   -0.02721940
     atom   81 type  2   force =     0.02049981    0.02563473    0.02721940
     atom   82 type  2   force =     0.01195042   -0.03057072    0.02721940
     atom   83 type  2   force =    -0.01195039    0.03057072   -0.02721939
     atom   84 type  2   force =     0.03245024   -0.00493598   -0.02721940
     atom   85 type  2   force =    -0.00279792    0.00901425   -0.01177780
     atom   86 type  2   force =     0.00101581   -0.00003290   -0.00112999
     atom   87 type  2   force =     0.00920553   -0.00208406   -0.01177781
     atom   88 type  2   force =    -0.00640762   -0.00693019   -0.01177781
     atom   89 type  2   force =    -0.00053639   -0.00086327   -0.00112999
     atom   90 type  2   force =    -0.00047942    0.00089617   -0.00112999
     atom   91 type  1   force =     0.00000000   -0.00000000    0.05381140
     atom   92 type  1   force =    -0.00000000    0.00000000   -0.00296318
     atom   93 type  1   force =    -0.00000000   -0.00000000   -0.00030256
     atom   94 type  1   force =     0.00000000    0.00000000    0.00001996
     atom   95 type  1   force =     0.00000000   -0.00000000   -0.01023308
     atom   96 type  1   force =     0.00000001    0.00000000    0.17824297
     atom   97 type  1   force =     0.00000000    0.00000001   -0.17824297
     atom   98 type  1   force =    -0.00000000    0.00000000    0.01023308
     atom   99 type  1   force =     0.00000000    0.00000000   -0.00001996
     atom  100 type  1   force =     0.00000000    0.00000000    0.00030256
     atom  101 type  1   force =     0.00000000    0.00000000    0.00296318
     atom  102 type  1   force =     0.00000000    0.00000000   -0.05381140
     atom  103 type  2   force =     0.00047942   -0.00089616    0.00112999
     atom  104 type  2   force =    -0.00920553    0.00208406    0.01177780
     atom  105 type  2   force =    -0.00101581    0.00003290    0.00112999
     atom  106 type  2   force =     0.00053639    0.00086327    0.00112999
     atom  107 type  2   force =     0.00640762    0.00693019    0.01177781
     atom  108 type  2   force =     0.00279791   -0.00901426    0.01177781
     atom  109 type  2   force =    -0.03245022    0.00493602    0.02721939
     atom  110 type  2   force =    -0.02049982   -0.02563470   -0.02721939
     atom  111 type  2   force =     0.02049980    0.02563474    0.02721940
     atom  112 type  2   force =     0.01195042   -0.03057073    0.02721940
     atom  113 type  2   force =    -0.01195044    0.03057072   -0.02721940
     atom  114 type  2   force =     0.03245024   -0.00493600   -0.02721940
     atom  115 type  2   force =    -0.00279791    0.00901426   -0.01177781
     atom  116 type  2   force =     0.00101581   -0.00003289   -0.00112999
     atom  117 type  2   force =     0.00920553   -0.00208407   -0.01177781
     atom  118 type  2   force =    -0.00640761   -0.00693020   -0.01177780
     atom  119 type  2   force =    -0.00053639   -0.00086327   -0.00112999
     atom  120 type  2   force =    -0.00047942    0.00089617   -0.00112999

     Total force =     0.572189     Total SCF correction =     0.000076


     Computing stress (Cartesian axis) and pressure


     negative rho (up, down):  4.048E-03 0.000E+00
          total   stress  (Ry/bohr**3)                   (kbar)     P=       -8.52
   0.00001389   0.00000000   0.00000000            2.04        0.00        0.00
   0.00000000   0.00001389  -0.00000000            0.00        2.04       -0.00
   0.00000000   0.00000000  -0.00020154            0.00        0.00      -29.65

     Energy error            =      6.5E-01 Ry
     Gradient error          =      1.8E-01 Ry/Bohr

     number of scf cycles    =   2
     number of bfgs steps    =   1

     energy             old  =   -4909.5400025313 Ry
     energy             new  =   -4910.1881582345 Ry

     CASE: energy            _new < energy            _old

     new trust radius        =       0.2823413154 bohr
     new conv_thr            =       0.0000000100 Ry


ATOMIC_POSITIONS (angstrom)
Al               0.0000000004        2.7741837595       23.8869208807
Al               2.4025136101        1.3870918793       22.1079316545
Al               0.0000000000       -0.0000000000       21.6157883023
Al              -0.0000000010        2.7741837632       19.9206364928
Al               0.0000000000       -0.0000000000       15.0291782594
Al              -0.0000000079        2.7741837532       13.6475837411
Al               2.4025136002        1.3870918834       25.7011760089
Al               0.0000000000        0.0000000000       24.3195814906
Al               2.4025136123        1.3870918824       19.4281232572
Al               0.0000000000        0.0000000000       17.7329714477
Al               0.0000000007        2.7741837597       17.2408280955
Al               2.4025136098        1.3870918794       15.4618388693
O                0.9319953633        1.3863272604       20.7678906910
O                1.6570260741        2.8898234452       22.9594080769
O                3.1371105819        2.6609803583       20.7678906914
O                3.1384349409        0.1139679938       20.7678906864
O                4.0766610890        1.2813372379       22.9594080749
O                1.4738536652       -0.0098850475       22.9594080752
O               -1.5380737995        2.7646185894       25.1906941617
O                1.6417604169        0.0502983247       14.1580655891
O                0.7607531984        4.1109773216       25.1906941683
O                0.7773205449        1.4469553939       25.1906941609
O                1.6251930495        2.7143202504       14.1580655883
O                3.9405874147        1.3966570428       14.1580655817
O                3.3311735514        0.0098850467       16.3893516731
O               -0.7345969734        1.5002952847       18.5808690590
O                0.7454875348        1.2714521915       16.3893516748
O                3.1308797415        2.8799383995       16.3893516778
O               -0.7359213268        4.0473076359       18.5808690586
O                1.4705182510        2.7749483859       18.5808690636
Al              -2.4025136106        6.9354593999       23.8869208807
Al               0.0000000000        5.5483675200       22.1079316518
Al              -2.4025136093        4.1612756402       21.6157883002
Al              -2.4025136068        6.9354593993       19.9206364928
Al              -2.4025136127        4.1612756394       15.0291782554
Al              -2.4025136119        6.9354594102       13.6475837411
Al               0.0000000000        5.5483675200       25.7011760057
Al              -2.4025136073        4.1612756406       24.3195814946
Al               0.0000000000        5.5483675200       19.4281232573
Al              -2.4025136107        4.1612756398       17.7329714498
Al              -2.4025136106        6.9354593996       17.2408280955
Al               0.0000000000        5.5483675200       15.4618388707
O               -1.4705182483        5.5476028955       20.7678906857
O               -0.7454875355        7.0510990867       22.9594080722
O                0.7345969699        6.8222559890       20.7678906857
O                0.7359213284        4.2752436355       20.7678906857
O                1.6741474785        5.4426128805       22.9594080722
O               -0.9286599429        4.1513905928       22.9594080722
O               -3.9405873980        6.9258942408       25.1906941609
O               -0.7607531944        4.2115739498       14.1580655973
O               -1.6417604210        8.2722529610       25.1906941617
O               -1.6251930537        5.6082310212       25.1906941683
O               -0.7773205572        6.8755958847       14.1580655973
O                1.5380738016        5.5579326856       14.1580655973
O                0.9286599454        4.1711606864       16.3893516751
O               -3.1371105800        5.6615709179       18.5808690636
O               -1.6570260764        5.4327278315       16.3893516751
O                0.7283661310        7.0412140421       16.3893516751
O               -3.1384349334        8.2085832756       18.5808690590
O               -0.9319953613        6.9362240224       18.5808690586
Al               4.8050272200        2.7741837600       23.8869208793
Al               7.2075408306        1.3870918804       22.1079316545
Al               4.8050272199       -0.0000000007       21.6157883002
Al               4.8050272200        2.7741837600       19.9206364927
Al               4.8050272208        0.0000000027       15.0291782554
Al               4.8050272200        2.7741837600       13.6475837443
Al               7.2075408319        1.3870918698       25.7011760089
Al               4.8050272192       -0.0000000027       24.3195814946
Al               7.2075408268        1.3870918807       19.4281232572
Al               4.8050272201        0.0000000007       17.7329714498
Al               4.8050272200        2.7741837600       17.2408280982
Al               7.2075408306        1.3870918801       15.4618388693
O                5.7370225813        1.3863272576       20.7678906914
O                6.4620532964        2.8898234485       22.9594080749
O                7.9421378000        2.6609803621       20.7678906864
O                7.9434621534        0.1139679944       20.7678906910
O                8.8816883096        1.2813372390       22.9594080752
O                6.2788808886       -0.0098850467       22.9594080769
O                3.2669534184        2.7646185944       25.1906941527
O                6.4467876410        0.0502983090       14.1580655883
O                5.5657804144        4.1109773202       25.1906941527
O                5.5823477772        1.4469553853       25.1906941527
O                6.4302202737        2.7143202588       14.1580655817
O                8.7456146180        1.3966570392       14.1580655891
O                8.1362007748        0.0098850475       16.3893516748
O                4.0704302501        1.5002952810       18.5808690643
O                5.5505147555        1.2714521933       16.3893516778
O                7.9359069627        2.8799383985       16.3893516731
O                4.0691058916        4.0473076345       18.5808690643
O                6.2755454683        2.7749483845       18.5808690643
Al               2.4025136102        6.9354594006       23.8869208807
Al               4.8050272193        5.5483675203       22.1079316545
Al               2.4025136095        4.1612756405       21.6157883002
Al               2.4025136077        6.9354593976       19.9206364928
Al               2.4025136119        4.1612756379       15.0291782554
Al               2.4025136198        6.9354593966       13.6475837411
Al               4.8050272279        5.5483675268       25.7011760089
Al               2.4025136081        4.1612756421       24.3195814946
Al               4.8050272210        5.5483675168       19.4281232572
Al               2.4025136105        4.1612756395       17.7329714498
Al               2.4025136099        6.9354594007       17.2408280955
Al               4.8050272196        5.5483675205       15.4618388693
O                3.3345089690        5.5476028941       20.7678906864
O                4.0595396852        7.0510990885       22.9594080752
O                5.5396241934        6.8222559853       20.7678906910
O                5.5409485468        4.2752436341       20.7678906914
O                6.4791746973        5.4426128815       22.9594080769
O                3.8763672746        4.1513905936       22.9594080749
O                0.8644398053        6.9258942372       25.1906941683
O                4.0442740216        4.2115739484       14.1580655817
O                3.1632668031        8.2722529453       25.1906941609
O                3.1798341705        5.6082310296       25.1906941617
O                4.0277066751        6.8755958761       14.1580655891
O                6.3431010195        5.5579326906       14.1580655883
O                5.7336871629        4.1711606872       16.3893516778
O                1.6679166381        5.6615709217       18.5808690586
O                3.1480011459        5.4327278348       16.3893516731
O                5.5333933504        7.0412140410       16.3893516748
O                1.6665922791        8.2085832762       18.5808690636
O                3.8730318567        6.9362240196       18.5808690590



     Writing config-only to output data dir ./tmp/al2o3.save/ :
     XML data file
     NEW-OLD atomic charge density approx. for the potential

     negative rho (up, down):  8.631E-03 0.000E+00

     total cpu time spent up to now is     3789.4 secs

     Self-consistent Calculation

     iteration #  1     ecut=    60.00 Ry     beta= 0.30
     Davidson diagonalization with overlap
     ethr =  1.00E-06,  avg # of iterations = 11.8

     negative rho (up, down):  5.781E-03 0.000E+00

     total cpu time spent up to now is     4051.9 secs

     total energy              =   -4910.55533764 Ry
     estimated scf accuracy    <       0.07035793 Ry

     iteration #  2     ecut=    60.00 Ry     beta= 0.30
     Davidson diagonalization with overlap
     ethr =  1.22E-05,  avg # of iterations =  2.0

     negative rho (up, down):  4.722E-03 0.000E+00

     total cpu time spent up to now is     4129.7 secs

     total energy              =   -4910.55960534 Ry
     estimated scf accuracy    <       0.01297775 Ry

     iteration #  3     ecut=    60.00 Ry     beta= 0.30
     Davidson diagonalization with overlap
     ethr =  2.25E-06,  avg # of iterations =  2.0

     negative rho (up, down):  4.318E-03 0.000E+00

     total cpu time spent up to now is     4209.9 secs

     total energy              =   -4910.56114734 Ry
     estimated scf accuracy    <       0.00307887 Ry

     iteration #  4     ecut=    60.00 Ry     beta= 0.30
     Davidson diagonalization with overlap
     ethr =  5.35E-07,  avg # of iterations =  2.0

     negative rho (up, down):  4.252E-03 0.000E+00

     total cpu time spent up to now is     4292.1 secs

     total energy              =   -4910.56166645 Ry
     estimated scf accuracy    <       0.00035214 Ry

     iteration #  5     ecut=    60.00 Ry     beta= 0.30
     Davidson diagonalization with overlap
     ethr =  6.11E-08,  avg # of iterations =  3.5

     negative rho (up, down):  4.231E-03 0.000E+00

     total cpu time spent up to now is     4377.9 secs

     total energy              =   -4910.56175238 Ry
     estimated scf accuracy    <       0.00006606 Ry

     iteration #  6     ecut=    60.00 Ry     beta= 0.30
     Davidson diagonalization with overlap
     ethr =  1.15E-08,  avg # of iterations =  4.2

     negative rho (up, down):  4.233E-03 0.000E+00

     total cpu time spent up to now is     4466.1 secs

     total energy              =   -4910.56176709 Ry
     estimated scf accuracy    <       0.00001442 Ry

     iteration #  7     ecut=    60.00 Ry     beta= 0.30
     Davidson diagonalization with overlap
     ethr =  2.50E-09,  avg # of iterations =  4.5

     negative rho (up, down):  4.240E-03 0.000E+00

     total cpu time spent up to now is     4568.5 secs

     total energy              =   -4910.56176809 Ry
     estimated scf accuracy    <       0.00001124 Ry

     iteration #  8     ecut=    60.00 Ry     beta= 0.30
     Davidson diagonalization with overlap
     ethr =  1.95E-09,  avg # of iterations =  3.8

     negative rho (up, down):  4.246E-03 0.000E+00

     total cpu time spent up to now is     4668.1 secs

     total energy              =   -4910.56177183 Ry
     estimated scf accuracy    <       0.00000297 Ry

     iteration #  9     ecut=    60.00 Ry     beta= 0.30
     Davidson diagonalization with overlap
     ethr =  5.16E-10,  avg # of iterations =  2.8

     negative rho (up, down):  4.251E-03 0.000E+00

     total cpu time spent up to now is     4750.0 secs

     total energy              =   -4910.56177216 Ry
     estimated scf accuracy    <       0.00000027 Ry

     iteration # 10     ecut=    60.00 Ry     beta= 0.30
     Davidson diagonalization with overlap
     ethr =  4.66E-11,  avg # of iterations =  6.0

     negative rho (up, down):  4.254E-03 0.000E+00

     total cpu time spent up to now is     4862.6 secs

     total energy              =   -4910.56177226 Ry
     estimated scf accuracy    <       0.00000013 Ry

     iteration # 11     ecut=    60.00 Ry     beta= 0.30
     Davidson diagonalization with overlap
     ethr =  2.23E-11,  avg # of iterations =  3.8

     negative rho (up, down):  4.256E-03 0.000E+00

     total cpu time spent up to now is     4967.6 secs

     total energy              =   -4910.56177232 Ry
     estimated scf accuracy    <       0.00000009 Ry

     iteration # 12     ecut=    60.00 Ry     beta= 0.30
     Davidson diagonalization with overlap
     ethr =  1.58E-11,  avg # of iterations =  3.5

     negative rho (up, down):  4.261E-03 0.000E+00

     total cpu time spent up to now is     5052.0 secs

     End of self-consistent calculation

          k = 0.0000 0.0000 0.0000 (166875 PWs)   bands (ev):

   -19.4930 -19.1383 -18.7056 -18.5666 -18.5666 -18.5666 -18.5186 -18.5186
   -18.5186 -18.3166 -18.3166 -18.3166 -18.2076 -18.0799 -18.0799 -18.0799
   -17.8272 -17.8272 -17.8272 -17.8186 -17.8186 -17.8186 -17.7341 -17.5115
   -17.5115 -17.5115 -17.4741 -17.4353 -17.4353 -17.4353 -17.4111 -17.4111
   -17.4111 -17.2699 -17.2699 -17.2699 -17.2119 -17.2119 -17.2119 -17.1496
   -17.1496 -17.1496 -17.1088 -17.1088 -17.0733 -17.0733 -17.0733 -17.0113
   -17.0113 -16.9978 -16.9978 -16.9978 -16.9919 -16.9919 -16.9919 -16.9425
   -16.9425 -16.9425 -16.9239 -16.9239 -16.8795 -16.8795 -16.8433 -16.8433
   -16.8433 -16.8139 -16.8139 -16.8034 -16.8034 -16.7832 -16.7832 -16.7832
    -7.1259  -6.8362  -6.8362  -6.8362  -6.8229  -6.8229  -6.8229  -6.5694
    -6.5694  -6.5694  -6.5039  -6.3322  -6.3322  -6.3322  -6.3187  -6.1602
    -6.0687  -6.0687  -6.0687  -5.8806  -5.8806  -5.8625  -5.8625  -5.8625
    -5.7941  -5.7941  -5.7941  -5.7804  -5.6044  -5.6044  -5.6044  -5.5954
    -5.5454  -5.5454  -5.4038  -5.4038  -5.4038  -5.3759  -5.3759  -5.3759
    -5.2892  -5.2226  -5.2226  -5.2226  -5.0379  -5.0379  -4.6604  -4.5851
    -4.5851  -4.5298  -4.5298  -4.5298  -4.5098  -4.5098  -4.5098  -4.4346
    -4.4346  -4.3972  -4.3972  -4.3972  -4.2948  -4.2948  -4.2948  -4.2383
    -4.2383  -4.2073  -4.2073  -4.2073  -4.1873  -4.1873  -4.1873  -4.0453
    -4.0031  -4.0031  -4.0031  -3.9888  -3.9636  -3.9636  -3.9636  -3.9567
    -3.9567  -3.9567  -3.8577  -3.6540  -3.6540  -3.6540  -3.6356  -3.6356
    -3.6356  -3.5728  -3.5249  -3.2716  -3.2716  -3.2716  -3.2587  -3.1361
    -3.1195  -3.1195  -3.1195  -2.9524  -2.9524  -2.9524  -2.8877  -2.8877
    -2.8877  -2.8774  -2.8774  -2.8774  -2.7997  -2.7997  -2.7997  -2.7852
    -2.7852  -2.7254  -2.7254  -2.7254  -2.7049  -2.7049  -2.6021  -2.6021
    -2.6021  -2.5074  -2.4977  -2.4977  -2.4977  -2.2819  -2.2819  -2.2819
    -2.2581  -2.2581  -2.1548  -2.1548  -2.1548  -2.1217  -2.1217  -2.1036
    -2.1036  -2.1036  -2.0352  -2.0352  -2.0352  -2.0066  -2.0066  -2.0066
    -1.9526  -1.9526  -1.9526  -1.8455  -1.8455  -1.8455  -1.8254  -1.8254
    -1.8254  -1.8016  -1.7529  -1.7529  -1.7529  -1.7401  -1.7401  -1.7339
    -1.7339  -1.7020  -1.7020  -1.7020  -1.6793  -1.6793  -1.6793  -1.5745
    -1.5745  -1.5745  -1.5645  -1.5645  -1.5645  -1.5341  -1.5341  -1.5341
    -1.4072  -1.4072  -1.4072  -1.2748  -1.2748  -1.2748  -1.2368  -1.2368
    -1.2368  -1.1288  -1.1288  -1.1288  -1.0926  -1.0926  -1.0926  -1.0828
    -1.0738  -1.0738  -1.0018  -1.0018  -0.8546  -0.8546  -0.8468  -0.8468
    -0.8468  -0.8384  -0.8384  -0.8384  -0.7799  -0.7799  -0.7799  -0.7188
    -0.7188  -0.7188  -0.6959  -0.6959  -0.5435  -0.5435  -0.5284  -0.5284

          k = 0.0000 0.2887 0.0000 (166721 PWs)   bands (ev):

   -19.4238 -19.0734 -18.9114 -18.6866 -18.6865 -18.6474 -18.6072 -18.4380
   -18.4359 -18.2760 -18.2756 -18.2696 -18.1590 -18.0423 -18.0347 -18.0251
   -17.8519 -17.8423 -17.7638 -17.7353 -17.7271 -17.7144 -17.6979 -17.5546
   -17.5480 -17.5059 -17.4979 -17.4963 -17.4623 -17.3910 -17.3905 -17.3609
   -17.3297 -17.3109 -17.2905 -17.2624 -17.2532 -17.2304 -17.2145 -17.2141
   -17.1977 -17.1838 -17.1667 -17.1179 -17.1068 -17.0961 -17.0614 -17.0458
   -17.0428 -17.0391 -17.0338 -16.9939 -16.9898 -16.9825 -16.9792 -16.9640
   -16.9500 -16.9116 -16.9010 -16.8944 -16.8816 -16.8719 -16.8572 -16.8441
   -16.8171 -16.8140 -16.7995 -16.7894 -16.7839 -16.7822 -16.7794 -16.7743
    -7.0669  -6.8834  -6.7554  -6.7552  -6.6823  -6.6618  -6.6601  -6.5297
    -6.5010  -6.4691  -6.4479  -6.4368  -6.3440  -6.2623  -6.2520  -6.2472
    -6.2288  -6.1856  -6.1702  -6.0542  -5.9875  -5.9279  -5.8941  -5.8822
    -5.8466  -5.8164  -5.8136  -5.8069  -5.7634  -5.6381  -5.6094  -5.5563
    -5.5283  -5.4672  -5.4535  -5.4518  -5.3950  -5.3845  -5.3718  -5.2871
    -5.2686  -5.2487  -5.2188  -5.2067  -5.1150  -4.8612  -4.8011  -4.7385
    -4.7158  -4.7147  -4.6748  -4.6265  -4.6150  -4.5773  -4.5489  -4.4905
    -4.4845  -4.4734  -4.4505  -4.4403  -4.4338  -4.3425  -4.3419  -4.3362
    -4.3131  -4.2841  -4.2760  -4.2460  -4.1891  -4.1727  -4.1590  -4.0950
    -3.9772  -3.9138  -3.8883  -3.8426  -3.8191  -3.7841  -3.7657  -3.7376
    -3.7265  -3.7175  -3.6439  -3.6332  -3.5903  -3.5805  -3.5725  -3.4607
    -3.3808  -3.3271  -3.3134  -3.3113  -3.2704  -3.2508  -3.2292  -3.2020
    -3.1788  -3.1630  -3.1159  -3.0737  -3.0634  -2.9993  -2.9845  -2.9833
    -2.9499  -2.8953  -2.8847  -2.8794  -2.8578  -2.8165  -2.7982  -2.7283
    -2.7016  -2.6719  -2.6651  -2.6559  -2.6298  -2.6197  -2.6066  -2.5480
    -2.5186  -2.4938  -2.4817  -2.4570  -2.4332  -2.3952  -2.3333  -2.2774
    -2.2509  -2.2414  -2.2283  -2.1996  -2.1960  -2.1886  -2.1580  -2.1400
    -2.1353  -2.1337  -2.0975  -2.0894  -2.0823  -2.0251  -2.0211  -2.0019
    -1.9731  -1.9508  -1.9351  -1.9318  -1.8989  -1.8974  -1.8674  -1.8646
    -1.8609  -1.8388  -1.8340  -1.7999  -1.7990  -1.7658  -1.7558  -1.7413
    -1.7302  -1.6813  -1.6783  -1.6339  -1.6216  -1.6075  -1.5850  -1.5703
    -1.5664  -1.5599  -1.5204  -1.4704  -1.4668  -1.4437  -1.4390  -1.4278
    -1.4185  -1.3775  -1.3384  -1.2897  -1.2583  -1.2428  -1.2416  -1.2342
    -1.1904  -1.1854  -1.1549  -1.1287  -1.1222  -1.1044  -1.0749  -1.0644
    -1.0629  -1.0590  -1.0507  -1.0452  -1.0014  -0.9195  -0.9126  -0.8782
    -0.8740  -0.8606  -0.8369  -0.8267  -0.8038  -0.7789  -0.7615  -0.7560
    -0.7550  -0.7164  -0.7095  -0.7022  -0.6935  -0.6258  -0.5721  -0.5416

          k = 0.0000-0.5774 0.0000 (166636 PWs)   bands (ev):

   -19.2228 -19.2228 -18.8863 -18.8863 -18.7385 -18.7385 -18.4825 -18.4825
   -18.4563 -18.4563 -18.1705 -18.1705 -18.0303 -18.0303 -18.0166 -18.0166
   -17.8010 -17.8010 -17.7157 -17.7157 -17.6546 -17.6546 -17.5661 -17.5661
   -17.5386 -17.5386 -17.5279 -17.5279 -17.4005 -17.4005 -17.3909 -17.3909
   -17.3739 -17.3739 -17.3040 -17.3040 -17.2277 -17.2277 -17.2160 -17.2160
   -17.1778 -17.1778 -17.1684 -17.1684 -17.1593 -17.1593 -17.1298 -17.1298
   -17.0423 -17.0423 -17.0329 -17.0329 -17.0175 -17.0175 -16.9351 -16.9351
   -16.9244 -16.9244 -16.9056 -16.9056 -16.8495 -16.8495 -16.8261 -16.8261
   -16.8146 -16.8146 -16.8050 -16.8050 -16.7762 -16.7762 -16.7658 -16.7658
    -6.9330  -6.9330  -6.5865  -6.5865  -6.5496  -6.5496  -6.4781  -6.4781
    -6.4722  -6.4722  -6.3886  -6.3886  -6.3809  -6.3809  -6.1973  -6.1973
    -6.1899  -6.1899  -6.1406  -6.1406  -6.1077  -6.1077  -6.0101  -6.0101
    -5.9195  -5.9195  -5.8555  -5.8555  -5.8090  -5.8090  -5.7815  -5.7815
    -5.5439  -5.5439  -5.5187  -5.5187  -5.3437  -5.3437  -5.3141  -5.3141
    -5.0992  -5.0992  -4.9954  -4.9954  -4.9715  -4.9715  -4.9536  -4.9536
    -4.8762  -4.8762  -4.8111  -4.8111  -4.6243  -4.6243  -4.6100  -4.6100
    -4.5171  -4.5171  -4.4940  -4.4940  -4.4352  -4.4352  -4.3933  -4.3933
    -4.3859  -4.3859  -4.1761  -4.1761  -4.0400  -4.0400  -3.9819  -3.9819
    -3.8877  -3.8877  -3.8406  -3.8406  -3.7344  -3.7344  -3.7242  -3.7242
    -3.6422  -3.6422  -3.5745  -3.5745  -3.5151  -3.5151  -3.5067  -3.5067
    -3.4424  -3.4424  -3.2686  -3.2686  -3.2295  -3.2295  -3.1153  -3.1153
    -3.0632  -3.0632  -3.0201  -3.0201  -2.9517  -2.9517  -2.9014  -2.9014
    -2.8902  -2.8902  -2.8553  -2.8553  -2.8165  -2.8165  -2.7004  -2.7004
    -2.6845  -2.6845  -2.6733  -2.6733  -2.5950  -2.5950  -2.5915  -2.5915
    -2.5354  -2.5354  -2.5238  -2.5238  -2.4236  -2.4236  -2.3495  -2.3495
    -2.2883  -2.2883  -2.2755  -2.2755  -2.2476  -2.2476  -2.2252  -2.2252
    -2.0959  -2.0959  -2.0896  -2.0896  -2.0776  -2.0776  -2.0105  -2.0105
    -1.9927  -1.9927  -1.9494  -1.9494  -1.9466  -1.9466  -1.8920  -1.8920
    -1.8768  -1.8768  -1.8131  -1.8131  -1.7772  -1.7772  -1.7153  -1.7153
    -1.6741  -1.6741  -1.6442  -1.6442  -1.6076  -1.6076  -1.5251  -1.5251
    -1.5198  -1.5198  -1.4952  -1.4952  -1.4247  -1.4247  -1.4245  -1.4245
    -1.3932  -1.3932  -1.3274  -1.3274  -1.3122  -1.3122  -1.2648  -1.2648
    -1.2620  -1.2620  -1.1642  -1.1642  -1.1045  -1.1045  -1.0878  -1.0878
    -1.0600  -1.0600  -1.0389  -1.0389  -0.9895  -0.9895  -0.9285  -0.9285
    -0.8814  -0.8814  -0.8736  -0.8736  -0.8534  -0.8534  -0.7390  -0.7390
    -0.7264  -0.7264  -0.6690  -0.6690  -0.6630  -0.6630  -0.6115  -0.6115

          k = 0.2500 0.4330 0.0000 (166642 PWs)   bands (ev):

   -19.2887 -19.0320 -19.0320 -18.9473 -18.7119 -18.7119 -18.5355 -18.4121
   -18.3746 -18.3369 -18.3363 -18.2109 -18.1165 -18.0689 -17.9542 -17.9518
   -17.8297 -17.7299 -17.7248 -17.7201 -17.6417 -17.6308 -17.6277 -17.6207
   -17.5940 -17.4984 -17.4863 -17.4628 -17.4419 -17.3929 -17.3782 -17.3591
   -17.3309 -17.3306 -17.3248 -17.3219 -17.2952 -17.2712 -17.2637 -17.1868
   -17.1818 -17.1681 -17.1633 -17.1577 -17.1527 -17.1488 -17.0915 -17.0858
   -17.0850 -17.0789 -17.0635 -17.0316 -17.0006 -16.9965 -16.9576 -16.9435
   -16.9422 -16.9126 -16.8852 -16.8766 -16.8765 -16.8477 -16.8414 -16.8194
   -16.8158 -16.8099 -16.7978 -16.7917 -16.7751 -16.7740 -16.7717 -16.7713
    -6.9524  -6.8051  -6.8047  -6.6025  -6.5571  -6.5423  -6.4939  -6.4582
    -6.4472  -6.4282  -6.4069  -6.4002  -6.3534  -6.3191  -6.2342  -6.1768
    -6.1729  -6.1642  -6.1552  -6.1441  -6.1072  -6.0833  -6.0492  -5.9670
    -5.9548  -5.9217  -5.8635  -5.8634  -5.8355  -5.7699  -5.7470  -5.6183
    -5.5982  -5.5708  -5.5293  -5.4887  -5.4621  -5.3477  -5.3333  -5.2781
    -5.2188  -5.0889  -5.0858  -5.0624  -5.0242  -4.9471  -4.9376  -4.8428
    -4.8411  -4.8326  -4.7818  -4.7624  -4.6804  -4.6617  -4.6238  -4.5895
    -4.5685  -4.5168  -4.4508  -4.4458  -4.4376  -4.3864  -4.3606  -4.3488
    -4.2572  -4.2481  -4.2226  -4.2141  -4.2089  -4.1680  -4.0518  -3.9816
    -3.9659  -3.9475  -3.8689  -3.8458  -3.8380  -3.7291  -3.7240  -3.6858
    -3.6539  -3.5971  -3.5831  -3.5769  -3.5037  -3.4663  -3.3963  -3.3867
    -3.3755  -3.3611  -3.3436  -3.2474  -3.2308  -3.1790  -3.0822  -3.0738
    -3.0498  -3.0382  -3.0314  -3.0251  -3.0212  -2.9937  -2.9664  -2.9358
    -2.9209  -2.8630  -2.8576  -2.8151  -2.8021  -2.7739  -2.7458  -2.7290
    -2.7127  -2.7110  -2.6410  -2.6198  -2.6155  -2.5957  -2.5551  -2.5093
    -2.5043  -2.4673  -2.4554  -2.4550  -2.4513  -2.4241  -2.3885  -2.3540
    -2.3403  -2.3334  -2.3130  -2.3008  -2.2893  -2.2279  -2.2230  -2.2169
    -2.1928  -2.1781  -2.1344  -2.1326  -2.1102  -2.0540  -2.0408  -2.0323
    -2.0037  -1.9903  -1.9812  -1.9721  -1.9686  -1.9428  -1.8887  -1.8812
    -1.8580  -1.8401  -1.8159  -1.7659  -1.7567  -1.7541  -1.7429  -1.7300
    -1.7241  -1.6882  -1.6481  -1.6134  -1.5774  -1.5602  -1.5307  -1.5140
    -1.4968  -1.4924  -1.4883  -1.4795  -1.4501  -1.4286  -1.4206  -1.4029
    -1.3852  -1.3790  -1.3510  -1.3416  -1.3107  -1.3093  -1.2669  -1.2371
    -1.2134  -1.2080  -1.2077  -1.1644  -1.1269  -1.1232  -1.1043  -1.0652
    -1.0592  -1.0541  -1.0474  -1.0194  -1.0136  -0.9993  -0.9967  -0.9482
    -0.9145  -0.9126  -0.8720  -0.8433  -0.8192  -0.8188  -0.8165  -0.7467
    -0.7193  -0.6990  -0.6891  -0.6651  -0.6396  -0.6298  -0.5960  -0.5674

     highest occupied level (ev):    -0.5284

!    total energy              =   -4910.56177236 Ry
     total all-electron energy =    -34162.391542 Ry
     estimated scf accuracy    <          1.4E-09 Ry

     The total energy is the sum of the following terms:
     one-electron contribution =  -81008.99709278 Ry
     hartree contribution      =   40765.84899758 Ry
     xc contribution           =    -674.91439952 Ry
     ewald contribution        =   38355.31327430 Ry
     one-center paw contrib.   =   -2347.81255195 Ry

     convergence has been achieved in  12 iterations

     negative rho (up, down):  4.261E-03 0.000E+00

     Forces acting on atoms (cartesian axes, Ry/au):

     atom    1 type  1   force =    -0.00000000    0.00000000    0.03862399
     atom    2 type  1   force =     0.00000000    0.00000000    0.00104012
     atom    3 type  1   force =     0.00000000    0.00000000    0.00587585
     atom    4 type  1   force =     0.00000000   -0.00000000    0.00143874
     atom    5 type  1   force =     0.00000000   -0.00000000    0.00114497
     atom    6 type  1   force =     0.00000000    0.00000000    0.08729799
     atom    7 type  1   force =     0.00000000    0.00000000   -0.08729799
     atom    8 type  1   force =     0.00000000   -0.00000000   -0.00114497
     atom    9 type  1   force =    -0.00000000   -0.00000000   -0.00143874
     atom   10 type  1   force =     0.00000000   -0.00000000   -0.00587585
     atom   11 type  1   force =    -0.00000000    0.00000000   -0.00104012
     atom   12 type  1   force =    -0.00000000    0.00000000   -0.03862399
     atom   13 type  2   force =     0.00068474   -0.00098883    0.00092687
     atom   14 type  2   force =    -0.00661120   -0.00108760    0.01395179
     atom   15 type  2   force =    -0.00119872   -0.00009859    0.00092687
     atom   16 type  2   force =     0.00051397    0.00108741    0.00092687
     atom   17 type  2   force =     0.00236371    0.00626926    0.01395179
     atom   18 type  2   force =     0.00424749   -0.00518166    0.01395179
     atom   19 type  2   force =     0.00773787    0.03926326   -0.00039332
     atom   20 type  2   force =    -0.03013404    0.02633282    0.00039331
     atom   21 type  2   force =     0.03013404   -0.02633282   -0.00039332
     atom   22 type  2   force =    -0.03787191   -0.01293044   -0.00039331
     atom   23 type  2   force =     0.03787191    0.01293044    0.00039332
     atom   24 type  2   force =    -0.00773787   -0.03926326    0.00039332
     atom   25 type  2   force =    -0.00424749    0.00518166   -0.01395179
     atom   26 type  2   force =     0.00119872    0.00009859   -0.00092687
     atom   27 type  2   force =     0.00661119    0.00108760   -0.01395179
     atom   28 type  2   force =    -0.00236371   -0.00626926   -0.01395179
     atom   29 type  2   force =    -0.00051398   -0.00108741   -0.00092687
     atom   30 type  2   force =    -0.00068474    0.00098882   -0.00092687
     atom   31 type  1   force =     0.00000000    0.00000000    0.03862399
     atom   32 type  1   force =     0.00000000    0.00000000    0.00104012
     atom   33 type  1   force =    -0.00000000    0.00000000    0.00587586
     atom   34 type  1   force =    -0.00000000    0.00000000    0.00143874
     atom   35 type  1   force =     0.00000000    0.00000000    0.00114497
     atom   36 type  1   force =     0.00000000   -0.00000000    0.08729799
     atom   37 type  1   force =     0.00000000    0.00000000   -0.08729798
     atom   38 type  1   force =    -0.00000000   -0.00000000   -0.00114497
     atom   39 type  1   force =     0.00000000    0.00000000   -0.00143874
     atom   40 type  1   force =     0.00000000   -0.00000000   -0.00587586
     atom   41 type  1   force =     0.00000000   -0.00000000   -0.00104012
     atom   42 type  1   force =     0.00000000   -0.00000000   -0.03862399
     atom   43 type  2   force =     0.00068474   -0.00098882    0.00092687
     atom   44 type  2   force =    -0.00661119   -0.00108760    0.01395179
     atom   45 type  2   force =    -0.00119872   -0.00009859    0.00092687
     atom   46 type  2   force =     0.00051398    0.00108741    0.00092687
     atom   47 type  2   force =     0.00236371    0.00626926    0.01395179
     atom   48 type  2   force =     0.00424749   -0.00518166    0.01395179
     atom   49 type  2   force =     0.00773787    0.03926326   -0.00039331
     atom   50 type  2   force =    -0.03013404    0.02633282    0.00039331
     atom   51 type  2   force =     0.03013404   -0.02633282   -0.00039332
     atom   52 type  2   force =    -0.03787192   -0.01293043   -0.00039332
     atom   53 type  2   force =     0.03787191    0.01293043    0.00039331
     atom   54 type  2   force =    -0.00773787   -0.03926325    0.00039331
     atom   55 type  2   force =    -0.00424749    0.00518166   -0.01395179
     atom   56 type  2   force =     0.00119871    0.00009859   -0.00092687
     atom   57 type  2   force =     0.00661119    0.00108760   -0.01395179
     atom   58 type  2   force =    -0.00236371   -0.00626926   -0.01395179
     atom   59 type  2   force =    -0.00051398   -0.00108741   -0.00092687
     atom   60 type  2   force =    -0.00068474    0.00098882   -0.00092687
     atom   61 type  1   force =     0.00000000    0.00000000    0.03862399
     atom   62 type  1   force =    -0.00000000    0.00000000    0.00104012
     atom   63 type  1   force =     0.00000000    0.00000000    0.00587586
     atom   64 type  1   force =     0.00000000   -0.00000000    0.00143874
     atom   65 type  1   force =     0.00000000   -0.00000000    0.00114497
     atom   66 type  1   force =     0.00000000   -0.00000000    0.08729798
     atom   67 type  1   force =    -0.00000000    0.00000000   -0.08729799
     atom   68 type  1   force =    -0.00000000    0.00000000   -0.00114497
     atom   69 type  1   force =     0.00000000   -0.00000000   -0.00143874
     atom   70 type  1   force =    -0.00000000   -0.00000000   -0.00587586
     atom   71 type  1   force =     0.00000000   -0.00000000   -0.00104012
     atom   72 type  1   force =    -0.00000000   -0.00000000   -0.03862399
     atom   73 type  2   force =     0.00068474   -0.00098882    0.00092687
     atom   74 type  2   force =    -0.00661119   -0.00108760    0.01395179
     atom   75 type  2   force =    -0.00119871   -0.00009859    0.00092687
     atom   76 type  2   force =     0.00051398    0.00108741    0.00092687
     atom   77 type  2   force =     0.00236370    0.00626926    0.01395179
     atom   78 type  2   force =     0.00424749   -0.00518166    0.01395179
     atom   79 type  2   force =     0.00773787    0.03926325   -0.00039331
     atom   80 type  2   force =    -0.03013404    0.02633282    0.00039332
     atom   81 type  2   force =     0.03013404   -0.02633282   -0.00039331
     atom   82 type  2   force =    -0.03787191   -0.01293043   -0.00039331
     atom   83 type  2   force =     0.03787192    0.01293043    0.00039332
     atom   84 type  2   force =    -0.00773787   -0.03926326    0.00039331
     atom   85 type  2   force =    -0.00424749    0.00518166   -0.01395179
     atom   86 type  2   force =     0.00119872    0.00009859   -0.00092687
     atom   87 type  2   force =     0.00661119    0.00108760   -0.01395179
     atom   88 type  2   force =    -0.00236371   -0.00626926   -0.01395179
     atom   89 type  2   force =    -0.00051398   -0.00108741   -0.00092687
     atom   90 type  2   force =    -0.00068474    0.00098882   -0.00092687
     atom   91 type  1   force =     0.00000000   -0.00000000    0.03862399
     atom   92 type  1   force =     0.00000000   -0.00000000    0.00104012
     atom   93 type  1   force =     0.00000000   -0.00000000    0.00587586
     atom   94 type  1   force =     0.00000000    0.00000000    0.00143874
     atom   95 type  1   force =    -0.00000000    0.00000000    0.00114497
     atom   96 type  1   force =    -0.00000000   -0.00000000    0.08729799
     atom   97 type  1   force =    -0.00000000   -0.00000000   -0.08729799
     atom   98 type  1   force =     0.00000000   -0.00000000   -0.00114497
     atom   99 type  1   force =    -0.00000000    0.00000000   -0.00143874
     atom  100 type  1   force =    -0.00000000    0.00000000   -0.00587586
     atom  101 type  1   force =    -0.00000000   -0.00000000   -0.00104012
     atom  102 type  1   force =     0.00000000   -0.00000000   -0.03862399
     atom  103 type  2   force =     0.00068474   -0.00098882    0.00092687
     atom  104 type  2   force =    -0.00661119   -0.00108760    0.01395179
     atom  105 type  2   force =    -0.00119872   -0.00009859    0.00092687
     atom  106 type  2   force =     0.00051398    0.00108741    0.00092687
     atom  107 type  2   force =     0.00236371    0.00626926    0.01395179
     atom  108 type  2   force =     0.00424749   -0.00518166    0.01395179
     atom  109 type  2   force =     0.00773787    0.03926326   -0.00039332
     atom  110 type  2   force =    -0.03013404    0.02633282    0.00039332
     atom  111 type  2   force =     0.03013404   -0.02633282   -0.00039331
     atom  112 type  2   force =    -0.03787191   -0.01293044   -0.00039332
     atom  113 type  2   force =     0.03787191    0.01293044    0.00039331
     atom  114 type  2   force =    -0.00773787   -0.03926326    0.00039332
     atom  115 type  2   force =    -0.00424749    0.00518166   -0.01395179
     atom  116 type  2   force =     0.00119872    0.00009859   -0.00092687
     atom  117 type  2   force =     0.00661120    0.00108760   -0.01395179
     atom  118 type  2   force =    -0.00236370   -0.00626926   -0.01395179
     atom  119 type  2   force =    -0.00051397   -0.00108741   -0.00092687
     atom  120 type  2   force =    -0.00068474    0.00098883   -0.00092687

     Total force =     0.342721     Total SCF correction =     0.000134


     Computing stress (Cartesian axis) and pressure


     negative rho (up, down):  4.261E-03 0.000E+00
          total   stress  (Ry/bohr**3)                   (kbar)     P=       -0.02
   0.00008320   0.00000000   0.00000000           12.24        0.00        0.00
   0.00000000   0.00008320   0.00000000            0.00       12.24        0.00
   0.00000000   0.00000000  -0.00016682            0.00        0.00      -24.54

     Energy error            =      3.7E-01 Ry
     Gradient error          =      8.7E-02 Ry/Bohr

     number of scf cycles    =   3
     number of bfgs steps    =   2

     energy             old  =   -4910.1881582345 Ry
     energy             new  =   -4910.5617723648 Ry

     CASE: energy            _new < energy            _old

     new trust radius        =       0.3097971162 bohr
     new conv_thr            =       0.0000000087 Ry


ATOMIC_POSITIONS (angstrom)
Al              -0.0000000002        2.7741837595       23.9479441632
Al               2.4025136111        1.3870918796       22.1090648316
Al               0.0000000000       -0.0000000000       21.6216042926
Al              -0.0000000008        2.7741837629       19.9220172139
Al               0.0000000000       -0.0000000000       15.0228353001
Al              -0.0000000089        2.7741837553       13.8115213149
Al               2.4025136015        1.3870918853       25.5372384351
Al               0.0000000000       -0.0000000000       24.3259244499
Al               2.4025136121        1.3870918822       19.4267425361
Al               0.0000000000       -0.0000000000       17.7271554574
Al               0.0000000009        2.7741837608       17.2396949184
Al               2.4025136095        1.3870918799       15.4008155868
O                0.9327931085        1.3851585519       20.7689478645
O                1.6477931168        2.8895697789       22.9746365006
O                3.1356995791        2.6608738423       20.7689478653
O                3.1390481960        0.1152432164       20.7689478609
O                4.0810578844        1.2894600466       22.9746364975
O                1.4786898275       -0.0177541879       22.9746364968
O               -1.5497006070        2.7990892624       25.2048666441
O                1.6060945335        0.0574645515       14.1438931054
O                0.7964190820        4.1038110908       25.2048666508
O                0.7532814687        1.4196509463       25.2048666446
O                1.6492321243        2.7416246975       14.1438931059
O                3.9522142186        1.3621863662       14.1438930992
O                3.3263373913        0.0177541891       16.3741232494
O               -0.7331859695        1.5004017982       18.5798118855
O                0.7547204915        1.2717058607       16.3741232532
O                3.1264829467        2.8718155898       16.3741232544
O               -0.7365345825        4.0460324136       18.5798118847
O                1.4697205034        2.7761170916       18.5798118891
Al              -2.4025136103        6.9354594004       23.9479441632
Al               0.0000000000        5.5483675200       22.1090648276
Al              -2.4025136105        4.1612756407       21.6216042924
Al              -2.4025136071        6.9354593993       19.9220172139
Al              -2.4025136118        4.1612756420       15.0228352957
Al              -2.4025136097        6.9354594100       13.8115213149
Al               0.0000000000        5.5483675200       25.5372384387
Al              -2.4025136082        4.1612756380       24.3259244543
Al               0.0000000000        5.5483675200       19.4267425328
Al              -2.4025136095        4.1612756393       17.7271554576
Al              -2.4025136097        6.9354593988       17.2396949184
Al               0.0000000000        5.5483675200       15.4008155887
O               -1.4697205019        5.5464341879       20.7689478606
O               -0.7547204925        7.0508454180       22.9746364956
O                0.7331859662        6.8221494742       20.7689478606
O                0.7365345857        4.2765188579       20.7689478606
O                1.6785442733        5.4507356902       22.9746364956
O               -0.9238237808        4.1435214519       22.9746364956
O               -3.9522142052        6.9603649152       25.2048666446
O               -0.7964190756        4.2187401737       14.1438931120
O               -1.6060945388        8.2650867351       25.2048666441
O               -1.6492321334        5.5809265754       25.2048666508
O               -0.7532814846        6.9029003318       14.1438931120
O                1.5497006102        5.5234620144       14.1438931120
O                0.9238237844        4.1790298272       16.3741232525
O               -3.1356995774        5.6616774348       18.5798118891
O               -1.6477931200        5.4329814994       16.3741232525
O                0.7239693356        7.0330912334       16.3741232525
O               -3.1390481920        8.2073080537       18.5798118855
O               -0.9327931083        6.9373927286       18.5798118847
Al               4.8050272200        2.7741837600       23.9479441613
Al               7.2075408297        1.3870918812       22.1090648316
Al               4.8050272208        0.0000000001       21.6216042924
Al               4.8050272200        2.7741837600       19.9220172172
Al               4.8050272226        0.0000000005       15.0228352957
Al               4.8050272200        2.7741837600       13.8115213113
Al               7.2075408297        1.3870918700       25.5372384351
Al               4.8050272174       -0.0000000005       24.3259244543
Al               7.2075408271        1.3870918807       19.4267425361
Al               4.8050272192       -0.0000000001       17.7271554576
Al               4.8050272200        2.7741837600       17.2396949224
Al               7.2075408303        1.3870918796       15.4008155868
O                5.7378203283        1.3851585514       20.7689478653
O                6.4528203400        2.8895697806       22.9746364975
O                7.9407267974        2.6608738452       20.7689478609
O                7.9440754120        0.1152432163       20.7689478645
O                8.8860851040        1.2894600486       22.9746364968
O                6.2837170487       -0.0177541891       22.9746365006
O                3.2553266098        2.7990892656       25.2048666380
O                6.4111217588        0.0574645349       14.1438931059
O                5.6014462956        4.1038110963       25.2048666380
O                5.5583087046        1.4196509382       25.2048666380
O                6.4542593534        2.7416247046       14.1438930992
O                8.7572414252        1.3621863648       14.1438931054
O                8.1313646125        0.0177541879       16.3741232532
O                4.0718412538        1.5004017958       18.5798118894
O                5.5597477125        1.2717058620       16.3741232544
O                7.9315101655        2.8718155898       16.3741232494
O                4.0684926343        4.0460324121       18.5798118894
O                6.2747477219        2.7761170921       18.5798118894
Al               2.4025136105        6.9354594001       23.9479441632
Al               4.8050272191        5.5483675192       22.1090648316
Al               2.4025136096        4.1612756392       21.6216042924
Al               2.4025136079        6.9354593978       19.9220172139
Al               2.4025136092        4.1612756375       15.0228352957
Al               2.4025136185        6.9354593947       13.8115213149
Al               4.8050272289        5.5483675247       25.5372384351
Al               2.4025136108        4.1612756425       24.3259244543
Al               4.8050272208        5.5483675171       19.4267425361
Al               2.4025136104        4.1612756408       17.7271554576
Al               2.4025136089        6.9354594004       17.2396949184
Al               4.8050272202        5.5483675205       15.4008155868
O                3.3353067166        5.5464341884       20.7689478609
O                4.0503067285        7.0508454193       22.9746364968
O                5.5382131895        6.8221494718       20.7689478645
O                5.5415618025        4.2765188564       20.7689478653
O                6.4835714945        5.4507356902       22.9746365006
O                3.8812034356        4.1435214528       22.9746364975
O                0.8528130014        6.9603649138       25.2048666508
O                4.0086081380        4.2187401792       14.1438930992
O                3.1989326865        8.2650867185       25.2048666446
O                3.1557950957        5.5809265825       25.2048666441
O                4.0517457513        6.9029003237       14.1438931054
O                6.3547278270        5.5234620176       14.1438931059
O                5.7288510008        4.1790298281       16.3741232544
O                1.6693276409        5.6616774377       18.5798118847
O                3.1572341032        5.4329815011       16.3741232494
O                5.5289965560        7.0330912314       16.3741232532
O                1.6659790240        8.2073080536       18.5798118891
O                3.8722341115        6.9373927281       18.5798118855



     Writing config-only to output data dir ./tmp/al2o3.save/ :
     XML data file
     NEW-OLD atomic charge density approx. for the potential

     negative rho (up, down):  4.606E-02 0.000E+00

     total cpu time spent up to now is     5171.5 secs

     Self-consistent Calculation

     iteration #  1     ecut=    60.00 Ry     beta= 0.30
     Davidson diagonalization with overlap
     ethr =  1.00E-06,  avg # of iterations = 10.8

     negative rho (up, down):  1.607E-02 0.000E+00

     total cpu time spent up to now is     5437.8 secs

     total energy              =   -4910.78343629 Ry
     estimated scf accuracy    <       0.06744874 Ry

     iteration #  2     ecut=    60.00 Ry     beta= 0.30
     Davidson diagonalization with overlap
     ethr =  1.17E-05,  avg # of iterations =  2.0

     negative rho (up, down):  6.005E-03 0.000E+00

     total cpu time spent up to now is     5512.9 secs

     total energy              =   -4910.78558545 Ry
     estimated scf accuracy    <       0.01637923 Ry

     iteration #  3     ecut=    60.00 Ry     beta= 0.30
     Davidson diagonalization with overlap
     ethr =  2.84E-06,  avg # of iterations =  2.2

     negative rho (up, down):  4.677E-03 0.000E+00

     total cpu time spent up to now is     5592.2 secs

     total energy              =   -4910.78767287 Ry
     estimated scf accuracy    <       0.00359561 Ry

     iteration #  4     ecut=    60.00 Ry     beta= 0.30
     Davidson diagonalization with overlap
     ethr =  6.24E-07,  avg # of iterations =  2.5

     negative rho (up, down):  4.534E-03 0.000E+00

     total cpu time spent up to now is     5674.7 secs

     total energy              =   -4910.78835195 Ry
     estimated scf accuracy    <       0.00042048 Ry

     iteration #  5     ecut=    60.00 Ry     beta= 0.30
     Davidson diagonalization with overlap
     ethr =  7.30E-08,  avg # of iterations =  3.8

     negative rho (up, down):  4.490E-03 0.000E+00

     total cpu time spent up to now is     5757.4 secs

     total energy              =   -4910.78844442 Ry
     estimated scf accuracy    <       0.00008194 Ry

     iteration #  6     ecut=    60.00 Ry     beta= 0.30
     Davidson diagonalization with overlap
     ethr =  1.42E-08,  avg # of iterations =  4.0

     negative rho (up, down):  4.501E-03 0.000E+00

     total cpu time spent up to now is     5849.3 secs

     total energy              =   -4910.78846564 Ry
     estimated scf accuracy    <       0.00001094 Ry

     iteration #  7     ecut=    60.00 Ry     beta= 0.30
     Davidson diagonalization with overlap
     ethr =  1.90E-09,  avg # of iterations =  5.0

     negative rho (up, down):  4.512E-03 0.000E+00

     total cpu time spent up to now is     5951.4 secs

     total energy              =   -4910.78846883 Ry
     estimated scf accuracy    <       0.00000767 Ry

     iteration #  8     ecut=    60.00 Ry     beta= 0.30
     Davidson diagonalization with overlap
     ethr =  1.33E-09,  avg # of iterations =  3.8

     negative rho (up, down):  4.521E-03 0.000E+00

     total cpu time spent up to now is     6039.9 secs

     total energy              =   -4910.78847051 Ry
     estimated scf accuracy    <       0.00000055 Ry

     iteration #  9     ecut=    60.00 Ry     beta= 0.30
     Davidson diagonalization with overlap
     ethr =  9.58E-11,  avg # of iterations =  4.8

     negative rho (up, down):  4.527E-03 0.000E+00

     total cpu time spent up to now is     6159.5 secs

     total energy              =   -4910.78847066 Ry
     estimated scf accuracy    <       0.00000024 Ry

     iteration # 10     ecut=    60.00 Ry     beta= 0.30
     Davidson diagonalization with overlap
     ethr =  4.23E-11,  avg # of iterations =  4.5

     negative rho (up, down):  4.531E-03 0.000E+00

     total cpu time spent up to now is     6272.4 secs

     total energy              =   -4910.78847077 Ry
     estimated scf accuracy    <       0.00000007 Ry

     iteration # 11     ecut=    60.00 Ry     beta= 0.30
     Davidson diagonalization with overlap
     ethr =  1.17E-11,  avg # of iterations =  2.2

     negative rho (up, down):  4.541E-03 0.000E+00

     total cpu time spent up to now is     6367.0 secs

     End of self-consistent calculation

          k = 0.0000 0.0000 0.0000 (166875 PWs)   bands (ev):

   -19.9647 -19.6387 -19.2864 -19.0438 -19.0438 -19.0438 -18.9868 -18.9868
   -18.9868 -18.8067 -18.8067 -18.8067 -18.7853 -18.5992 -18.5992 -18.5992
   -18.4060 -18.4060 -18.4060 -18.4025 -18.4025 -18.4025 -18.2484 -18.0587
   -18.0587 -18.0587 -18.0275 -18.0275 -18.0275 -17.9681 -17.9041 -17.9041
   -17.9041 -17.8079 -17.8079 -17.8079 -17.7467 -17.7467 -17.7467 -17.7356
   -17.7356 -17.7356 -17.5923 -17.5923 -17.5652 -17.5652 -17.5652 -17.5609
   -17.5609 -17.5609 -17.5364 -17.5364 -17.5260 -17.5260 -17.4911 -17.4911
   -17.4911 -17.4530 -17.4530 -17.4239 -17.4239 -17.4239 -17.3443 -17.3443
   -17.3443 -17.3008 -17.3008 -17.2786 -17.2786 -17.2675 -17.2675 -17.2675
    -7.5909  -7.3277  -7.3277  -7.3277  -7.2747  -7.2747  -7.2747  -7.0320
    -7.0320  -7.0320  -6.9277  -6.8680  -6.8680  -6.8680  -6.7868  -6.6185
    -6.5489  -6.5489  -6.5489  -6.3982  -6.3982  -6.3982  -6.3566  -6.3566
    -6.2778  -6.2778  -6.2778  -6.2512  -6.0864  -6.0864  -6.0864  -6.0332
    -6.0332  -6.0044  -5.8718  -5.8718  -5.8718  -5.8505  -5.8505  -5.8505
    -5.7955  -5.6857  -5.6857  -5.6857  -5.5618  -5.5618  -5.1364  -5.0810
    -5.0810  -5.0627  -5.0627  -5.0627  -5.0102  -5.0102  -5.0102  -4.9841
    -4.9841  -4.9411  -4.9411  -4.9411  -4.8111  -4.8111  -4.8111  -4.7930
    -4.7930  -4.7291  -4.7291  -4.7291  -4.6831  -4.6822  -4.6822  -4.6822
    -4.5981  -4.5276  -4.5276  -4.5276  -4.5119  -4.4487  -4.4487  -4.4487
    -4.4332  -4.4332  -4.4332  -4.2264  -4.2264  -4.2264  -4.1539  -4.1092
    -4.1092  -4.1092  -3.9668  -3.8909  -3.8909  -3.8909  -3.7612  -3.6648
    -3.6162  -3.6162  -3.6162  -3.4898  -3.4898  -3.4898  -3.3772  -3.3772
    -3.3772  -3.3318  -3.3318  -3.3318  -3.2630  -3.2630  -3.2630  -3.2328
    -3.2328  -3.2266  -3.2266  -3.2266  -3.2147  -3.2147  -3.0661  -3.0661
    -3.0661  -3.0030  -2.9823  -2.9823  -2.9823  -2.7873  -2.7873  -2.7873
    -2.7154  -2.7154  -2.6811  -2.6811  -2.6811  -2.6300  -2.6300  -2.6207
    -2.6207  -2.6207  -2.5450  -2.5450  -2.5450  -2.5214  -2.5214  -2.5214
    -2.4372  -2.4372  -2.4372  -2.3667  -2.3667  -2.3667  -2.3109  -2.3109
    -2.3109  -2.2772  -2.2772  -2.2772  -2.2426  -2.2426  -2.2342  -2.2342
    -2.2342  -2.2307  -2.2307  -2.2148  -2.2012  -2.2012  -2.2012  -2.1684
    -2.1684  -2.1684  -2.1405  -2.1405  -2.1405  -2.0716  -2.0716  -2.0716
    -1.9774  -1.9774  -1.9774  -1.8169  -1.8169  -1.8169  -1.7996  -1.7996
    -1.7996  -1.6684  -1.6684  -1.6684  -1.6034  -1.6034  -1.5722  -1.5722
    -1.5722  -1.5387  -1.5387  -1.5172  -1.4148  -1.4148  -1.3456  -1.3456
    -1.3456  -1.3432  -1.3432  -1.3432  -1.2917  -1.2917  -1.2917  -1.2725
    -1.2725  -1.2333  -1.2333  -1.2333  -1.0780  -1.0780  -1.0661  -1.0661

          k = 0.0000 0.2887 0.0000 (166721 PWs)   bands (ev):

   -19.8955 -19.5733 -19.3838 -19.2272 -19.1596 -19.1596 -19.1003 -18.9208
   -18.9192 -18.8260 -18.7723 -18.7667 -18.7365 -18.5761 -18.5690 -18.5492
   -18.3944 -18.3878 -18.3113 -18.2971 -18.2843 -18.2525 -18.2119 -18.1177
   -18.1021 -18.0550 -18.0409 -18.0209 -17.9548 -17.9284 -17.8938 -17.8855
   -17.8838 -17.8732 -17.8510 -17.8089 -17.8087 -17.7896 -17.7607 -17.7498
   -17.7385 -17.7051 -17.6977 -17.6670 -17.6216 -17.6151 -17.6069 -17.6003
   -17.5918 -17.5865 -17.5641 -17.5472 -17.5297 -17.5247 -17.4875 -17.4856
   -17.4775 -17.4612 -17.4513 -17.3893 -17.3666 -17.3597 -17.3562 -17.3431
   -17.3143 -17.3058 -17.2941 -17.2691 -17.2670 -17.2661 -17.2635 -17.2583
    -7.5329  -7.3564  -7.2369  -7.2289  -7.1509  -7.1320  -7.1231  -6.9921
    -6.9691  -6.9063  -6.8994  -6.8984  -6.8255  -6.7852  -6.7693  -6.7678
    -6.6806  -6.6791  -6.6495  -6.5225  -6.4549  -6.4059  -6.3799  -6.3668
    -6.3482  -6.3330  -6.3200  -6.3128  -6.2673  -6.1185  -6.0909  -6.0513
    -6.0323  -5.9517  -5.9467  -5.9251  -5.8633  -5.8616  -5.8544  -5.7718
    -5.7450  -5.7373  -5.7203  -5.6941  -5.5719  -5.4058  -5.3166  -5.2795
    -5.2793  -5.2236  -5.2075  -5.1476  -5.1137  -5.0878  -5.0371  -5.0341
    -5.0165  -5.0002  -4.9936  -4.9634  -4.9570  -4.8985  -4.8777  -4.8655
    -4.8180  -4.7802  -4.7714  -4.7645  -4.6920  -4.6911  -4.6745  -4.6268
    -4.4806  -4.4145  -4.3649  -4.3356  -4.3120  -4.3096  -4.2962  -4.2547
    -4.2478  -4.2443  -4.2382  -4.1888  -4.1616  -4.0973  -4.0848  -3.9765
    -3.9003  -3.8892  -3.8733  -3.8633  -3.7630  -3.7567  -3.7328  -3.7037
    -3.6929  -3.6355  -3.6206  -3.6102  -3.5314  -3.5156  -3.4985  -3.4918
    -3.4205  -3.4118  -3.4056  -3.3861  -3.3746  -3.3104  -3.2788  -3.2086
    -3.1840  -3.1727  -3.1514  -3.1286  -3.1246  -3.1018  -3.0758  -3.0256
    -3.0191  -2.9932  -2.9868  -2.9633  -2.8912  -2.8705  -2.8082  -2.7690
    -2.7565  -2.7424  -2.7229  -2.7043  -2.7033  -2.6966  -2.6739  -2.6702
    -2.6392  -2.6241  -2.6201  -2.5888  -2.5851  -2.5165  -2.5083  -2.5064
    -2.4934  -2.4757  -2.4564  -2.4376  -2.4206  -2.4146  -2.4077  -2.3990
    -2.3651  -2.3647  -2.3301  -2.3301  -2.2938  -2.2746  -2.2681  -2.2644
    -2.2618  -2.2525  -2.2417  -2.2028  -2.1860  -2.1400  -2.1288  -2.1229
    -2.0744  -2.0521  -2.0364  -2.0138  -2.0012  -1.9890  -1.9706  -1.9597
    -1.9556  -1.9170  -1.8563  -1.8125  -1.7819  -1.7800  -1.7710  -1.7548
    -1.7457  -1.7306  -1.7035  -1.6989  -1.6400  -1.6386  -1.6125  -1.6118
    -1.5671  -1.5614  -1.5554  -1.5388  -1.5296  -1.4645  -1.3910  -1.3820
    -1.3763  -1.3662  -1.3345  -1.3282  -1.3221  -1.3177  -1.2973  -1.2952
    -1.2846  -1.2798  -1.2307  -1.2284  -1.2177  -1.1713  -1.1163  -1.0698

          k = 0.0000-0.5774 0.0000 (166636 PWs)   bands (ev):

   -19.6947 -19.6947 -19.3844 -19.3844 -19.2112 -19.2112 -19.0585 -19.0585
   -18.9460 -18.9460 -18.7056 -18.7056 -18.6047 -18.6047 -18.5163 -18.5163
   -18.3246 -18.3246 -18.2507 -18.2507 -18.1591 -18.1591 -18.1035 -18.1035
   -18.0706 -18.0706 -18.0346 -18.0346 -17.9635 -17.9635 -17.9589 -17.9589
   -17.8881 -17.8881 -17.7982 -17.7982 -17.7710 -17.7710 -17.7607 -17.7607
   -17.7356 -17.7356 -17.7290 -17.7290 -17.7097 -17.7097 -17.6917 -17.6917
   -17.6396 -17.6396 -17.5718 -17.5718 -17.5172 -17.5172 -17.5028 -17.5028
   -17.4404 -17.4404 -17.3928 -17.3928 -17.3495 -17.3495 -17.3175 -17.3175
   -17.3084 -17.3084 -17.2843 -17.2843 -17.2671 -17.2671 -17.2487 -17.2487
    -7.4018  -7.4018  -7.0590  -7.0590  -7.0246  -7.0246  -6.9491  -6.9491
    -6.9290  -6.9290  -6.8525  -6.8525  -6.8521  -6.8521  -6.6675  -6.6675
    -6.6445  -6.6445  -6.6168  -6.6168  -6.5962  -6.5962  -6.5133  -6.5133
    -6.4017  -6.4017  -6.3600  -6.3600  -6.2856  -6.2856  -6.2840  -6.2840
    -6.0708  -6.0708  -6.0411  -6.0411  -5.8309  -5.8309  -5.8118  -5.8118
    -5.6007  -5.6007  -5.5073  -5.5073  -5.4823  -5.4823  -5.4819  -5.4819
    -5.3975  -5.3975  -5.3341  -5.3341  -5.1557  -5.1557  -5.1042  -5.1042
    -5.0542  -5.0542  -5.0171  -5.0171  -4.9358  -4.9358  -4.9156  -4.9156
    -4.9056  -4.9056  -4.6797  -4.6797  -4.5228  -4.5228  -4.5140  -4.5140
    -4.4102  -4.4102  -4.3528  -4.3528  -4.2374  -4.2374  -4.2168  -4.2168
    -4.1710  -4.1710  -4.0620  -4.0620  -4.0334  -4.0334  -4.0125  -4.0125
    -3.9258  -3.9258  -3.8399  -3.8399  -3.7403  -3.7403  -3.6487  -3.6487
    -3.5627  -3.5627  -3.5389  -3.5389  -3.4640  -3.4640  -3.4485  -3.4485
    -3.4050  -3.4050  -3.3537  -3.3537  -3.3039  -3.3039  -3.1966  -3.1966
    -3.1884  -3.1884  -3.1649  -3.1649  -3.0988  -3.0988  -3.0884  -3.0884
    -3.0309  -3.0309  -3.0183  -3.0183  -2.9482  -2.9482  -2.8568  -2.8568
    -2.8165  -2.8165  -2.7827  -2.7827  -2.7166  -2.7166  -2.6918  -2.6918
    -2.6231  -2.6231  -2.5775  -2.5775  -2.5722  -2.5722  -2.5394  -2.5394
    -2.4754  -2.4754  -2.4622  -2.4622  -2.4572  -2.4572  -2.4215  -2.4215
    -2.4072  -2.4072  -2.3101  -2.3101  -2.3098  -2.3098  -2.2643  -2.2643
    -2.1894  -2.1894  -2.1719  -2.1719  -2.1264  -2.1264  -2.0800  -2.0800
    -2.0775  -2.0775  -1.9954  -1.9954  -1.9752  -1.9752  -1.9609  -1.9609
    -1.9584  -1.9584  -1.8513  -1.8513  -1.8427  -1.8427  -1.7853  -1.7853
    -1.7715  -1.7715  -1.6668  -1.6668  -1.6331  -1.6331  -1.6061  -1.6061
    -1.5815  -1.5815  -1.5597  -1.5597  -1.5050  -1.5050  -1.4674  -1.4674
    -1.4506  -1.4506  -1.3604  -1.3604  -1.3435  -1.3435  -1.2737  -1.2737
    -1.2620  -1.2620  -1.2188  -1.2188  -1.1893  -1.1893  -1.1376  -1.1376

          k = 0.2500 0.4330 0.0000 (166642 PWs)   bands (ev):

   -19.7605 -19.5041 -19.5041 -19.4461 -19.2077 -19.2077 -19.1130 -18.9056
   -18.9052 -18.8906 -18.8443 -18.6934 -18.6452 -18.6027 -18.5105 -18.5089
   -18.3688 -18.3051 -18.2336 -18.2293 -18.1961 -18.1539 -18.1444 -18.1295
   -18.1216 -18.0229 -17.9933 -17.9863 -17.9750 -17.9255 -17.8979 -17.8941
   -17.8904 -17.8805 -17.8646 -17.8240 -17.8235 -17.8158 -17.7844 -17.7500
   -17.7494 -17.7433 -17.7131 -17.7106 -17.7094 -17.6899 -17.6660 -17.6610
   -17.6508 -17.6219 -17.6097 -17.5612 -17.5561 -17.5243 -17.5111 -17.5026
   -17.4318 -17.4141 -17.3872 -17.3862 -17.3613 -17.3447 -17.3347 -17.3185
   -17.3085 -17.2998 -17.2855 -17.2836 -17.2618 -17.2595 -17.2523 -17.2519
    -7.4203  -7.2783  -7.2739  -7.0724  -7.0338  -7.0134  -6.9642  -6.9471
    -6.9082  -6.8876  -6.8604  -6.8403  -6.8192  -6.7730  -6.7133  -6.6592
    -6.6588  -6.6381  -6.6266  -6.6257  -6.5746  -6.5743  -6.5392  -6.4648
    -6.4295  -6.4256  -6.3698  -6.3676  -6.3368  -6.2611  -6.2454  -6.1050
    -6.0827  -6.0722  -6.0631  -5.9990  -5.9439  -5.8435  -5.8263  -5.7693
    -5.7284  -5.5998  -5.5762  -5.5719  -5.5637  -5.4591  -5.4521  -5.4159
    -5.4055  -5.3488  -5.2880  -5.2677  -5.2300  -5.1779  -5.1513  -5.1062
    -5.1003  -5.0184  -4.9801  -4.9762  -4.9649  -4.9046  -4.8591  -4.8249
    -4.7709  -4.7496  -4.7451  -4.7127  -4.7011  -4.6607  -4.5534  -4.5242
    -4.5025  -4.4399  -4.4135  -4.3398  -4.3326  -4.2324  -4.1984  -4.1875
    -4.1613  -4.1229  -4.0894  -4.0699  -4.0170  -4.0105  -3.9106  -3.9070
    -3.8968  -3.8667  -3.8616  -3.7400  -3.7279  -3.7193  -3.6258  -3.6086
    -3.6058  -3.5799  -3.5342  -3.5226  -3.5166  -3.4931  -3.4447  -3.4244
    -3.4085  -3.3993  -3.3657  -3.3077  -3.2981  -3.2771  -3.2300  -3.2291
    -3.2193  -3.1974  -3.1690  -3.1440  -3.1333  -3.1064  -3.0303  -3.0207
    -3.0071  -2.9970  -2.9626  -2.9613  -2.9527  -2.9152  -2.8708  -2.8684
    -2.8476  -2.8381  -2.8364  -2.8067  -2.7934  -2.7456  -2.7201  -2.6982
    -2.6903  -2.6642  -2.6331  -2.6330  -2.6153  -2.5685  -2.5612  -2.5453
    -2.5431  -2.5231  -2.5169  -2.5110  -2.4674  -2.4437  -2.4327  -2.3923
    -2.3510  -2.3470  -2.3174  -2.2788  -2.2703  -2.2635  -2.2591  -2.2544
    -2.2326  -2.1757  -2.1672  -2.1395  -2.1195  -2.1057  -2.0942  -2.0406
    -2.0337  -2.0180  -2.0137  -1.9981  -1.9924  -1.9785  -1.9608  -1.9370
    -1.8994  -1.8989  -1.8933  -1.8753  -1.8744  -1.8442  -1.7934  -1.7727
    -1.7257  -1.7189  -1.7134  -1.6876  -1.6709  -1.6367  -1.6100  -1.5968
    -1.5783  -1.5750  -1.5730  -1.5584  -1.5509  -1.5030  -1.4975  -1.4766
    -1.4712  -1.4412  -1.3890  -1.3679  -1.3304  -1.3207  -1.3146  -1.2789
    -1.2544  -1.2520  -1.2416  -1.1892  -1.1599  -1.1533  -1.1506  -1.0853

     highest occupied level (ev):    -1.0661

!    total energy              =   -4910.78847080 Ry
     total all-electron energy =    -34162.618240 Ry
     estimated scf accuracy    <          7.7E-09 Ry

     The total energy is the sum of the following terms:
     one-electron contribution =  -80960.63801741 Ry
     hartree contribution      =   40731.25136984 Ry
     xc contribution           =    -675.60157632 Ry
     ewald contribution        =   38342.09807604 Ry
     one-center paw contrib.   =   -2347.89832295 Ry

     convergence has been achieved in  11 iterations

     negative rho (up, down):  4.541E-03 0.000E+00

     Forces acting on atoms (cartesian axes, Ry/au):

     atom    1 type  1   force =    -0.00000000    0.00000000    0.01951391
     atom    2 type  1   force =    -0.00000000    0.00000000    0.00195056
     atom    3 type  1   force =     0.00000000    0.00000000    0.00872894
     atom    4 type  1   force =     0.00000000   -0.00000000    0.00215267
     atom    5 type  1   force =     0.00000000    0.00000000    0.01806581
     atom    6 type  1   force =     0.00000000   -0.00000000    0.03212091
     atom    7 type  1   force =    -0.00000000   -0.00000000   -0.03212091
     atom    8 type  1   force =     0.00000000   -0.00000000   -0.01806581
     atom    9 type  1   force =    -0.00000000   -0.00000000   -0.00215267
     atom   10 type  1   force =     0.00000000   -0.00000000   -0.00872894
     atom   11 type  1   force =    -0.00000000   -0.00000000   -0.00195056
     atom   12 type  1   force =     0.00000000    0.00000000   -0.01951391
     atom   13 type  2   force =     0.00012625   -0.00150202    0.00238923
     atom   14 type  2   force =    -0.00094585   -0.00616532    0.01175578
     atom   15 type  2   force =    -0.00136391    0.00064167    0.00238923
     atom   16 type  2   force =     0.00123766    0.00086034    0.00238923
     atom   17 type  2   force =    -0.00486640    0.00390179    0.01175578
     atom   18 type  2   force =     0.00581225    0.00226353    0.01175578
     atom   19 type  2   force =     0.02760880    0.03473237   -0.00859796
     atom   20 type  2   force =    -0.01627471    0.04127611    0.00859796
     atom   21 type  2   force =     0.01627471   -0.04127611   -0.00859796
     atom   22 type  2   force =    -0.04388351    0.00654374   -0.00859796
     atom   23 type  2   force =     0.04388352   -0.00654374    0.00859796
     atom   24 type  2   force =    -0.02760880   -0.03473236    0.00859796
     atom   25 type  2   force =    -0.00581225   -0.00226353   -0.01175578
     atom   26 type  2   force =     0.00136391   -0.00064168   -0.00238923
     atom   27 type  2   force =     0.00094585    0.00616532   -0.01175578
     atom   28 type  2   force =     0.00486640   -0.00390179   -0.01175579
     atom   29 type  2   force =    -0.00123766   -0.00086034   -0.00238923
     atom   30 type  2   force =    -0.00012625    0.00150202   -0.00238923
     atom   31 type  1   force =     0.00000000   -0.00000000    0.01951391
     atom   32 type  1   force =    -0.00000000   -0.00000000    0.00195056
     atom   33 type  1   force =     0.00000000    0.00000000    0.00872895
     atom   34 type  1   force =    -0.00000000    0.00000000    0.00215267
     atom   35 type  1   force =     0.00000000    0.00000000    0.01806581
     atom   36 type  1   force =    -0.00000000   -0.00000000    0.03212091
     atom   37 type  1   force =     0.00000000   -0.00000000   -0.03212091
     atom   38 type  1   force =    -0.00000000   -0.00000000   -0.01806581
     atom   39 type  1   force =     0.00000000    0.00000000   -0.00215267
     atom   40 type  1   force =    -0.00000000   -0.00000000   -0.00872895
     atom   41 type  1   force =     0.00000000    0.00000000   -0.00195056
     atom   42 type  1   force =     0.00000000    0.00000000   -0.01951391
     atom   43 type  2   force =     0.00012625   -0.00150202    0.00238923
     atom   44 type  2   force =    -0.00094585   -0.00616532    0.01175579
     atom   45 type  2   force =    -0.00136391    0.00064167    0.00238923
     atom   46 type  2   force =     0.00123766    0.00086034    0.00238923
     atom   47 type  2   force =    -0.00486640    0.00390179    0.01175579
     atom   48 type  2   force =     0.00581225    0.00226353    0.01175579
     atom   49 type  2   force =     0.02760880    0.03473237   -0.00859796
     atom   50 type  2   force =    -0.01627471    0.04127611    0.00859796
     atom   51 type  2   force =     0.01627471   -0.04127611   -0.00859796
     atom   52 type  2   force =    -0.04388351    0.00654374   -0.00859796
     atom   53 type  2   force =     0.04388352   -0.00654374    0.00859796
     atom   54 type  2   force =    -0.02760881   -0.03473237    0.00859796
     atom   55 type  2   force =    -0.00581225   -0.00226353   -0.01175578
     atom   56 type  2   force =     0.00136391   -0.00064167   -0.00238923
     atom   57 type  2   force =     0.00094585    0.00616532   -0.01175578
     atom   58 type  2   force =     0.00486640   -0.00390179   -0.01175578
     atom   59 type  2   force =    -0.00123766   -0.00086034   -0.00238923
     atom   60 type  2   force =    -0.00012625    0.00150202   -0.00238923
     atom   61 type  1   force =     0.00000000    0.00000000    0.01951391
     atom   62 type  1   force =    -0.00000000   -0.00000000    0.00195056
     atom   63 type  1   force =    -0.00000000   -0.00000000    0.00872895
     atom   64 type  1   force =     0.00000000   -0.00000000    0.00215267
     atom   65 type  1   force =     0.00000000   -0.00000000    0.01806581
     atom   66 type  1   force =     0.00000000    0.00000000    0.03212091
     atom   67 type  1   force =     0.00000000    0.00000000   -0.03212091
     atom   68 type  1   force =    -0.00000000    0.00000000   -0.01806581
     atom   69 type  1   force =     0.00000000   -0.00000000   -0.00215267
     atom   70 type  1   force =     0.00000000    0.00000000   -0.00872895
     atom   71 type  1   force =     0.00000000    0.00000000   -0.00195056
     atom   72 type  1   force =    -0.00000000    0.00000000   -0.01951391
     atom   73 type  2   force =     0.00012625   -0.00150202    0.00238923
     atom   74 type  2   force =    -0.00094585   -0.00616532    0.01175578
     atom   75 type  2   force =    -0.00136391    0.00064167    0.00238923
     atom   76 type  2   force =     0.00123766    0.00086034    0.00238923
     atom   77 type  2   force =    -0.00486640    0.00390179    0.01175578
     atom   78 type  2   force =     0.00581225    0.00226353    0.01175578
     atom   79 type  2   force =     0.02760881    0.03473237   -0.00859796
     atom   80 type  2   force =    -0.01627471    0.04127611    0.00859796
     atom   81 type  2   force =     0.01627471   -0.04127611   -0.00859796
     atom   82 type  2   force =    -0.04388352    0.00654374   -0.00859796
     atom   83 type  2   force =     0.04388351   -0.00654374    0.00859796
     atom   84 type  2   force =    -0.02760880   -0.03473237    0.00859796
     atom   85 type  2   force =    -0.00581225   -0.00226353   -0.01175578
     atom   86 type  2   force =     0.00136391   -0.00064167   -0.00238923
     atom   87 type  2   force =     0.00094585    0.00616532   -0.01175579
     atom   88 type  2   force =     0.00486640   -0.00390179   -0.01175578
     atom   89 type  2   force =    -0.00123766   -0.00086034   -0.00238923
     atom   90 type  2   force =    -0.00012625    0.00150202   -0.00238923
     atom   91 type  1   force =    -0.00000000   -0.00000000    0.01951391
     atom   92 type  1   force =     0.00000000    0.00000000    0.00195056
     atom   93 type  1   force =    -0.00000000    0.00000000    0.00872895
     atom   94 type  1   force =     0.00000000    0.00000000    0.00215267
     atom   95 type  1   force =    -0.00000000   -0.00000000    0.01806581
     atom   96 type  1   force =     0.00000000    0.00000000    0.03212091
     atom   97 type  1   force =    -0.00000000    0.00000000   -0.03212091
     atom   98 type  1   force =     0.00000000    0.00000000   -0.01806581
     atom   99 type  1   force =    -0.00000000    0.00000000   -0.00215267
     atom  100 type  1   force =     0.00000000   -0.00000000   -0.00872895
     atom  101 type  1   force =     0.00000000   -0.00000000   -0.00195056
     atom  102 type  1   force =     0.00000000   -0.00000000   -0.01951391
     atom  103 type  2   force =     0.00012625   -0.00150202    0.00238923
     atom  104 type  2   force =    -0.00094585   -0.00616532    0.01175578
     atom  105 type  2   force =    -0.00136391    0.00064168    0.00238923
     atom  106 type  2   force =     0.00123766    0.00086034    0.00238923
     atom  107 type  2   force =    -0.00486640    0.00390179    0.01175578
     atom  108 type  2   force =     0.00581225    0.00226353    0.01175578
     atom  109 type  2   force =     0.02760880    0.03473236   -0.00859796
     atom  110 type  2   force =    -0.01627471    0.04127611    0.00859796
     atom  111 type  2   force =     0.01627471   -0.04127611   -0.00859796
     atom  112 type  2   force =    -0.04388352    0.00654374   -0.00859796
     atom  113 type  2   force =     0.04388351   -0.00654374    0.00859796
     atom  114 type  2   force =    -0.02760880   -0.03473237    0.00859796
     atom  115 type  2   force =    -0.00581225   -0.00226353   -0.01175579
     atom  116 type  2   force =     0.00136391   -0.00064167   -0.00238923
     atom  117 type  2   force =     0.00094585    0.00616532   -0.01175578
     atom  118 type  2   force =     0.00486640   -0.00390179   -0.01175578
     atom  119 type  2   force =    -0.00123766   -0.00086034   -0.00238923
     atom  120 type  2   force =    -0.00012625    0.00150202   -0.00238923

     Total force =     0.260865     Total SCF correction =     0.000330


     Computing stress (Cartesian axis) and pressure


     negative rho (up, down):  4.541E-03 0.000E+00
          total   stress  (Ry/bohr**3)                   (kbar)     P=        6.00
   0.00013227   0.00000000   0.00000000           19.46        0.00        0.00
   0.00000000   0.00013227   0.00000000            0.00       19.46        0.00
   0.00000000   0.00000000  -0.00014209            0.00        0.00      -20.90

     Energy error            =      2.3E-01 Ry
     Gradient error          =      4.4E-02 Ry/Bohr

     number of scf cycles    =   4
     number of bfgs steps    =   3

     energy             old  =   -4910.5617723648 Ry
     energy             new  =   -4910.7884707984 Ry

     CASE: energy            _new < energy            _old

     new trust radius        =       0.2732414730 bohr
     new conv_thr            =       0.0000000044 Ry


ATOMIC_POSITIONS (angstrom)
Al              -0.0000000006        2.7741837601       24.0052706014
Al               2.4025136111        1.3870918801       22.1117367875
Al               0.0000000000        0.0000000000       21.6323023466
Al              -0.0000000004        2.7741837621       19.9245895944
Al               0.0000000000       -0.0000000000       15.0321058079
Al              -0.0000000071        2.7741837519       13.9561144755
Al               2.4025135994        1.3870918821       25.3926452745
Al               0.0000000000       -0.0000000000       24.3166539421
Al               2.4025136116        1.3870918814       19.4241701556
Al               0.0000000000       -0.0000000000       17.7164574034
Al               0.0000000005        2.7741837610       17.2370229625
Al               2.4025136098        1.3870918806       15.3434891486
O                0.9333041012        1.3831859744       20.7716404050
O                1.6416885536        2.8841442055       22.9921990261
O                3.1337357810        2.6614175972       20.7716404066
O                3.1405010008        0.1166720386       20.7716404022
O                4.0794114816        1.2974595407       22.9921990233
O                1.4864407941       -0.0203281075       22.9921990231
O               -1.5409276442        2.8425375612       25.2117638739
O                1.5728536821        0.0867863101       14.1369958751
O                0.8296599294        4.0744893345       25.2117638823
O                0.7112676552        1.4055244038       25.2117638749
O                1.6912459362        2.7557512383       14.1369958761
O                3.9434412565        1.3187380697       14.1369958677
O                3.3185864254        0.0203281093       16.3565607239
O               -0.7312221710        1.4998580421       18.5771193450
O                0.7608250546        1.2771314349       16.3565607269
O                3.1281293497        2.8638160957       16.3565607267
O               -0.7379873872        4.0446035921       18.5771193434
O                1.4692095095        2.7780896686       18.5771193478
Al              -2.4025136096        6.9354594004       24.0052706014
Al               0.0000000000        5.5483675200       22.1117367834
Al              -2.4025136104        4.1612756409       21.6323023485
Al              -2.4025136080        6.9354593993       19.9245895944
Al              -2.4025136113        4.1612756437       15.0321058042
Al              -2.4025136134        6.9354594102       13.9561144755
Al               0.0000000000        5.5483675200       25.3926452783
Al              -2.4025136087        4.1612756363       24.3166539458
Al               0.0000000000        5.5483675200       19.4241701513
Al              -2.4025136096        4.1612756391       17.7164574015
Al              -2.4025136093        6.9354593991       17.2370229625
Al               0.0000000000        5.5483675200       15.3434891506
O               -1.4692095090        5.5444616106       20.7716404016
O               -0.7608250561        7.0454198440       22.9921990233
O                0.7312221678        6.8226932300       20.7716404016
O                0.7379873912        4.2779476794       20.7716404016
O                1.6768978703        5.4587351843       22.9921990233
O               -0.9160728141        4.1409475317       22.9921990233
O               -3.9434412431        7.0038132163       25.2117638749
O               -0.8296599261        4.2480619359       14.1369958822
O               -1.5728536896        8.2357649771       25.2117638739
O               -1.6912459429        5.5668000352       25.2117638823
O               -0.7112676684        6.9170268718       14.1369958822
O                1.5409276445        5.4800137123       14.1369958822
O                0.9160728179        4.1816037477       16.3565607267
O               -3.1337357786        5.6611336799       18.5771193478
O               -1.6416885563        5.4384070730       16.3565607267
O                0.7256157384        7.0250917393       16.3565607267
O               -3.1405009978        8.2058792324       18.5771193450
O               -0.9333041018        6.9393653051       18.5771193434
Al               4.8050272200        2.7741837600       24.0052705994
Al               7.2075408293        1.3870918809       22.1117367875
Al               4.8050272210       -0.0000000000       21.6323023485
Al               4.8050272200        2.7741837600       19.9245895987
Al               4.8050272238       -0.0000000007       15.0321058042
Al               4.8050272200        2.7741837600       13.9561144717
Al               7.2075408334        1.3870918698       25.3926452745
Al               4.8050272162        0.0000000007       24.3166539458
Al               7.2075408280        1.3870918807       19.4241701556
Al               4.8050272190        0.0000000000       17.7164574015
Al               4.8050272200        2.7741837600       17.2370229666
Al               7.2075408296        1.3870918796       15.3434891486
O                5.7383313218        1.3831859749       20.7716404066
O                6.4467157763        2.8841442070       22.9921990233
O                7.9387629986        2.6614176001       20.7716404022
O                7.9455282178        0.1166720376       20.7716404050
O                8.8844387005        1.2974595424       22.9921990231
O                6.2914680146       -0.0203281093       22.9921990261
O                3.2640995755        2.8425375677       25.2117638678
O                6.3778809096        0.0867862929       14.1369958761
O                5.6346871461        4.0744893341       25.2117638678
O                5.5162948884        1.4055243982       25.2117638678
O                6.4962731629        2.7557512448       14.1369958677
O                8.7484684631        1.3187380637       14.1369958751
O                8.1236136459        0.0203281075       16.3565607269
O                4.0738050522        1.4998580400       18.5771193484
O                5.5658522761        1.2771314360       16.3565607267
O                7.9331565683        2.8638160963       16.3565607239
O                4.0670398288        4.0446035906       18.5771193484
O                6.2742367290        2.7780896694       18.5771193484
Al               2.4025136102        6.9354593994       24.0052706014
Al               4.8050272195        5.5483675190       22.1117367875
Al               2.4025136095        4.1612756392       21.6323023485
Al               2.4025136084        6.9354593986       19.9245895944
Al               2.4025136074        4.1612756370       15.0321058042
Al               2.4025136206        6.9354593979       13.9561144755
Al               4.8050272271        5.5483675281       25.3926452745
Al               2.4025136126        4.1612756430       24.3166539458
Al               4.8050272204        5.5483675179       19.4241701556
Al               2.4025136105        4.1612756408       17.7164574015
Al               2.4025136089        6.9354593999       17.2370229625
Al               4.8050272206        5.5483675199       15.3434891486
O                3.3358177105        5.5444616114       20.7716404022
O                4.0442021654        7.0454198451       22.9921990231
O                5.5362493910        6.8226932279       20.7716404050
O                5.5430146072        4.2779476779       20.7716404066
O                6.4819250917        5.4587351837       22.9921990261
O                3.8889544021        4.1409475323       22.9921990233
O                0.8615859635        7.0038132103       25.2117638823
O                3.9753672906        4.2480619355       14.1369958677
O                3.2321735379        8.2357649599       25.2117638749
O                3.1137812838        5.5668000417       25.2117638739
O                4.0937595648        6.9170268662       14.1369958751
O                6.3459548642        5.4800137188       14.1369958761
O                5.7211000341        4.1816037483       16.3565607267
O                1.6712914390        5.6611336828       18.5771193434
O                3.1633386664        5.4384070745       16.3565607239
O                5.5306429595        7.0250917376       16.3565607269
O                1.6645262192        8.2058792314       18.5771193478
O                3.8717231188        6.9393653056       18.5771193450



     Writing config-only to output data dir ./tmp/al2o3.save/ :
     XML data file
     NEW-OLD atomic charge density approx. for the potential

     negative rho (up, down):  4.879E-02 0.000E+00

     total cpu time spent up to now is     6491.6 secs

     Self-consistent Calculation

     iteration #  1     ecut=    60.00 Ry     beta= 0.30
     Davidson diagonalization with overlap
     ethr =  1.00E-06,  avg # of iterations = 10.2

     negative rho (up, down):  1.812E-02 0.000E+00

     total cpu time spent up to now is     6776.9 secs

     total energy              =   -4910.89584868 Ry
     estimated scf accuracy    <       0.08197504 Ry

     iteration #  2     ecut=    60.00 Ry     beta= 0.30
     Davidson diagonalization with overlap
     ethr =  1.42E-05,  avg # of iterations =  2.0

     negative rho (up, down):  6.761E-03 0.000E+00

     total cpu time spent up to now is     6859.0 secs

     total energy              =   -4910.89655530 Ry
     estimated scf accuracy    <       0.01888481 Ry

     iteration #  3     ecut=    60.00 Ry     beta= 0.30
     Davidson diagonalization with overlap
     ethr =  3.28E-06,  avg # of iterations =  2.2

     negative rho (up, down):  4.985E-03 0.000E+00

     total cpu time spent up to now is     6945.8 secs

     total energy              =   -4910.89833511 Ry
     estimated scf accuracy    <       0.00369105 Ry

     iteration #  4     ecut=    60.00 Ry     beta= 0.30
     Davidson diagonalization with overlap
     ethr =  6.41E-07,  avg # of iterations =  3.0

     negative rho (up, down):  4.752E-03 0.000E+00

     total cpu time spent up to now is     7038.2 secs

     total energy              =   -4910.89905870 Ry
     estimated scf accuracy    <       0.00052377 Ry

     iteration #  5     ecut=    60.00 Ry     beta= 0.30
     Davidson diagonalization with overlap
     ethr =  9.09E-08,  avg # of iterations =  2.2

     negative rho (up, down):  4.680E-03 0.000E+00

     total cpu time spent up to now is     7121.8 secs

     total energy              =   -4910.89915498 Ry
     estimated scf accuracy    <       0.00007585 Ry

     iteration #  6     ecut=    60.00 Ry     beta= 0.30
     Davidson diagonalization with overlap
     ethr =  1.32E-08,  avg # of iterations =  4.0

     negative rho (up, down):  4.691E-03 0.000E+00

     total cpu time spent up to now is     7631.4 secs

     total energy              =   -4910.89917701 Ry
     estimated scf accuracy    <       0.00000742 Ry

     iteration #  7     ecut=    60.00 Ry     beta= 0.30
     Davidson diagonalization with overlap
     ethr =  1.29E-09,  avg # of iterations =  4.5

     negative rho (up, down):  4.701E-03 0.000E+00

     total cpu time spent up to now is     7753.6 secs

     total energy              =   -4910.89917908 Ry
     estimated scf accuracy    <       0.00000354 Ry

     iteration #  8     ecut=    60.00 Ry     beta= 0.30
     Davidson diagonalization with overlap
     ethr =  6.15E-10,  avg # of iterations =  3.8

     negative rho (up, down):  4.712E-03 0.000E+00

     total cpu time spent up to now is     7861.3 secs

     total energy              =   -4910.89918025 Ry
     estimated scf accuracy    <       0.00000056 Ry

     iteration #  9     ecut=    60.00 Ry     beta= 0.30
     Davidson diagonalization with overlap
     ethr =  9.65E-11,  avg # of iterations =  3.0

     negative rho (up, down):  4.718E-03 0.000E+00

     total cpu time spent up to now is     7968.1 secs

     total energy              =   -4910.89918027 Ry
     estimated scf accuracy    <       0.00000025 Ry

     iteration # 10     ecut=    60.00 Ry     beta= 0.30
     Davidson diagonalization with overlap
     ethr =  4.32E-11,  avg # of iterations =  2.5

     negative rho (up, down):  4.723E-03 0.000E+00

     total cpu time spent up to now is     8072.3 secs

     total energy              =   -4910.89918036 Ry
     estimated scf accuracy    <          7.7E-09 Ry

     iteration # 11     ecut=    60.00 Ry     beta= 0.30
     Davidson diagonalization with overlap
     ethr =  1.34E-12,  avg # of iterations =  6.0

     negative rho (up, down):  4.727E-03 0.000E+00

     total cpu time spent up to now is     8217.8 secs

     total energy              =   -4910.89918038 Ry
     estimated scf accuracy    <          8.0E-09 Ry

     iteration # 12     ecut=    60.00 Ry     beta= 0.30
     Davidson diagonalization with overlap
     ethr =  1.34E-12,  avg # of iterations =  2.2

     negative rho (up, down):  4.735E-03 0.000E+00

     total cpu time spent up to now is     8317.6 secs

     End of self-consistent calculation

          k = 0.0000 0.0000 0.0000 (166875 PWs)   bands (ev):

   -20.5145 -20.1863 -19.8404 -19.6009 -19.6009 -19.6009 -19.5341 -19.5341
   -19.5341 -19.3552 -19.3552 -19.3552 -19.3113 -19.1522 -19.1522 -19.1522
   -18.9259 -18.9259 -18.9259 -18.9129 -18.9129 -18.9129 -18.7364 -18.5933
   -18.5933 -18.5933 -18.5511 -18.5511 -18.5511 -18.4985 -18.4578 -18.4578
   -18.4578 -18.3206 -18.3206 -18.3206 -18.2507 -18.2507 -18.2507 -18.2437
   -18.2437 -18.2437 -18.1565 -18.1565 -18.0933 -18.0933 -18.0933 -18.0672
   -18.0672 -18.0672 -18.0516 -18.0516 -18.0330 -18.0330 -18.0330 -18.0236
   -18.0236 -17.9944 -17.9944 -17.9517 -17.9517 -17.9517 -17.8681 -17.8681
   -17.8681 -17.8234 -17.8234 -17.8121 -17.8121 -17.8121 -17.8095 -17.8095
    -8.1172  -7.8835  -7.8835  -7.8835  -7.8082  -7.8082  -7.8082  -7.5403
    -7.5403  -7.5403  -7.4074  -7.3709  -7.3709  -7.3709  -7.2831  -7.1644
    -7.0971  -7.0971  -7.0971  -6.9260  -6.9260  -6.9260  -6.8994  -6.8994
    -6.7904  -6.7644  -6.7644  -6.7644  -6.6043  -6.6043  -6.6043  -6.5453
    -6.5453  -6.4205  -6.3786  -6.3786  -6.3786  -6.3475  -6.3475  -6.3475
    -6.2994  -6.2073  -6.2073  -6.2073  -6.0650  -6.0650  -5.6423  -5.6423
    -5.6162  -5.6162  -5.6162  -5.6147  -5.5265  -5.5265  -5.5265  -5.5070
    -5.5070  -5.4727  -5.4727  -5.4727  -5.3663  -5.3663  -5.3133  -5.3133
    -5.3133  -5.2917  -5.2917  -5.2917  -5.2528  -5.2325  -5.2227  -5.2227
    -5.2227  -5.0858  -5.0820  -5.0820  -5.0820  -4.9700  -4.9700  -4.9700
    -4.9218  -4.9218  -4.9218  -4.7401  -4.7401  -4.7401  -4.7175  -4.5705
    -4.5705  -4.5705  -4.4734  -4.4330  -4.4330  -4.4330  -4.3098  -4.2005
    -4.1018  -4.1018  -4.1018  -4.0022  -4.0022  -4.0022  -3.8692  -3.8692
    -3.8692  -3.8193  -3.8193  -3.8193  -3.7915  -3.7915  -3.7915  -3.7628
    -3.7628  -3.7628  -3.7485  -3.7485  -3.6981  -3.6981  -3.5221  -3.5104
    -3.5104  -3.5104  -3.4793  -3.4793  -3.4793  -3.2657  -3.2657  -3.2657
    -3.2290  -3.2290  -3.2290  -3.1700  -3.1700  -3.1700  -3.1557  -3.1557
    -3.1037  -3.1037  -3.0528  -3.0528  -3.0528  -3.0177  -3.0177  -3.0177
    -2.9748  -2.9748  -2.9748  -2.9110  -2.9110  -2.9110  -2.8688  -2.8688
    -2.8688  -2.8147  -2.8147  -2.8147  -2.7754  -2.7754  -2.7754  -2.7250
    -2.7250  -2.7222  -2.7222  -2.7167  -2.7167  -2.7167  -2.6971  -2.6971
    -2.6971  -2.6636  -2.6636  -2.6636  -2.6411  -2.6041  -2.6041  -2.6041
    -2.5161  -2.5161  -2.5161  -2.3383  -2.3383  -2.3383  -2.3204  -2.3204
    -2.3204  -2.2068  -2.2068  -2.2068  -2.1578  -2.1578  -2.0905  -2.0905
    -2.0905  -2.0829  -2.0829  -2.0041  -1.9606  -1.9606  -1.8962  -1.8962
    -1.8962  -1.8602  -1.8602  -1.8602  -1.8246  -1.8246  -1.8039  -1.8039
    -1.8039  -1.7427  -1.7427  -1.7427  -1.6063  -1.6063  -1.6038  -1.6038

          k = 0.0000 0.2887 0.0000 (166721 PWs)   bands (ev):

   -20.4455 -20.1205 -19.9350 -19.7806 -19.7121 -19.7121 -19.6452 -19.4670
   -19.4652 -19.3784 -19.3256 -19.3201 -19.2630 -19.1309 -19.1249 -19.1014
   -18.9090 -18.9010 -18.8098 -18.8084 -18.7943 -18.7762 -18.6994 -18.6624
   -18.6480 -18.5945 -18.5744 -18.5488 -18.4839 -18.4340 -18.4317 -18.4154
   -18.4068 -18.3905 -18.3803 -18.3238 -18.3236 -18.3111 -18.2799 -18.2604
   -18.2568 -18.2498 -18.2264 -18.2148 -18.1418 -18.1401 -18.1396 -18.1352
   -18.1056 -18.0955 -18.0785 -18.0664 -18.0587 -18.0496 -18.0168 -18.0109
   -18.0054 -18.0005 -17.9594 -17.9159 -17.8990 -17.8825 -17.8761 -17.8682
   -17.8435 -17.8250 -17.8141 -17.8110 -17.8074 -17.8023 -17.8009 -17.7946
    -8.0602  -7.8996  -7.7883  -7.7724  -7.6965  -7.6779  -7.6572  -7.5231
    -7.4941  -7.4133  -7.4056  -7.3558  -7.3285  -7.3029  -7.2818  -7.2631
    -7.2347  -7.2246  -7.1758  -7.0699  -6.9362  -6.9245  -6.8929  -6.8856
    -6.8643  -6.8533  -6.8286  -6.7836  -6.7383  -6.6280  -6.5851  -6.5644
    -6.5411  -6.4868  -6.4702  -6.4525  -6.4049  -6.3777  -6.3569  -6.2551
    -6.2546  -6.2466  -6.2413  -6.2399  -6.0331  -5.9384  -5.8461  -5.8414
    -5.8211  -5.7567  -5.7526  -5.7058  -5.6917  -5.6330  -5.5923  -5.5912
    -5.5611  -5.5353  -5.5293  -5.5248  -5.5186  -5.4318  -5.4135  -5.4018
    -5.3322  -5.3285  -5.3034  -5.2916  -5.2448  -5.2291  -5.1603  -5.1493
    -5.0034  -4.9002  -4.8823  -4.8581  -4.8292  -4.8277  -4.7891  -4.7886
    -4.7609  -4.7608  -4.7571  -4.7264  -4.6892  -4.6066  -4.5913  -4.4543
    -4.4483  -4.4180  -4.4012  -4.3630  -4.2667  -4.2594  -4.2355  -4.1966
    -4.1876  -4.1608  -4.1494  -4.1362  -4.0277  -4.0234  -4.0023  -3.9965
    -3.9290  -3.9281  -3.9242  -3.8818  -3.8550  -3.8411  -3.7769  -3.7220
    -3.6879  -3.6639  -3.6441  -3.6157  -3.6141  -3.5770  -3.5467  -3.5264
    -3.5180  -3.4918  -3.4667  -3.4341  -3.3902  -3.3691  -3.3311  -3.3233
    -3.2929  -3.2753  -3.2276  -3.2248  -3.2140  -3.2070  -3.1998  -3.1953
    -3.1503  -3.1323  -3.1180  -3.1033  -3.0728  -3.0585  -3.0428  -3.0183
    -3.0157  -2.9874  -2.9814  -2.9605  -2.9432  -2.9336  -2.9326  -2.9297
    -2.9047  -2.8751  -2.8652  -2.8299  -2.8221  -2.7950  -2.7920  -2.7904
    -2.7774  -2.7674  -2.7543  -2.7213  -2.7150  -2.6713  -2.6658  -2.6618
    -2.5798  -2.5626  -2.5461  -2.5406  -2.5123  -2.5085  -2.4957  -2.4832
    -2.4783  -2.4599  -2.3932  -2.3434  -2.3191  -2.3053  -2.3044  -2.3014
    -2.2852  -2.2552  -2.2394  -2.2279  -2.1777  -2.1642  -2.1491  -2.1462
    -2.0939  -2.0910  -2.0906  -2.0664  -2.0408  -1.9885  -1.9172  -1.9120
    -1.9039  -1.8922  -1.8818  -1.8565  -1.8467  -1.8433  -1.8211  -1.8181
    -1.8055  -1.7941  -1.7563  -1.7461  -1.7380  -1.7077  -1.6435  -1.6073

          k = 0.0000-0.5774 0.0000 (166636 PWs)   bands (ev):

   -20.2450 -20.2450 -19.9305 -19.9305 -19.7632 -19.7632 -19.6104 -19.6104
   -19.4907 -19.4907 -19.2581 -19.2581 -19.1349 -19.1349 -19.0772 -19.0772
   -18.8497 -18.8497 -18.7611 -18.7611 -18.6616 -18.6616 -18.6320 -18.6320
   -18.5900 -18.5900 -18.5496 -18.5496 -18.4938 -18.4938 -18.4721 -18.4721
   -18.4290 -18.4290 -18.3458 -18.3458 -18.3025 -18.3025 -18.2810 -18.2810
   -18.2647 -18.2647 -18.2466 -18.2466 -18.2388 -18.2388 -18.2080 -18.2080
   -18.1474 -18.1474 -18.1082 -18.1082 -18.0589 -18.0589 -18.0367 -18.0367
   -17.9508 -17.9508 -17.9069 -17.9069 -17.8621 -17.8621 -17.8473 -17.8473
   -17.8367 -17.8367 -17.8206 -17.8206 -17.7976 -17.7976 -17.7891 -17.7891
    -7.9345  -7.9345  -7.6048  -7.6048  -7.5643  -7.5643  -7.4918  -7.4918
    -7.4548  -7.4548  -7.3982  -7.3982  -7.3559  -7.3559  -7.1830  -7.1830
    -7.1393  -7.1393  -7.1194  -7.1194  -7.1004  -7.1004  -7.0109  -7.0109
    -6.9000  -6.9000  -6.8723  -6.8723  -6.7763  -6.7763  -6.7739  -6.7739
    -6.5856  -6.5856  -6.5507  -6.5507  -6.3668  -6.3668  -6.3605  -6.3605
    -6.1084  -6.1084  -6.0567  -6.0567  -6.0259  -6.0259  -6.0086  -6.0086
    -5.9379  -5.9379  -5.8934  -5.8934  -5.7139  -5.7139  -5.6475  -5.6475
    -5.6096  -5.6096  -5.5333  -5.5333  -5.4940  -5.4940  -5.4809  -5.4809
    -5.4217  -5.4217  -5.2012  -5.2012  -5.0352  -5.0352  -5.0181  -5.0181
    -4.9265  -4.9265  -4.8630  -4.8630  -4.7804  -4.7804  -4.6979  -4.6979
    -4.6665  -4.6665  -4.5834  -4.5834  -4.5248  -4.5248  -4.5130  -4.5130
    -4.4086  -4.4086  -4.3700  -4.3700  -4.2833  -4.2833  -4.1548  -4.1548
    -4.0717  -4.0717  -4.0427  -4.0427  -4.0124  -4.0124  -3.9034  -3.9034
    -3.8916  -3.8916  -3.8367  -3.8367  -3.8185  -3.8185  -3.6893  -3.6893
    -3.6860  -3.6860  -3.6792  -3.6792  -3.6337  -3.6337  -3.5951  -3.5951
    -3.5422  -3.5422  -3.4940  -3.4940  -3.4361  -3.4361  -3.3838  -3.3838
    -3.3228  -3.3228  -3.3225  -3.3225  -3.2440  -3.2440  -3.1861  -3.1861
    -3.1793  -3.1793  -3.0954  -3.0954  -3.0823  -3.0823  -3.0387  -3.0387
    -3.0168  -3.0168  -2.9876  -2.9876  -2.9775  -2.9775  -2.9427  -2.9427
    -2.9010  -2.9010  -2.8549  -2.8549  -2.8174  -2.8174  -2.8046  -2.8046
    -2.7450  -2.7450  -2.6981  -2.6981  -2.6393  -2.6393  -2.6120  -2.6120
    -2.6099  -2.6099  -2.5290  -2.5290  -2.4976  -2.4976  -2.4735  -2.4735
    -2.4733  -2.4733  -2.3922  -2.3922  -2.3709  -2.3709  -2.3159  -2.3159
    -2.2894  -2.2894  -2.1938  -2.1938  -2.1711  -2.1711  -2.1327  -2.1327
    -2.1061  -2.1061  -2.0611  -2.0611  -2.0416  -2.0416  -2.0050  -2.0050
    -1.9670  -1.9670  -1.8780  -1.8780  -1.8736  -1.8736  -1.7932  -1.7932
    -1.7889  -1.7889  -1.7412  -1.7412  -1.7193  -1.7193  -1.6747  -1.6747

          k = 0.2500 0.4330 0.0000 (166642 PWs)   bands (ev):

   -20.3107 -20.0549 -20.0549 -19.9925 -19.7529 -19.7528 -19.6654 -19.4568
   -19.4564 -19.4490 -19.3935 -19.2398 -19.1735 -19.1586 -19.0518 -19.0503
   -18.8985 -18.8298 -18.7499 -18.7446 -18.7319 -18.6464 -18.6414 -18.6379
   -18.6331 -18.5374 -18.5317 -18.5168 -18.5159 -18.4567 -18.4290 -18.4267
   -18.4104 -18.4025 -18.3938 -18.3680 -18.3470 -18.3381 -18.3327 -18.2705
   -18.2622 -18.2613 -18.2425 -18.2397 -18.2291 -18.2223 -18.1894 -18.1634
   -18.1626 -18.1563 -18.1475 -18.0947 -18.0886 -18.0560 -18.0399 -18.0173
   -17.9659 -17.9416 -17.8990 -17.8962 -17.8931 -17.8629 -17.8526 -17.8376
   -17.8335 -17.8278 -17.8186 -17.8181 -17.7996 -17.7946 -17.7911 -17.7884
    -7.9500  -7.8182  -7.8089  -7.6180  -7.5743  -7.5556  -7.5165  -7.4964
    -7.4424  -7.4273  -7.3629  -7.3184  -7.3118  -7.2823  -7.2568  -7.1890
    -7.1703  -7.1533  -7.1446  -7.1382  -7.0733  -7.0570  -7.0566  -6.9707
    -6.9464  -6.9388  -6.8757  -6.8265  -6.8090  -6.7673  -6.7351  -6.6178
    -6.5955  -6.5836  -6.5660  -6.5244  -6.4524  -6.3865  -6.3638  -6.3128
    -6.2314  -6.1174  -6.1068  -6.1033  -6.0946  -6.0179  -5.9887  -5.9673
    -5.9540  -5.8812  -5.8562  -5.8212  -5.7650  -5.7441  -5.7146  -5.6698
    -5.6273  -5.5689  -5.5261  -5.5244  -5.5173  -5.4634  -5.3944  -5.3532
    -5.3146  -5.2609  -5.2535  -5.2510  -5.2224  -5.1785  -5.0961  -5.0601
    -5.0277  -4.9635  -4.9286  -4.8549  -4.7981  -4.7348  -4.6910  -4.6557
    -4.6497  -4.6424  -4.5898  -4.5540  -4.5209  -4.5053  -4.4491  -4.4039
    -4.3911  -4.3691  -4.3422  -4.2448  -4.2377  -4.2212  -4.1860  -4.1427
    -4.1027  -4.0991  -4.0598  -4.0337  -3.9944  -3.9806  -3.9512  -3.9486
    -3.8805  -3.8595  -3.8149  -3.8111  -3.8003  -3.7773  -3.7698  -3.7370
    -3.7104  -3.6867  -3.6735  -3.6688  -3.6363  -3.6140  -3.5783  -3.5651
    -3.5531  -3.4816  -3.4788  -3.4696  -3.4601  -3.4403  -3.4083  -3.3961
    -3.3771  -3.3681  -3.3507  -3.3277  -3.3058  -3.2652  -3.2460  -3.2030
    -3.2012  -3.1789  -3.1683  -3.1416  -3.1357  -3.0869  -3.0759  -3.0582
    -3.0485  -3.0313  -3.0258  -3.0063  -2.9902  -2.9572  -2.9191  -2.9013
    -2.8749  -2.8356  -2.8314  -2.8251  -2.8128  -2.8056  -2.7854  -2.7600
    -2.7526  -2.7154  -2.6913  -2.6887  -2.6723  -2.6467  -2.6371  -2.5741
    -2.5607  -2.5482  -2.5480  -2.5136  -2.4963  -2.4948  -2.4783  -2.4604
    -2.4369  -2.4363  -2.4349  -2.4023  -2.3907  -2.3750  -2.3366  -2.2823
    -2.2713  -2.2585  -2.2363  -2.2199  -2.1866  -2.1518  -2.1426  -2.1223
    -2.1003  -2.0971  -2.0968  -2.0833  -2.0822  -2.0321  -2.0202  -1.9973
    -1.9617  -1.9434  -1.9349  -1.9094  -1.8710  -1.8419  -1.8320  -1.8044
    -1.7741  -1.7685  -1.7666  -1.7090  -1.6982  -1.6899  -1.6767  -1.6249

     highest occupied level (ev):    -1.6038

!    total energy              =   -4910.89918039 Ry
     total all-electron energy =    -34162.728950 Ry
     estimated scf accuracy    <          1.4E-09 Ry

     The total energy is the sum of the following terms:
     one-electron contribution =  -80938.59900105 Ry
     hartree contribution      =   40709.32099892 Ry
     xc contribution           =    -675.78395018 Ry
     ewald contribution        =   38342.09328427 Ry
     one-center paw contrib.   =   -2347.93051234 Ry

     convergence has been achieved in  12 iterations

     negative rho (up, down):  4.735E-03 0.000E+00

     Forces acting on atoms (cartesian axes, Ry/au):

     atom    1 type  1   force =     0.00000000    0.00000000    0.01050233
     atom    2 type  1   force =    -0.00000000    0.00000000   -0.00029934
     atom    3 type  1   force =     0.00000000   -0.00000000    0.00632790
     atom    4 type  1   force =     0.00000000   -0.00000000    0.00218954
     atom    5 type  1   force =     0.00000000    0.00000000    0.01851381
     atom    6 type  1   force =    -0.00000000    0.00000000    0.00897498
     atom    7 type  1   force =     0.00000000    0.00000000   -0.00897498
     atom    8 type  1   force =     0.00000000   -0.00000000   -0.01851381
     atom    9 type  1   force =    -0.00000000   -0.00000000   -0.00218954
     atom   10 type  1   force =     0.00000000    0.00000000   -0.00632790
     atom   11 type  1   force =    -0.00000000   -0.00000000    0.00029934
     atom   12 type  1   force =     0.00000000    0.00000000   -0.01050233
     atom   13 type  2   force =    -0.00082282   -0.00128140    0.00332563
     atom   14 type  2   force =     0.00558329   -0.00954488    0.00476388
     atom   15 type  2   force =    -0.00069832    0.00135329    0.00332563
     atom   16 type  2   force =     0.00152114   -0.00007188    0.00332563
     atom   17 type  2   force =    -0.01105775   -0.00006283    0.00476388
     atom   18 type  2   force =     0.00547446    0.00960771    0.00476388
     atom   19 type  2   force =     0.01995345   -0.00179516   -0.00786070
     atom   20 type  2   force =     0.01153138    0.01638261    0.00786070
     atom   21 type  2   force =    -0.01153138   -0.01638261   -0.00786071
     atom   22 type  2   force =    -0.00842206    0.01817777   -0.00786070
     atom   23 type  2   force =     0.00842207   -0.01817778    0.00786070
     atom   24 type  2   force =    -0.01995345    0.00179516    0.00786071
     atom   25 type  2   force =    -0.00547446   -0.00960771   -0.00476388
     atom   26 type  2   force =     0.00069832   -0.00135329   -0.00332563
     atom   27 type  2   force =    -0.00558329    0.00954488   -0.00476388
     atom   28 type  2   force =     0.01105775    0.00006283   -0.00476388
     atom   29 type  2   force =    -0.00152114    0.00007188   -0.00332563
     atom   30 type  2   force =     0.00082282    0.00128140   -0.00332563
     atom   31 type  1   force =     0.00000000   -0.00000000    0.01050233
     atom   32 type  1   force =     0.00000000   -0.00000000   -0.00029934
     atom   33 type  1   force =     0.00000000   -0.00000000    0.00632790
     atom   34 type  1   force =    -0.00000000    0.00000000    0.00218954
     atom   35 type  1   force =    -0.00000000   -0.00000000    0.01851381
     atom   36 type  1   force =     0.00000000   -0.00000000    0.00897498
     atom   37 type  1   force =     0.00000000   -0.00000000   -0.00897497
     atom   38 type  1   force =     0.00000000    0.00000000   -0.01851381
     atom   39 type  1   force =     0.00000000    0.00000000   -0.00218954
     atom   40 type  1   force =    -0.00000000    0.00000000   -0.00632790
     atom   41 type  1   force =    -0.00000000    0.00000000    0.00029934
     atom   42 type  1   force =     0.00000000    0.00000000   -0.01050233
     atom   43 type  2   force =    -0.00082282   -0.00128140    0.00332563
     atom   44 type  2   force =     0.00558329   -0.00954488    0.00476388
     atom   45 type  2   force =    -0.00069832    0.00135329    0.00332563
     atom   46 type  2   force =     0.00152114   -0.00007188    0.00332563
     atom   47 type  2   force =    -0.01105775   -0.00006283    0.00476388
     atom   48 type  2   force =     0.00547446    0.00960771    0.00476388
     atom   49 type  2   force =     0.01995345   -0.00179517   -0.00786070
     atom   50 type  2   force =     0.01153138    0.01638261    0.00786070
     atom   51 type  2   force =    -0.01153138   -0.01638261   -0.00786070
     atom   52 type  2   force =    -0.00842207    0.01817778   -0.00786071
     atom   53 type  2   force =     0.00842206   -0.01817778    0.00786070
     atom   54 type  2   force =    -0.01995345    0.00179517    0.00786070
     atom   55 type  2   force =    -0.00547446   -0.00960771   -0.00476388
     atom   56 type  2   force =     0.00069832   -0.00135329   -0.00332563
     atom   57 type  2   force =    -0.00558329    0.00954488   -0.00476388
     atom   58 type  2   force =     0.01105775    0.00006283   -0.00476388
     atom   59 type  2   force =    -0.00152114    0.00007188   -0.00332563
     atom   60 type  2   force =     0.00082282    0.00128140   -0.00332563
     atom   61 type  1   force =     0.00000000    0.00000000    0.01050233
     atom   62 type  1   force =     0.00000000   -0.00000000   -0.00029934
     atom   63 type  1   force =    -0.00000000    0.00000000    0.00632790
     atom   64 type  1   force =     0.00000000    0.00000000    0.00218954
     atom   65 type  1   force =    -0.00000000    0.00000000    0.01851381
     atom   66 type  1   force =     0.00000000   -0.00000000    0.00897497
     atom   67 type  1   force =    -0.00000000    0.00000000   -0.00897498
     atom   68 type  1   force =     0.00000000   -0.00000000   -0.01851381
     atom   69 type  1   force =     0.00000000   -0.00000000   -0.00218954
     atom   70 type  1   force =     0.00000000   -0.00000000   -0.00632790
     atom   71 type  1   force =     0.00000000    0.00000000    0.00029934
     atom   72 type  1   force =    -0.00000000    0.00000000   -0.01050233
     atom   73 type  2   force =    -0.00082282   -0.00128140    0.00332563
     atom   74 type  2   force =     0.00558329   -0.00954488    0.00476388
     atom   75 type  2   force =    -0.00069832    0.00135329    0.00332563
     atom   76 type  2   force =     0.00152114   -0.00007188    0.00332563
     atom   77 type  2   force =    -0.01105775   -0.00006283    0.00476388
     atom   78 type  2   force =     0.00547446    0.00960771    0.00476388
     atom   79 type  2   force =     0.01995345   -0.00179517   -0.00786070
     atom   80 type  2   force =     0.01153138    0.01638261    0.00786070
     atom   81 type  2   force =    -0.01153138   -0.01638261   -0.00786070
     atom   82 type  2   force =    -0.00842206    0.01817778   -0.00786070
     atom   83 type  2   force =     0.00842207   -0.01817778    0.00786071
     atom   84 type  2   force =    -0.01995345    0.00179517    0.00786070
     atom   85 type  2   force =    -0.00547446   -0.00960771   -0.00476388
     atom   86 type  2   force =     0.00069832   -0.00135329   -0.00332563
     atom   87 type  2   force =    -0.00558329    0.00954488   -0.00476388
     atom   88 type  2   force =     0.01105775    0.00006283   -0.00476388
     atom   89 type  2   force =    -0.00152114    0.00007188   -0.00332563
     atom   90 type  2   force =     0.00082282    0.00128140   -0.00332563
     atom   91 type  1   force =    -0.00000000   -0.00000000    0.01050233
     atom   92 type  1   force =     0.00000000    0.00000000   -0.00029934
     atom   93 type  1   force =     0.00000000    0.00000000    0.00632790
     atom   94 type  1   force =     0.00000000    0.00000000    0.00218954
     atom   95 type  1   force =     0.00000000    0.00000000    0.01851381
     atom   96 type  1   force =    -0.00000000   -0.00000000    0.00897498
     atom   97 type  1   force =     0.00000000   -0.00000000   -0.00897498
     atom   98 type  1   force =    -0.00000000   -0.00000000   -0.01851381
     atom   99 type  1   force =    -0.00000000    0.00000000   -0.00218954
     atom  100 type  1   force =    -0.00000000   -0.00000000   -0.00632790
     atom  101 type  1   force =     0.00000000   -0.00000000    0.00029934
     atom  102 type  1   force =    -0.00000000   -0.00000000   -0.01050233
     atom  103 type  2   force =    -0.00082282   -0.00128140    0.00332563
     atom  104 type  2   force =     0.00558329   -0.00954488    0.00476388
     atom  105 type  2   force =    -0.00069832    0.00135329    0.00332563
     atom  106 type  2   force =     0.00152114   -0.00007188    0.00332563
     atom  107 type  2   force =    -0.01105775   -0.00006283    0.00476388
     atom  108 type  2   force =     0.00547446    0.00960771    0.00476388
     atom  109 type  2   force =     0.01995345   -0.00179516   -0.00786071
     atom  110 type  2   force =     0.01153138    0.01638261    0.00786071
     atom  111 type  2   force =    -0.01153138   -0.01638261   -0.00786070
     atom  112 type  2   force =    -0.00842207    0.01817778   -0.00786070
     atom  113 type  2   force =     0.00842206   -0.01817777    0.00786070
     atom  114 type  2   force =    -0.01995345    0.00179516    0.00786070
     atom  115 type  2   force =    -0.00547446   -0.00960771   -0.00476388
     atom  116 type  2   force =     0.00069832   -0.00135329   -0.00332563
     atom  117 type  2   force =    -0.00558329    0.00954488   -0.00476388
     atom  118 type  2   force =     0.01105775    0.00006283   -0.00476388
     atom  119 type  2   force =    -0.00152114    0.00007188   -0.00332563
     atom  120 type  2   force =     0.00082282    0.00128140   -0.00332563

     Total force =     0.139801     Total SCF correction =     0.000136


     Computing stress (Cartesian axis) and pressure


     negative rho (up, down):  4.735E-03 0.000E+00
          total   stress  (Ry/bohr**3)                   (kbar)     P=        7.02
   0.00013071   0.00000000   0.00000000           19.23        0.00        0.00
   0.00000000   0.00013071   0.00000000            0.00       19.23        0.00
   0.00000000   0.00000000  -0.00011826            0.00        0.00      -17.40

     Energy error            =      1.1E-01 Ry
     Gradient error          =      2.0E-02 Ry/Bohr

     number of scf cycles    =   5
     number of bfgs steps    =   4

     energy             old  =   -4910.7884707984 Ry
     energy             new  =   -4910.8991803862 Ry

     CASE: energy            _new < energy            _old

     new trust radius        =       0.0947139804 bohr
     new conv_thr            =       0.0000000020 Ry


ATOMIC_POSITIONS (angstrom)
Al              -0.0000000006        2.7741837614       24.0289014803
Al               2.4025136111        1.3870918803       22.1121997199
Al               0.0000000000       -0.0000000000       21.6389116945
Al              -0.0000000002        2.7741837616       19.9266206637
Al               0.0000000000       -0.0000000000       15.0449082684
Al              -0.0000000079        2.7741837542       14.0062349555
Al               2.4025136011        1.3870918839       25.3425247945
Al               0.0000000000       -0.0000000000       24.3038514816
Al               2.4025136113        1.3870918810       19.4221390863
Al               0.0000000000       -0.0000000000       17.7098480555
Al               0.0000000003        2.7741837611       17.2365600301
Al               2.4025136109        1.3870918812       15.3198582697
O                0.9329029065        1.3818856403       20.7744231070
O                1.6435598244        2.8767862361       22.9995181891
O                3.1328102560        2.6624152088       20.7744231088
O                3.1418277200        0.1169747607       20.7744231050
O                4.0721036575        1.2995179578       22.9995181862
O                1.4918773474       -0.0150285541       22.9995181869
O               -1.5286880147        2.8508105165       25.2100611060
O                1.5718089069        0.1015226156       14.1386986424
O                0.8307047034        4.0597530274       25.2100611139
O                0.6979832527        1.4119877547       25.2100611076
O                1.7045303404        2.7492878858       14.1386986440
O                3.9312016272        1.3104651154       14.1386986361
O                3.3131498723        0.0150285565       16.3492415609
O               -0.7302966459        1.4988604302       18.5743366430
O                0.7589537833        1.2844894049       16.3492415631
O                3.1354371742        2.8617576790       16.3492415623
O               -0.7393141067        4.0443008697       18.5743366412
O                1.4696107040        2.7793900022       18.5743366450
Al              -2.4025136085        6.9354593998       24.0289014803
Al               0.0000000000        5.5483675200       22.1121997164
Al              -2.4025136104        4.1612756406       21.6389116970
Al              -2.4025136085        6.9354593993       19.9266206637
Al              -2.4025136114        4.1612756433       15.0449082639
Al              -2.4025136111        6.9354594097       14.0062349555
Al               0.0000000000        5.5483675200       25.3425247989
Al              -2.4025136086        4.1612756367       24.3038514861
Al               0.0000000000        5.5483675200       19.4221390821
Al              -2.4025136096        4.1612756394       17.7098480530
Al              -2.4025136092        6.9354593992       17.2365600301
Al               0.0000000000        5.5483675200       15.3198582714
O               -1.4696107037        5.5431612770       20.7744231044
O               -0.7589537851        7.0380618740       22.9995181877
O                0.7302966431        6.8236908416       20.7744231044
O                0.7393141106        4.2782504014       20.7744231044
O                1.6695900458        5.4607936010       22.9995181877
O               -0.9106362607        4.1462470850       22.9995181877
O               -3.9312016157        7.0120861709       25.2100611076
O               -0.8307046994        4.2627982417       14.1386986483
O               -1.5718089149        8.2210286693       25.2100611060
O               -1.7045303462        5.5732633880       25.2100611139
O               -0.6979832665        6.9105635191       14.1386986483
O                1.5286880160        5.4717407592       14.1386986483
O                0.9106362644        4.1763041949       16.3492415638
O               -3.1328102540        5.6601360685       18.5743366450
O               -1.6435598269        5.4457650429       16.3492415638
O                0.7329235625        7.0230333222       16.3492415638
O               -3.1418277176        8.2055765101       18.5743366430
O               -0.9329029073        6.9406656391       18.5743366412
Al               4.8050272200        2.7741837600       24.0289014786
Al               7.2075408292        1.3870918808       22.1121997199
Al               4.8050272207        0.0000000000       21.6389116970
Al               4.8050272200        2.7741837600       19.9266206679
Al               4.8050272236       -0.0000000005       15.0449082639
Al               4.8050272200        2.7741837600       14.0062349511
Al               7.2075408311        1.3870918703       25.3425247945
Al               4.8050272164        0.0000000005       24.3038514861
Al               7.2075408285        1.3870918807       19.4221390863
Al               4.8050272193       -0.0000000000       17.7098480530
Al               4.8050272200        2.7741837600       17.2365600336
Al               7.2075408285        1.3870918802       15.3198582697
O                5.7379301273        1.3818856409       20.7744231088
O                6.4485870469        2.8767862371       22.9995181862
O                7.9378374740        2.6624152115       20.7744231050
O                7.9468549376        0.1169747599       20.7744231070
O                8.8771308759        1.2995179590       22.9995181869
O                6.2969045677       -0.0150285565       22.9995181891
O                3.2763392040        2.8508105208       25.2100611017
O                6.3768361349        0.1015226007       14.1386986440
O                5.6357319194        4.0597530283       25.2100611017
O                5.5030104865        1.4119877509       25.2100611017
O                6.5095575662        2.7492878920       14.1386986361
O                8.7362288357        1.3104651091       14.1386986424
O                8.1181770926        0.0150285541       16.3492415631
O                4.0747305769        1.4988604284       18.5743366456
O                5.5639810051        1.2844894060       16.3492415623
O                7.9404643921        2.8617576795       16.3492415609
O                4.0657131094        4.0443008686       18.5743366456
O                6.2746379237        2.7793900030       18.5743366456
Al               2.4025136091        6.9354593988       24.0289014803
Al               4.8050272197        5.5483675189       22.1121997199
Al               2.4025136097        4.1612756394       21.6389116970
Al               2.4025136087        6.9354593990       19.9266206637
Al               2.4025136078        4.1612756371       15.0449082639
Al               2.4025136189        6.9354593961       14.0062349555
Al               4.8050272279        5.5483675258       25.3425247945
Al               2.4025136122        4.1612756429       24.3038514861
Al               4.8050272202        5.5483675184       19.4221390863
Al               2.4025136103        4.1612756406       17.7098480530
Al               2.4025136089        6.9354593997       17.2365600301
Al               4.8050272206        5.5483675186       15.3198582697
O                3.3354165160        5.5431612778       20.7744231050
O                4.0460734367        7.0380618751       22.9995181869
O                5.5353238659        6.8236908398       20.7744231070
O                5.5443413267        4.2782504003       20.7744231088
O                6.4746172679        5.4607936005       22.9995181891
O                3.8943909556        4.1462470851       22.9995181862
O                0.8738255928        7.0120861646       25.2100611139
O                3.9743225166        4.2627982426       14.1386986361
O                3.2332183131        8.2210286544       25.2100611076
O                3.1004968796        5.5732633942       25.2100611060
O                4.1070439673        6.9105635153       14.1386986424
O                6.3337152347        5.4717407635       14.1386986440
O                5.7156634807        4.1763041950       16.3492415623
O                1.6722169640        5.6601360712       18.5743366412
O                3.1614673956        5.4457650439       16.3492415609
O                5.5379507841        7.0230333210       16.3492415631
O                1.6631995000        8.2055765093       18.5743366450
O                3.8721243135        6.9406656397       18.5743366430



     Writing config-only to output data dir ./tmp/al2o3.save/ :
     XML data file
     NEW-OLD atomic charge density approx. for the potential

     negative rho (up, down):  6.310E-03 0.000E+00

     total cpu time spent up to now is     9697.2 secs

     Self-consistent Calculation

     iteration #  1     ecut=    60.00 Ry     beta= 0.30
     Davidson diagonalization with overlap
     ethr =  1.00E-06,  avg # of iterations =  8.0

     negative rho (up, down):  5.504E-03 0.000E+00

     total cpu time spent up to now is     9919.3 secs

     total energy              =   -4910.92018346 Ry
     estimated scf accuracy    <       0.01045784 Ry

     iteration #  2     ecut=    60.00 Ry     beta= 0.30
     Davidson diagonalization with overlap
     ethr =  1.82E-06,  avg # of iterations =  2.0

     negative rho (up, down):  5.061E-03 0.000E+00

     total cpu time spent up to now is     9999.6 secs

     total energy              =   -4910.92038190 Ry
     estimated scf accuracy    <       0.00264295 Ry

     iteration #  3     ecut=    60.00 Ry     beta= 0.30
     Davidson diagonalization with overlap
     ethr =  4.59E-07,  avg # of iterations =  2.5

     negative rho (up, down):  4.868E-03 0.000E+00

     total cpu time spent up to now is    10086.4 secs

     total energy              =   -4910.92070897 Ry
     estimated scf accuracy    <       0.00044213 Ry

     iteration #  4     ecut=    60.00 Ry     beta= 0.30
     Davidson diagonalization with overlap
     ethr =  7.68E-08,  avg # of iterations =  3.0

     negative rho (up, down):  4.791E-03 0.000E+00

     total cpu time spent up to now is    10178.8 secs

     total energy              =   -4910.92079991 Ry
     estimated scf accuracy    <       0.00006691 Ry

     iteration #  5     ecut=    60.00 Ry     beta= 0.30
     Davidson diagonalization with overlap
     ethr =  1.16E-08,  avg # of iterations =  4.0

     negative rho (up, down):  4.781E-03 0.000E+00

     total cpu time spent up to now is    10275.8 secs

     total energy              =   -4910.92081243 Ry
     estimated scf accuracy    <       0.00000598 Ry

     iteration #  6     ecut=    60.00 Ry     beta= 0.30
     Davidson diagonalization with overlap
     ethr =  1.04E-09,  avg # of iterations =  4.0

     negative rho (up, down):  4.779E-03 0.000E+00

     total cpu time spent up to now is    13191.8 secs

     total energy              =   -4910.92081410 Ry
     estimated scf accuracy    <       0.00000103 Ry

     iteration #  7     ecut=    60.00 Ry     beta= 0.30
     Davidson diagonalization with overlap
     ethr =  1.78E-10,  avg # of iterations =  4.0

     negative rho (up, down):  4.781E-03 0.000E+00

     total cpu time spent up to now is    13286.7 secs

     total energy              =   -4910.92081437 Ry
     estimated scf accuracy    <       0.00000021 Ry

     iteration #  8     ecut=    60.00 Ry     beta= 0.30
     Davidson diagonalization with overlap
     ethr =  3.73E-11,  avg # of iterations =  3.8

     negative rho (up, down):  4.782E-03 0.000E+00

     total cpu time spent up to now is    13380.1 secs

     total energy              =   -4910.92081446 Ry
     estimated scf accuracy    <       0.00000007 Ry

     iteration #  9     ecut=    60.00 Ry     beta= 0.30
     Davidson diagonalization with overlap
     ethr =  1.26E-11,  avg # of iterations =  2.2

     negative rho (up, down):  4.784E-03 0.000E+00

     total cpu time spent up to now is    13465.4 secs

     total energy              =   -4910.92081449 Ry
     estimated scf accuracy    <          7.7E-09 Ry

     iteration # 10     ecut=    60.00 Ry     beta= 0.30
     Davidson diagonalization with overlap
     ethr =  1.34E-12,  avg # of iterations =  5.5

     negative rho (up, down):  4.784E-03 0.000E+00

     total cpu time spent up to now is    13575.1 secs

     total energy              =   -4910.92081449 Ry
     estimated scf accuracy    <          9.0E-09 Ry

     iteration # 11     ecut=    60.00 Ry     beta= 0.30
     Davidson diagonalization with overlap
     ethr =  1.34E-12,  avg # of iterations =  4.0

     negative rho (up, down):  4.786E-03 0.000E+00

     total cpu time spent up to now is    13669.4 secs

     End of self-consistent calculation

          k = 0.0000 0.0000 0.0000 (166875 PWs)   bands (ev):

   -20.7231 -20.3903 -20.0301 -19.8121 -19.8121 -19.8121 -19.7410 -19.7410
   -19.7410 -19.5529 -19.5529 -19.5529 -19.4921 -19.3544 -19.3544 -19.3544
   -19.1056 -19.1056 -19.1056 -19.0915 -19.0915 -19.0915 -18.9023 -18.7850
   -18.7850 -18.7850 -18.7216 -18.7216 -18.7216 -18.6890 -18.6666 -18.6666
   -18.6666 -18.5059 -18.5059 -18.5059 -18.4136 -18.4136 -18.4136 -18.4083
   -18.4083 -18.4083 -18.3713 -18.3713 -18.2727 -18.2727 -18.2727 -18.2541
   -18.2541 -18.2508 -18.2508 -18.2508 -18.2292 -18.2292 -18.2292 -18.1766
   -18.1766 -18.1590 -18.1590 -18.1457 -18.1457 -18.1457 -18.0564 -18.0564
   -18.0564 -18.0193 -18.0193 -18.0145 -18.0145 -18.0145 -18.0093 -18.0093
    -8.3181  -8.0930  -8.0930  -8.0930  -8.0141  -8.0141  -8.0141  -7.7328
    -7.7328  -7.7328  -7.6167  -7.5474  -7.5474  -7.5474  -7.4483  -7.3831
    -7.3048  -7.3048  -7.3048  -7.1160  -7.1160  -7.1160  -7.1037  -7.1037
    -6.9857  -6.9365  -6.9365  -6.9365  -6.7997  -6.7997  -6.7997  -6.7335
    -6.7335  -6.6163  -6.5573  -6.5573  -6.5573  -6.5373  -6.5373  -6.5373
    -6.4295  -6.4072  -6.4072  -6.4072  -6.2399  -6.2399  -5.8440  -5.8440
    -5.8343  -5.8221  -5.8221  -5.8221  -5.7067  -5.7067  -5.7067  -5.6957
    -5.6957  -5.6601  -5.6601  -5.6601  -5.5723  -5.5723  -5.5245  -5.5245
    -5.5245  -5.4790  -5.4540  -5.4540  -5.4540  -5.4255  -5.4255  -5.4255
    -5.3764  -5.2843  -5.2843  -5.2843  -5.2353  -5.1779  -5.1779  -5.1779
    -5.0791  -5.0791  -5.0791  -4.9208  -4.9147  -4.9147  -4.9147  -4.7398
    -4.7398  -4.7398  -4.6745  -4.5926  -4.5926  -4.5926  -4.5070  -4.3839
    -4.2886  -4.2886  -4.2886  -4.1787  -4.1787  -4.1787  -4.0609  -4.0609
    -4.0609  -3.9934  -3.9934  -3.9934  -3.9771  -3.9771  -3.9771  -3.9494
    -3.9494  -3.9470  -3.9470  -3.9470  -3.8775  -3.8775  -3.7156  -3.6755
    -3.6755  -3.6755  -3.6458  -3.6458  -3.6458  -3.4356  -3.4356  -3.4356
    -3.4171  -3.4171  -3.4171  -3.3657  -3.3657  -3.3657  -3.3225  -3.3225
    -3.2732  -3.2732  -3.2382  -3.2382  -3.2382  -3.1824  -3.1824  -3.1824
    -3.1790  -3.1790  -3.1790  -3.1228  -3.1228  -3.1228  -3.0859  -3.0859
    -3.0859  -2.9844  -2.9844  -2.9844  -2.9422  -2.9422  -2.9422  -2.8996
    -2.8996  -2.8996  -2.8884  -2.8884  -2.8884  -2.8810  -2.8810  -2.8722
    -2.8722  -2.8447  -2.8447  -2.8447  -2.7893  -2.7818  -2.7818  -2.7818
    -2.6991  -2.6991  -2.6991  -2.5193  -2.5193  -2.5193  -2.4969  -2.4969
    -2.4969  -2.3949  -2.3949  -2.3949  -2.3501  -2.3501  -2.2855  -2.2855
    -2.2855  -2.2687  -2.2687  -2.1782  -2.1459  -2.1459  -2.0890  -2.0890
    -2.0890  -2.0466  -2.0466  -2.0466  -2.0144  -2.0144  -1.9773  -1.9773
    -1.9773  -1.9181  -1.9181  -1.9181  -1.8049  -1.8049  -1.7987  -1.7987

          k = 0.0000 0.2887 0.0000 (166721 PWs)   bands (ev):

   -20.6541 -20.3242 -20.1440 -19.9701 -19.9215 -19.9215 -19.8477 -19.6713
   -19.6694 -19.5695 -19.5254 -19.5196 -19.4442 -19.3295 -19.3236 -19.3034
   -19.0975 -19.0881 -18.9890 -18.9878 -18.9721 -18.9660 -18.8655 -18.8537
   -18.8420 -18.7808 -18.7624 -18.7370 -18.6742 -18.6410 -18.6147 -18.6035
   -18.5877 -18.5657 -18.5607 -18.4973 -18.4934 -18.4833 -18.4696 -18.4638
   -18.4398 -18.4284 -18.4150 -18.3787 -18.3390 -18.3327 -18.3154 -18.3150
   -18.2963 -18.2590 -18.2575 -18.2546 -18.2459 -18.2238 -18.1980 -18.1949
   -18.1893 -18.1778 -18.1409 -18.1081 -18.0945 -18.0723 -18.0624 -18.0562
   -18.0342 -18.0165 -18.0112 -18.0080 -18.0047 -18.0041 -17.9999 -17.9900
    -8.2617  -8.1064  -7.9969  -7.9788  -7.9055  -7.8863  -7.8626  -7.7359
    -7.6858  -7.6069  -7.5992  -7.5653  -7.4968  -7.4756  -7.4735  -7.4510
    -7.4384  -7.4293  -7.3649  -7.2789  -7.1235  -7.1209  -7.0804  -7.0771
    -7.0428  -7.0349  -7.0217  -6.9485  -6.8985  -6.8205  -6.7846  -6.7334
    -6.7196  -6.6832  -6.6565  -6.6441  -6.6050  -6.5772  -6.5425  -6.4444
    -6.4413  -6.4313  -6.4296  -6.4268  -6.2101  -6.1243  -6.0412  -6.0311
    -6.0183  -5.9552  -5.9323  -5.9047  -5.9039  -5.8292  -5.8009  -5.7955
    -5.7741  -5.7432  -5.7243  -5.7160  -5.7049  -5.6176  -5.5943  -5.5881
    -5.5407  -5.5156  -5.5064  -5.4635  -5.4487  -5.4157  -5.3548  -5.3285
    -5.1963  -5.0757  -5.0691  -5.0366  -5.0205  -4.9983  -4.9895  -4.9668
    -4.9516  -4.9211  -4.9120  -4.9023  -4.8712  -4.7898  -4.7724  -4.6625
    -4.6132  -4.5803  -4.5645  -4.5423  -4.4754  -4.4196  -4.4024  -4.3963
    -4.3572  -4.3441  -4.3255  -4.3200  -4.2128  -4.2058  -4.1899  -4.1768
    -4.1275  -4.1138  -4.1082  -4.0545  -4.0351  -3.9887  -3.9660  -3.9293
    -3.8560  -3.8272  -3.8100  -3.8056  -3.7850  -3.7580  -3.7463  -3.7118
    -3.6780  -3.6580  -3.6244  -3.6040  -3.5818  -3.5398  -3.5272  -3.5109
    -3.4861  -3.4726  -3.4155  -3.4151  -3.4083  -3.3943  -3.3751  -3.3724
    -3.3325  -3.3278  -3.3245  -3.2804  -3.2614  -3.2370  -3.2275  -3.2066
    -3.2033  -3.1637  -3.1612  -3.1520  -3.1478  -3.1274  -3.1058  -3.1006
    -3.0923  -3.0522  -3.0416  -3.0218  -2.9924  -2.9849  -2.9721  -2.9549
    -2.9515  -2.9348  -2.9073  -2.8977  -2.8885  -2.8550  -2.8536  -2.8493
    -2.7632  -2.7415  -2.7281  -2.7044  -2.6886  -2.6774  -2.6766  -2.6640
    -2.6603  -2.6571  -2.5892  -2.5336  -2.5083  -2.4959  -2.4945  -2.4897
    -2.4629  -2.4393  -2.4213  -2.4082  -2.3616  -2.3406  -2.3345  -2.3245
    -2.2869  -2.2861  -2.2806  -2.2644  -2.2258  -2.1714  -2.1021  -2.0980
    -2.0837  -2.0797  -2.0715  -2.0449  -2.0384  -2.0258  -2.0119  -1.9920
    -1.9794  -1.9691  -1.9396  -1.9240  -1.9176  -1.8952  -1.8355  -1.8046

          k = 0.0000-0.5774 0.0000 (166636 PWs)   bands (ev):

   -20.4537 -20.4537 -20.1336 -20.1336 -19.9724 -19.9724 -19.7994 -19.7994
   -19.6930 -19.6930 -19.4503 -19.4503 -19.3190 -19.3190 -19.2841 -19.2841
   -19.0458 -19.0458 -18.9491 -18.9491 -18.8464 -18.8464 -18.8175 -18.8175
   -18.7767 -18.7767 -18.7300 -18.7300 -18.6740 -18.6740 -18.6432 -18.6432
   -18.6300 -18.6300 -18.5545 -18.5545 -18.4824 -18.4824 -18.4544 -18.4544
   -18.4434 -18.4434 -18.4231 -18.4231 -18.4154 -18.4154 -18.3944 -18.3944
   -18.3091 -18.3091 -18.2978 -18.2978 -18.2584 -18.2584 -18.2170 -18.2170
   -18.1300 -18.1300 -18.0929 -18.0929 -18.0477 -18.0477 -18.0434 -18.0434
   -18.0242 -18.0242 -18.0191 -18.0191 -17.9907 -17.9907 -17.9889 -17.9889
    -8.1381  -8.1381  -7.8136  -7.8136  -7.7697  -7.7697  -7.6972  -7.6972
    -7.6640  -7.6640  -7.6067  -7.6067  -7.5457  -7.5457  -7.3848  -7.3848
    -7.3275  -7.3275  -7.2977  -7.2977  -7.2880  -7.2880  -7.1934  -7.1934
    -7.0810  -7.0810  -7.0613  -7.0613  -6.9501  -6.9501  -6.9482  -6.9482
    -6.7627  -6.7627  -6.7256  -6.7256  -6.5650  -6.5650  -6.5607  -6.5607
    -6.2892  -6.2892  -6.2532  -6.2532  -6.2284  -6.2284  -6.1960  -6.1960
    -6.1246  -6.1246  -6.1039  -6.1039  -5.9166  -5.9166  -5.8596  -5.8596
    -5.7968  -5.7968  -5.7113  -5.7113  -5.6941  -5.6941  -5.6910  -5.6910
    -5.6065  -5.6065  -5.3890  -5.3890  -5.2211  -5.2211  -5.2026  -5.2026
    -5.0993  -5.0993  -5.0517  -5.0517  -4.9769  -4.9769  -4.8791  -4.8791
    -4.8463  -4.8463  -4.7706  -4.7706  -4.6879  -4.6879  -4.6878  -4.6878
    -4.5835  -4.5835  -4.5338  -4.5338  -4.4720  -4.4720  -4.3287  -4.3287
    -4.2633  -4.2633  -4.2372  -4.2372  -4.1986  -4.1986  -4.0605  -4.0605
    -4.0397  -4.0397  -4.0361  -4.0361  -3.9927  -3.9927  -3.8961  -3.8961
    -3.8562  -3.8562  -3.8442  -3.8442  -3.8277  -3.8277  -3.7712  -3.7712
    -3.7243  -3.7243  -3.6450  -3.6450  -3.5920  -3.5920  -3.5692  -3.5692
    -3.5161  -3.5161  -3.5135  -3.5135  -3.4357  -3.4357  -3.3833  -3.3833
    -3.3661  -3.3661  -3.2848  -3.2848  -3.2805  -3.2805  -3.2122  -3.2122
    -3.2103  -3.2103  -3.1750  -3.1750  -3.1566  -3.1566  -3.1350  -3.1350
    -3.0648  -3.0648  -3.0432  -3.0432  -2.9924  -2.9924  -2.9893  -2.9893
    -2.9407  -2.9407  -2.8832  -2.8832  -2.8155  -2.8155  -2.7980  -2.7980
    -2.7899  -2.7899  -2.7218  -2.7218  -2.6708  -2.6708  -2.6534  -2.6534
    -2.6414  -2.6414  -2.5930  -2.5930  -2.5496  -2.5496  -2.5021  -2.5021
    -2.4754  -2.4754  -2.3856  -2.3856  -2.3664  -2.3664  -2.3148  -2.3148
    -2.2833  -2.2833  -2.2386  -2.2386  -2.2226  -2.2226  -2.1912  -2.1912
    -2.1419  -2.1419  -2.0639  -2.0639  -2.0611  -2.0611  -1.9734  -1.9734
    -1.9646  -1.9646  -1.9255  -1.9255  -1.9047  -1.9047  -1.8692  -1.8692

          k = 0.2500 0.4330 0.0000 (166642 PWs)   bands (ev):

   -20.5193 -20.2637 -20.2637 -20.1958 -19.9555 -19.9554 -19.8545 -19.6609
   -19.6458 -19.6454 -19.6010 -19.4368 -19.3637 -19.3561 -19.2444 -19.2430
   -19.0923 -19.0168 -18.9395 -18.9337 -18.9197 -18.8390 -18.8227 -18.8154
   -18.8101 -18.7365 -18.7121 -18.7116 -18.6999 -18.6292 -18.6209 -18.6178
   -18.6020 -18.5763 -18.5760 -18.5621 -18.5391 -18.5331 -18.5203 -18.4499
   -18.4299 -18.4288 -18.4278 -18.4182 -18.4159 -18.4013 -18.3600 -18.3493
   -18.3410 -18.3268 -18.3243 -18.2788 -18.2749 -18.2345 -18.2286 -18.2010
   -18.1640 -18.1277 -18.0880 -18.0813 -18.0770 -18.0493 -18.0398 -18.0361
   -18.0203 -18.0147 -18.0134 -18.0111 -17.9986 -17.9912 -17.9895 -17.9861
    -8.1526  -8.0243  -8.0131  -7.8267  -7.7793  -7.7637  -7.7276  -7.7033
    -7.6469  -7.6376  -7.5577  -7.5289  -7.5012  -7.4635  -7.4556  -7.4043
    -7.3516  -7.3433  -7.3358  -7.3251  -7.2570  -7.2444  -7.2402  -7.1486
    -7.1433  -7.1202  -7.0603  -6.9842  -6.9720  -6.9591  -6.9070  -6.8027
    -6.7795  -6.7599  -6.7479  -6.7077  -6.6466  -6.5829  -6.5594  -6.5118
    -6.4043  -6.3099  -6.3088  -6.2965  -6.2626  -6.2219  -6.1880  -6.1622
    -6.1437  -6.0741  -6.0677  -6.0228  -5.9501  -5.9478  -5.9137  -5.8763
    -5.8116  -5.7720  -5.7311  -5.7162  -5.7118  -5.6709  -5.5924  -5.5500
    -5.4982  -5.4633  -5.4438  -5.4280  -5.4064  -5.3741  -5.2903  -5.2444
    -5.2037  -5.1627  -5.1077  -5.0471  -4.9757  -4.9182  -4.8818  -4.8274
    -4.8180  -4.8052  -4.7791  -4.7340  -4.6850  -4.6654  -4.6215  -4.5808
    -4.5739  -4.5253  -4.5177  -4.4443  -4.4031  -4.4001  -4.3810  -4.3167
    -4.2938  -4.2640  -4.2518  -4.2080  -4.1769  -4.1450  -4.1425  -4.1417
    -4.0300  -4.0142  -4.0094  -3.9828  -3.9667  -3.9593  -3.9407  -3.9396
    -3.8788  -3.8763  -3.8522  -3.8460  -3.8084  -3.7784  -3.7706  -3.7596
    -3.7531  -3.6601  -3.6513  -3.6455  -3.6444  -3.6220  -3.6045  -3.6001
    -3.5687  -3.5570  -3.5508  -3.4864  -3.4765  -3.4582  -3.4354  -3.3976
    -3.3846  -3.3636  -3.3573  -3.3260  -3.3164  -3.2750  -3.2609  -3.2372
    -3.2233  -3.2177  -3.2010  -3.1813  -3.1754  -3.1336  -3.0831  -3.0706
    -3.0618  -3.0212  -3.0166  -3.0126  -2.9986  -2.9918  -2.9693  -2.9311
    -2.9309  -2.9185  -2.8858  -2.8764  -2.8553  -2.8326  -2.8275  -2.7549
    -2.7543  -2.7416  -2.7373  -2.6833  -2.6811  -2.6796  -2.6452  -2.6424
    -2.6244  -2.6158  -2.6158  -2.5969  -2.5595  -2.5588  -2.5248  -2.4703
    -2.4575  -2.4573  -2.4214  -2.4128  -2.3647  -2.3388  -2.3345  -2.3040
    -2.2835  -2.2828  -2.2758  -2.2642  -2.2536  -2.2222  -2.2050  -2.1621
    -2.1309  -2.1231  -2.1154  -2.1024  -2.0659  -2.0241  -2.0096  -1.9826
    -1.9518  -1.9487  -1.9476  -1.8908  -1.8886  -1.8834  -1.8636  -1.8216

     highest occupied level (ev):    -1.7987

!    total energy              =   -4910.92081449 Ry
     total all-electron energy =    -34162.750584 Ry
     estimated scf accuracy    <          3.5E-10 Ry

     The total energy is the sum of the following terms:
     one-electron contribution =  -80957.78208814 Ry
     hartree contribution      =   40715.00297623 Ry
     xc contribution           =    -675.82003574 Ry
     ewald contribution        =   38355.61577148 Ry
     one-center paw contrib.   =   -2347.93743833 Ry

     convergence has been achieved in  11 iterations

     negative rho (up, down):  4.786E-03 0.000E+00

     Forces acting on atoms (cartesian axes, Ry/au):

     atom    1 type  1   force =    -0.00000000    0.00000000    0.00663641
     atom    2 type  1   force =    -0.00000000   -0.00000000   -0.00213054
     atom    3 type  1   force =     0.00000000   -0.00000000    0.00304404
     atom    4 type  1   force =     0.00000000   -0.00000000    0.00197579
     atom    5 type  1   force =     0.00000000    0.00000000    0.00674014
     atom    6 type  1   force =     0.00000000   -0.00000000    0.00179407
     atom    7 type  1   force =     0.00000000   -0.00000000   -0.00179407
     atom    8 type  1   force =     0.00000000   -0.00000000   -0.00674014
     atom    9 type  1   force =    -0.00000000   -0.00000000   -0.00197579
     atom   10 type  1   force =     0.00000000    0.00000000   -0.00304404
     atom   11 type  1   force =    -0.00000000   -0.00000000    0.00213054
     atom   12 type  1   force =     0.00000000    0.00000000   -0.00663641
     atom   13 type  2   force =    -0.00109161   -0.00043843    0.00236551
     atom   14 type  2   force =     0.00653364   -0.00702662    0.00162679
     atom   15 type  2   force =     0.00016611    0.00116458    0.00236551
     atom   16 type  2   force =     0.00092550   -0.00072615    0.00236551
     atom   17 type  2   force =    -0.00935205   -0.00214498    0.00162679
     atom   18 type  2   force =     0.00281842    0.00917161    0.00162679
     atom   19 type  2   force =     0.00864246   -0.00861432   -0.00884501
     atom   20 type  2   force =     0.01178145    0.00317743    0.00884501
     atom   21 type  2   force =    -0.01178145   -0.00317743   -0.00884502
     atom   22 type  2   force =     0.00313899    0.01179175   -0.00884501
     atom   23 type  2   force =    -0.00313899   -0.01179175    0.00884501
     atom   24 type  2   force =    -0.00864246    0.00861432    0.00884502
     atom   25 type  2   force =    -0.00281842   -0.00917161   -0.00162679
     atom   26 type  2   force =    -0.00016611   -0.00116458   -0.00236551
     atom   27 type  2   force =    -0.00653364    0.00702663   -0.00162679
     atom   28 type  2   force =     0.00935205    0.00214498   -0.00162679
     atom   29 type  2   force =    -0.00092550    0.00072614   -0.00236551
     atom   30 type  2   force =     0.00109161    0.00043843   -0.00236551
     atom   31 type  1   force =     0.00000000   -0.00000000    0.00663641
     atom   32 type  1   force =    -0.00000000   -0.00000000   -0.00213054
     atom   33 type  1   force =     0.00000000   -0.00000000    0.00304404
     atom   34 type  1   force =    -0.00000000    0.00000000    0.00197579
     atom   35 type  1   force =    -0.00000000   -0.00000000    0.00674013
     atom   36 type  1   force =    -0.00000000   -0.00000000    0.00179407
     atom   37 type  1   force =     0.00000000    0.00000000   -0.00179407
     atom   38 type  1   force =     0.00000000    0.00000000   -0.00674013
     atom   39 type  1   force =     0.00000000   -0.00000000   -0.00197579
     atom   40 type  1   force =    -0.00000000    0.00000000   -0.00304404
     atom   41 type  1   force =    -0.00000000    0.00000000    0.00213054
     atom   42 type  1   force =     0.00000000    0.00000000   -0.00663641
     atom   43 type  2   force =    -0.00109161   -0.00043843    0.00236551
     atom   44 type  2   force =     0.00653364   -0.00702662    0.00162679
     atom   45 type  2   force =     0.00016611    0.00116458    0.00236551
     atom   46 type  2   force =     0.00092550   -0.00072615    0.00236551
     atom   47 type  2   force =    -0.00935205   -0.00214498    0.00162679
     atom   48 type  2   force =     0.00281842    0.00917161    0.00162679
     atom   49 type  2   force =     0.00864246   -0.00861432   -0.00884501
     atom   50 type  2   force =     0.01178145    0.00317743    0.00884501
     atom   51 type  2   force =    -0.01178145   -0.00317743   -0.00884501
     atom   52 type  2   force =     0.00313899    0.01179175   -0.00884502
     atom   53 type  2   force =    -0.00313899   -0.01179175    0.00884501
     atom   54 type  2   force =    -0.00864246    0.00861432    0.00884501
     atom   55 type  2   force =    -0.00281842   -0.00917161   -0.00162679
     atom   56 type  2   force =    -0.00016611   -0.00116458   -0.00236551
     atom   57 type  2   force =    -0.00653364    0.00702662   -0.00162679
     atom   58 type  2   force =     0.00935205    0.00214498   -0.00162679
     atom   59 type  2   force =    -0.00092550    0.00072615   -0.00236551
     atom   60 type  2   force =     0.00109161    0.00043843   -0.00236551
     atom   61 type  1   force =     0.00000000    0.00000000    0.00663641
     atom   62 type  1   force =     0.00000000   -0.00000000   -0.00213054
     atom   63 type  1   force =    -0.00000000    0.00000000    0.00304404
     atom   64 type  1   force =     0.00000000    0.00000000    0.00197579
     atom   65 type  1   force =    -0.00000000    0.00000000    0.00674013
     atom   66 type  1   force =     0.00000000   -0.00000000    0.00179407
     atom   67 type  1   force =     0.00000000    0.00000000   -0.00179407
     atom   68 type  1   force =     0.00000000   -0.00000000   -0.00674013
     atom   69 type  1   force =     0.00000000   -0.00000000   -0.00197579
     atom   70 type  1   force =     0.00000000   -0.00000000   -0.00304404
     atom   71 type  1   force =     0.00000000    0.00000000    0.00213054
     atom   72 type  1   force =    -0.00000000    0.00000000   -0.00663641
     atom   73 type  2   force =    -0.00109161   -0.00043843    0.00236551
     atom   74 type  2   force =     0.00653364   -0.00702662    0.00162679
     atom   75 type  2   force =     0.00016611    0.00116458    0.00236551
     atom   76 type  2   force =     0.00092550   -0.00072615    0.00236551
     atom   77 type  2   force =    -0.00935205   -0.00214498    0.00162679
     atom   78 type  2   force =     0.00281842    0.00917161    0.00162679
     atom   79 type  2   force =     0.00864246   -0.00861432   -0.00884501
     atom   80 type  2   force =     0.01178145    0.00317743    0.00884501
     atom   81 type  2   force =    -0.01178145   -0.00317743   -0.00884501
     atom   82 type  2   force =     0.00313899    0.01179175   -0.00884501
     atom   83 type  2   force =    -0.00313899   -0.01179175    0.00884502
     atom   84 type  2   force =    -0.00864246    0.00861432    0.00884501
     atom   85 type  2   force =    -0.00281842   -0.00917161   -0.00162679
     atom   86 type  2   force =    -0.00016611   -0.00116458   -0.00236551
     atom   87 type  2   force =    -0.00653364    0.00702662   -0.00162679
     atom   88 type  2   force =     0.00935205    0.00214498   -0.00162679
     atom   89 type  2   force =    -0.00092550    0.00072615   -0.00236551
     atom   90 type  2   force =     0.00109161    0.00043843   -0.00236551
     atom   91 type  1   force =    -0.00000000   -0.00000000    0.00663641
     atom   92 type  1   force =     0.00000000    0.00000000   -0.00213054
     atom   93 type  1   force =     0.00000000    0.00000000    0.00304404
     atom   94 type  1   force =     0.00000000    0.00000000    0.00197579
     atom   95 type  1   force =     0.00000000    0.00000000    0.00674013
     atom   96 type  1   force =    -0.00000000    0.00000000    0.00179407
     atom   97 type  1   force =    -0.00000000    0.00000000   -0.00179407
     atom   98 type  1   force =    -0.00000000   -0.00000000   -0.00674013
     atom   99 type  1   force =    -0.00000000    0.00000000   -0.00197579
     atom  100 type  1   force =    -0.00000000   -0.00000000   -0.00304404
     atom  101 type  1   force =     0.00000000    0.00000000    0.00213054
     atom  102 type  1   force =     0.00000000   -0.00000000   -0.00663641
     atom  103 type  2   force =    -0.00109161   -0.00043843    0.00236551
     atom  104 type  2   force =     0.00653364   -0.00702663    0.00162679
     atom  105 type  2   force =     0.00016611    0.00116458    0.00236551
     atom  106 type  2   force =     0.00092550   -0.00072614    0.00236551
     atom  107 type  2   force =    -0.00935205   -0.00214498    0.00162679
     atom  108 type  2   force =     0.00281842    0.00917161    0.00162679
     atom  109 type  2   force =     0.00864246   -0.00861432   -0.00884502
     atom  110 type  2   force =     0.01178145    0.00317743    0.00884502
     atom  111 type  2   force =    -0.01178145   -0.00317743   -0.00884501
     atom  112 type  2   force =     0.00313899    0.01179175   -0.00884501
     atom  113 type  2   force =    -0.00313899   -0.01179175    0.00884501
     atom  114 type  2   force =    -0.00864246    0.00861432    0.00884501
     atom  115 type  2   force =    -0.00281842   -0.00917161   -0.00162679
     atom  116 type  2   force =    -0.00016611   -0.00116458   -0.00236551
     atom  117 type  2   force =    -0.00653364    0.00702662   -0.00162679
     atom  118 type  2   force =     0.00935205    0.00214498   -0.00162679
     atom  119 type  2   force =    -0.00092550    0.00072615   -0.00236551
     atom  120 type  2   force =     0.00109161    0.00043843   -0.00236551

     Total force =     0.093674     Total SCF correction =     0.000084


     Computing stress (Cartesian axis) and pressure


     negative rho (up, down):  4.786E-03 0.000E+00
          total   stress  (Ry/bohr**3)                   (kbar)     P=        7.05
   0.00012468   0.00000000   0.00000000           18.34        0.00        0.00
   0.00000000   0.00012468   0.00000000            0.00       18.34        0.00
   0.00000000   0.00000000  -0.00010552            0.00        0.00      -15.52

     Energy error            =      2.2E-02 Ry
     Gradient error          =      1.2E-02 Ry/Bohr

     number of scf cycles    =   6
     number of bfgs steps    =   5

     energy             old  =   -4910.8991803862 Ry
     energy             new  =   -4910.9208144933 Ry

     CASE: energy            _new < energy            _old

     new trust radius        =       0.0411383128 bohr
     new conv_thr            =       0.0000000012 Ry


ATOMIC_POSITIONS (angstrom)
Al              -0.0000000006        2.7741837621       24.0437598577
Al               2.4025136107        1.3870918803       22.1107261038
Al               0.0000000000       -0.0000000000       21.6439378172
Al               0.0000000000        2.7741837611       19.9289948820
Al               0.0000000000       -0.0000000000       15.0548752938
Al              -0.0000000064        2.7741837543       14.0280044131
Al               2.4025136019        1.3870918827       25.3207553369
Al               0.0000000000       -0.0000000000       24.2938844562
Al               2.4025136110        1.3870918805       19.4197648680
Al               0.0000000000       -0.0000000000       17.7048219328
Al               0.0000000001        2.7741837608       17.2380336462
Al               2.4025136115        1.3870918816       15.3049998923
O                0.9318944065        1.3810458470       20.7773420188
O                1.6493548562        2.8684537617       23.0037787256
O                3.1325872236        2.6637084919       20.7773420209
O                3.1430592514        0.1165212707       20.7773420179
O                4.0619900073        1.2986655512       23.0037787226
O                1.4961959667       -0.0058436717       23.0037787235
O               -1.5171340317        2.8480941988       25.2022787151
O                1.5799382996        0.1101704962       14.1464810329
O                0.8225753103        4.0511051430       25.2022787217
O                0.6945586647        1.4233519556       25.2022787171
O                1.7079549318        2.7379236842       14.1464810349
O                3.9196476430        1.3131814341       14.1464810283
O                3.3088312537        0.0058436746       16.3449810244
O               -0.7300736136        1.4975671470       18.5714177312
O                0.7531587515        1.2928218800       16.3449810265
O                3.1455508247        2.8626100867       16.3449810245
O               -0.7405456389        4.0447543595       18.5714177291
O                1.4706192036        2.7802297947       18.5714177321
Al              -2.4025136078        6.9354593995       24.0437598577
Al               0.0000000000        5.5483675200       22.1107261015
Al              -2.4025136102        4.1612756403       21.6439378197
Al              -2.4025136090        6.9354593994       19.9289948820
Al              -2.4025136114        4.1612756426       15.0548752887
Al              -2.4025136117        6.9354594084       14.0280044131
Al               0.0000000000        5.5483675200       25.3207553419
Al              -2.4025136086        4.1612756374       24.2938844613
Al               0.0000000000        5.5483675200       19.4197648644
Al              -2.4025136098        4.1612756397       17.7048219303
Al              -2.4025136094        6.9354593995       17.2380336462
Al               0.0000000000        5.5483675200       15.3049998942
O               -1.4706192036        5.5423214844       20.7773420173
O               -0.7531587530        7.0297293996       23.0037787255
O                0.7300736113        6.8249841245       20.7773420173
O                0.7405456422        4.2777969112       20.7773420173
O                1.6594763953        5.4599411933       23.0037787255
O               -0.9063176423        4.1554319671       23.0037787255
O               -3.9196476351        7.0093698506       25.2022787171
O               -0.8225753070        4.2714461264       14.1464810375
O               -1.5799383065        8.2123807854       25.2022787151
O               -1.7079549373        5.5846275911       25.2022787217
O               -0.6945586749        6.8991993163       14.1464810375
O                1.5171340319        5.4744570773       14.1464810375
O                0.9063176451        4.1671193135       16.3449810274
O               -3.1325872222        5.6588427860       18.5714177321
O               -1.6493548578        5.4540975176       16.3449810274
O                0.7430372127        7.0238857288       16.3449810274
O               -3.1430592499        8.2060300001       18.5714177312
O               -0.9318944075        6.9415054324       18.5714177291
Al               4.8050272200        2.7741837600       24.0437598558
Al               7.2075408294        1.3870918805       22.1107261038
Al               4.8050272204        0.0000000001       21.6439378197
Al               4.8050272200        2.7741837600       19.9289948856
Al               4.8050272229       -0.0000000001       15.0548752887
Al               4.8050272200        2.7741837600       14.0280044081
Al               7.2075408317        1.3870918716       25.3207553369
Al               4.8050272171        0.0000000001       24.2938844613
Al               7.2075408290        1.3870918806       19.4197648680
Al               4.8050272196       -0.0000000001       17.7048219303
Al               4.8050272200        2.7741837600       17.2380336485
Al               7.2075408278        1.3870918805       15.3049998923
O                5.7369216275        1.3810458476       20.7773420209
O                6.4543820778        2.8684537624       23.0037787226
O                7.9376144422        2.6637084940       20.7773420179
O                7.9480864699        0.1165212699       20.7773420188
O                8.8670172248        1.2986655518       23.0037787235
O                6.3012231863       -0.0058436746       23.0037787256
O                3.2878931881        2.8480942027       25.2022787125
O                6.3849655265        0.1101704846       14.1464810349
O                5.6276025270        4.0511051436       25.2022787125
O                5.4995858949        1.4233519537       25.2022787125
O                6.5129821573        2.7379236889       14.1464810283
O                8.7246748551        1.3131814294       14.1464810329
O                8.1138584733        0.0058436717       16.3449810265
O                4.0749536087        1.4975671455       18.5714177327
O                5.5581859730        1.2928218804       16.3449810245
O                7.9505780425        2.8626100871       16.3449810244
O                4.0644815778        4.0447543588       18.5714177327
O                6.2756464236        2.7802297956       18.5714177327
Al               2.4025136085        6.9354593984       24.0437598577
Al               4.8050272199        5.5483675192       22.1107261038
Al               2.4025136099        4.1612756397       21.6439378197
Al               2.4025136090        6.9354593995       19.9289948820
Al               2.4025136084        4.1612756375       15.0548752887
Al               2.4025136181        6.9354593973       14.0280044131
Al               4.8050272264        5.5483675257       25.3207553369
Al               2.4025136116        4.1612756425       24.2938844613
Al               4.8050272200        5.5483675189       19.4197648680
Al               2.4025136101        4.1612756403       17.7048219303
Al               2.4025136093        6.9354593997       17.2380336462
Al               4.8050272206        5.5483675179       15.3049998923
O                3.3344080164        5.5423214853       20.7773420179
O                4.0518684685        7.0297294000       23.0037787235
O                5.5351008336        6.8249841230       20.7773420188
O                5.5455728589        4.2777969105       20.7773420209
O                6.4645036175        5.4599411929       23.0037787256
O                3.8987095749        4.1554319665       23.0037787226
O                0.8853795770        7.0093698459       25.2022787217
O                3.9824519097        4.2714461270       14.1464810283
O                3.2250889204        8.2123807738       25.2022787171
O                3.0970722882        5.5846275958       25.2022787151
O                4.1104685553        6.8991993144       14.1464810329
O                6.3221612517        5.4744570812       14.1464810349
O                5.7113448623        4.1671193129       16.3449810245
O                1.6724399964        5.6588427881       18.5714177291
O                3.1556723638        5.4540975183       16.3449810244
O                5.5480644352        7.0238857282       16.3449810265
O                1.6619679686        8.2060299993       18.5714177321
O                3.8731328135        6.9415054330       18.5714177312



     Writing config-only to output data dir ./tmp/al2o3.save/ :
     XML data file
     NEW-OLD atomic charge density approx. for the potential

     negative rho (up, down):  5.125E-03 0.000E+00

     total cpu time spent up to now is    13790.5 secs

     Self-consistent Calculation

     iteration #  1     ecut=    60.00 Ry     beta= 0.30
     Davidson diagonalization with overlap
     ethr =  1.00E-06,  avg # of iterations =  6.5

     negative rho (up, down):  4.995E-03 0.000E+00

     total cpu time spent up to now is    13968.8 secs

     total energy              =   -4910.93177417 Ry
     estimated scf accuracy    <       0.00603781 Ry

     iteration #  2     ecut=    60.00 Ry     beta= 0.30
     Davidson diagonalization with overlap
     ethr =  1.05E-06,  avg # of iterations =  2.0

     negative rho (up, down):  4.851E-03 0.000E+00

     total cpu time spent up to now is    14038.7 secs

     total energy              =   -4910.93118653 Ry
     estimated scf accuracy    <       0.00180892 Ry

     iteration #  3     ecut=    60.00 Ry     beta= 0.30
     Davidson diagonalization with overlap
     ethr =  3.14E-07,  avg # of iterations =  2.0

     negative rho (up, down):  4.826E-03 0.000E+00

     total cpu time spent up to now is    14126.7 secs

     total energy              =   -4910.93162730 Ry
     estimated scf accuracy    <       0.00014822 Ry

     iteration #  4     ecut=    60.00 Ry     beta= 0.30
     Davidson diagonalization with overlap
     ethr =  2.57E-08,  avg # of iterations =  2.0

     negative rho (up, down):  4.796E-03 0.000E+00

     total cpu time spent up to now is    14214.8 secs

     total energy              =   -4910.93166562 Ry
     estimated scf accuracy    <       0.00003856 Ry

     iteration #  5     ecut=    60.00 Ry     beta= 0.30
     Davidson diagonalization with overlap
     ethr =  6.70E-09,  avg # of iterations =  2.2

     negative rho (up, down):  4.790E-03 0.000E+00

     total cpu time spent up to now is    14301.9 secs

     total energy              =   -4910.93167314 Ry
     estimated scf accuracy    <       0.00000512 Ry

     iteration #  6     ecut=    60.00 Ry     beta= 0.30
     Davidson diagonalization with overlap
     ethr =  8.89E-10,  avg # of iterations =  4.0

     negative rho (up, down):  4.790E-03 0.000E+00

     total cpu time spent up to now is    14399.3 secs

     total energy              =   -4910.93167225 Ry
     estimated scf accuracy    <       0.00000592 Ry

     iteration #  7     ecut=    60.00 Ry     beta= 0.30
     Davidson diagonalization with overlap
     ethr =  8.89E-10,  avg # of iterations =  2.2

     negative rho (up, down):  4.791E-03 0.000E+00

     total cpu time spent up to now is    14488.1 secs

     total energy              =   -4910.93167355 Ry
     estimated scf accuracy    <       0.00000018 Ry

     iteration #  8     ecut=    60.00 Ry     beta= 0.30
     Davidson diagonalization with overlap
     ethr =  3.09E-11,  avg # of iterations =  5.0

     negative rho (up, down):  4.793E-03 0.000E+00

     total cpu time spent up to now is    14596.7 secs

     total energy              =   -4910.93167362 Ry
     estimated scf accuracy    <       0.00000009 Ry

     iteration #  9     ecut=    60.00 Ry     beta= 0.30
     Davidson diagonalization with overlap
     ethr =  1.52E-11,  avg # of iterations =  2.0

     negative rho (up, down):  4.794E-03 0.000E+00

     total cpu time spent up to now is    14668.0 secs

     total energy              =   -4910.93167361 Ry
     estimated scf accuracy    <       0.00000006 Ry

     iteration # 10     ecut=    60.00 Ry     beta= 0.30
     Davidson diagonalization with overlap
     ethr =  1.01E-11,  avg # of iterations =  4.2

     negative rho (up, down):  4.795E-03 0.000E+00

     total cpu time spent up to now is    14762.3 secs

     total energy              =   -4910.93167362 Ry
     estimated scf accuracy    <       0.00000001 Ry

     iteration # 11     ecut=    60.00 Ry     beta= 0.30
     Davidson diagonalization with overlap
     ethr =  2.11E-12,  avg # of iterations =  5.2

     negative rho (up, down):  4.795E-03 0.000E+00

     total cpu time spent up to now is    14867.5 secs

     total energy              =   -4910.93167363 Ry
     estimated scf accuracy    <          5.5E-09 Ry

     iteration # 12     ecut=    60.00 Ry     beta= 0.30
     Davidson diagonalization with overlap
     ethr =  9.59E-13,  avg # of iterations =  2.2

     negative rho (up, down):  4.797E-03 0.000E+00

     total cpu time spent up to now is    14943.1 secs

     End of self-consistent calculation

          k = 0.0000 0.0000 0.0000 (166875 PWs)   bands (ev):

   -20.7618 -20.4428 -20.0827 -19.8493 -19.8493 -19.8493 -19.7803 -19.7803
   -19.7803 -19.5949 -19.5949 -19.5949 -19.5394 -19.4079 -19.4079 -19.4079
   -19.1560 -19.1560 -19.1560 -19.1516 -19.1516 -19.1516 -18.9339 -18.8371
   -18.8371 -18.8371 -18.7602 -18.7602 -18.7602 -18.7228 -18.7061 -18.7061
   -18.7061 -18.5522 -18.5522 -18.5522 -18.4558 -18.4558 -18.4558 -18.4427
   -18.4427 -18.4427 -18.4110 -18.4110 -18.3181 -18.3181 -18.3181 -18.2970
   -18.2970 -18.2880 -18.2880 -18.2880 -18.2694 -18.2694 -18.2694 -18.2205
   -18.2205 -18.2038 -18.2038 -18.1832 -18.1832 -18.1832 -18.0938 -18.0938
   -18.0938 -18.0631 -18.0631 -18.0548 -18.0548 -18.0548 -18.0520 -18.0520
    -8.3514  -8.1324  -8.1324  -8.1324  -8.0489  -8.0489  -8.0489  -7.7765
    -7.7765  -7.7765  -7.6633  -7.6045  -7.6045  -7.6045  -7.4688  -7.4360
    -7.3426  -7.3426  -7.3426  -7.1670  -7.1670  -7.1670  -7.1421  -7.1421
    -7.0213  -6.9724  -6.9724  -6.9724  -6.8391  -6.8391  -6.8391  -6.7810
    -6.7810  -6.6631  -6.5978  -6.5978  -6.5978  -6.5793  -6.5793  -6.5793
    -6.4559  -6.4507  -6.4507  -6.4507  -6.2929  -6.2929  -5.9568  -5.8865
    -5.8865  -5.8649  -5.8649  -5.8649  -5.7523  -5.7523  -5.7523  -5.7413
    -5.7413  -5.7034  -5.7034  -5.7034  -5.6172  -5.6172  -5.5812  -5.5690
    -5.5690  -5.5690  -5.4996  -5.4996  -5.4996  -5.4606  -5.4606  -5.4606
    -5.3717  -5.3241  -5.3241  -5.3241  -5.2375  -5.2185  -5.2185  -5.2185
    -5.1166  -5.1166  -5.1166  -4.9762  -4.9762  -4.9762  -4.9649  -4.7936
    -4.7936  -4.7936  -4.7268  -4.6272  -4.6272  -4.6272  -4.5358  -4.4039
    -4.3335  -4.3335  -4.3335  -4.2168  -4.2168  -4.2168  -4.1030  -4.1030
    -4.1030  -4.0191  -4.0191  -4.0191  -4.0085  -4.0085  -4.0085  -3.9928
    -3.9928  -3.9910  -3.9910  -3.9910  -3.9123  -3.9123  -3.7640  -3.7152
    -3.7152  -3.7152  -3.6950  -3.6950  -3.6950  -3.4986  -3.4986  -3.4986
    -3.4550  -3.4550  -3.4550  -3.4069  -3.4069  -3.4069  -3.3554  -3.3554
    -3.3079  -3.3079  -3.2787  -3.2787  -3.2787  -3.2321  -3.2321  -3.2321
    -3.2253  -3.2253  -3.2253  -3.1689  -3.1689  -3.1689  -3.1324  -3.1324
    -3.1324  -3.0261  -3.0261  -3.0261  -2.9593  -2.9593  -2.9593  -2.9320
    -2.9320  -2.9320  -2.9264  -2.9264  -2.9264  -2.9197  -2.9197  -2.9079
    -2.9079  -2.9004  -2.9004  -2.9004  -2.8313  -2.8313  -2.8313  -2.8156
    -2.7265  -2.7265  -2.7265  -2.5545  -2.5545  -2.5545  -2.5340  -2.5340
    -2.5340  -2.4282  -2.4282  -2.4282  -2.3915  -2.3915  -2.3263  -2.3263
    -2.3263  -2.3145  -2.3145  -2.2033  -2.1882  -2.1882  -2.1196  -2.1196
    -2.1196  -2.0791  -2.0791  -2.0791  -2.0539  -2.0539  -2.0044  -2.0044
    -2.0044  -1.9461  -1.9461  -1.9461  -1.8443  -1.8443  -1.8366  -1.8366

          k = 0.0000 0.2887 0.0000 (166721 PWs)   bands (ev):

   -20.6928 -20.3765 -20.1822 -20.0224 -19.9594 -19.9594 -19.8966 -19.7160
   -19.7142 -19.6163 -19.5654 -19.5597 -19.4916 -19.3777 -19.3719 -19.3485
   -19.1531 -19.1438 -19.0418 -19.0414 -19.0253 -19.0089 -18.9035 -18.8977
   -18.8921 -18.8325 -18.8008 -18.7759 -18.7081 -18.6808 -18.6627 -18.6482
   -18.6345 -18.6084 -18.5975 -18.5409 -18.5377 -18.5325 -18.5096 -18.5059
   -18.4795 -18.4594 -18.4460 -18.4260 -18.3767 -18.3767 -18.3596 -18.3586
   -18.3402 -18.3043 -18.3027 -18.2917 -18.2827 -18.2693 -18.2432 -18.2340
   -18.2284 -18.2232 -18.1817 -18.1466 -18.1323 -18.1100 -18.1001 -18.0931
   -18.0712 -18.0592 -18.0509 -18.0478 -18.0458 -18.0454 -18.0414 -18.0311
    -8.2953  -8.1432  -8.0352  -8.0167  -7.9426  -7.9222  -7.8989  -7.7752
    -7.7304  -7.6501  -7.6419  -7.6050  -7.5299  -7.5278  -7.5241  -7.5031
    -7.4848  -7.4713  -7.4050  -7.3193  -7.1627  -7.1586  -7.1288  -7.1207
    -7.0926  -7.0854  -7.0666  -6.9886  -6.9436  -6.8619  -6.8276  -6.7766
    -6.7624  -6.7213  -6.6988  -6.6858  -6.6527  -6.6201  -6.5864  -6.4867
    -6.4832  -6.4785  -6.4755  -6.4745  -6.2562  -6.1783  -6.0925  -6.0789
    -6.0675  -5.9990  -5.9839  -5.9468  -5.9465  -5.8682  -5.8397  -5.8355
    -5.8348  -5.7868  -5.7674  -5.7580  -5.7458  -5.6567  -5.6370  -5.6214
    -5.5828  -5.5575  -5.5461  -5.5062  -5.4880  -5.4588  -5.3988  -5.3984
    -5.2367  -5.1634  -5.1063  -5.0843  -5.0366  -5.0329  -5.0329  -5.0030
    -4.9941  -4.9711  -4.9518  -4.9291  -4.9194  -4.8362  -4.8209  -4.7131
    -4.6695  -4.6171  -4.5999  -4.5852  -4.5239  -4.4566  -4.4376  -4.4343
    -4.3988  -4.3803  -4.3598  -4.3525  -4.2497  -4.2467  -4.2347  -4.2096
    -4.1717  -4.1466  -4.1418  -4.0979  -4.0656  -4.0141  -4.0137  -3.9714
    -3.8962  -3.8655  -3.8541  -3.8365  -3.8212  -3.8013  -3.7795  -3.7757
    -3.7204  -3.7068  -3.6818  -3.6490  -3.6337  -3.5828  -3.5793  -3.5478
    -3.5382  -3.5231  -3.4586  -3.4557  -3.4397  -3.4301  -3.4196  -3.4185
    -3.3708  -3.3661  -3.3624  -3.3237  -3.3112  -3.2830  -3.2663  -3.2470
    -3.2447  -3.2068  -3.2028  -3.1987  -3.1927  -3.1639  -3.1426  -3.1372
    -3.1347  -3.0820  -3.0817  -3.0600  -3.0335  -3.0270  -3.0141  -3.0028
    -2.9885  -2.9702  -2.9431  -2.9359  -2.9176  -2.8963  -2.8913  -2.8786
    -2.8002  -2.7793  -2.7790  -2.7392  -2.7333  -2.7128  -2.7090  -2.6997
    -2.6985  -2.6969  -2.6278  -2.5746  -2.5488  -2.5374  -2.5366  -2.5266
    -2.5000  -2.4772  -2.4641  -2.4491  -2.4064  -2.3711  -2.3699  -2.3584
    -2.3262  -2.3252  -2.3224  -2.3052  -2.2640  -2.2048  -2.1366  -2.1280
    -2.1120  -2.1109  -2.1098  -2.0771  -2.0722  -2.0585  -2.0500  -2.0174
    -2.0070  -1.9970  -1.9698  -1.9530  -1.9464  -1.9292  -1.8725  -1.8430

          k = 0.0000-0.5774 0.0000 (166636 PWs)   bands (ev):

   -20.4922 -20.4922 -20.1849 -20.1849 -20.0104 -20.0104 -19.8507 -19.8507
   -19.7401 -19.7401 -19.4945 -19.4945 -19.3663 -19.3663 -19.3238 -19.3238
   -19.0966 -19.0966 -19.0052 -19.0052 -18.8846 -18.8846 -18.8605 -18.8605
   -18.8236 -18.8236 -18.7644 -18.7644 -18.7204 -18.7204 -18.6972 -18.6972
   -18.6758 -18.6758 -18.5949 -18.5949 -18.5257 -18.5257 -18.4924 -18.4924
   -18.4822 -18.4822 -18.4672 -18.4672 -18.4505 -18.4505 -18.4399 -18.4399
   -18.3561 -18.3561 -18.3433 -18.3433 -18.2960 -18.2960 -18.2625 -18.2625
   -18.1672 -18.1672 -18.1320 -18.1320 -18.0902 -18.0902 -18.0808 -18.0808
   -18.0622 -18.0622 -18.0580 -18.0580 -18.0315 -18.0315 -18.0277 -18.0277
    -8.1728  -8.1728  -7.8510  -7.8510  -7.8065  -7.8065  -7.7337  -7.7337
    -7.7020  -7.7020  -7.6465  -7.6465  -7.5900  -7.5900  -7.4275  -7.4275
    -7.3666  -7.3666  -7.3472  -7.3472  -7.3242  -7.3242  -7.2388  -7.2388
    -7.1300  -7.1300  -7.1058  -7.1058  -7.0024  -7.0024  -6.9944  -6.9944
    -6.8148  -6.8148  -6.7823  -6.7823  -6.6062  -6.6062  -6.6048  -6.6048
    -6.3359  -6.3359  -6.2987  -6.2987  -6.2732  -6.2732  -6.2378  -6.2378
    -6.1738  -6.1738  -6.1448  -6.1448  -5.9571  -5.9571  -5.9038  -5.9038
    -5.8370  -5.8370  -5.7474  -5.7474  -5.7340  -5.7340  -5.7327  -5.7327
    -5.6494  -5.6494  -5.4330  -5.4330  -5.2633  -5.2633  -5.2419  -5.2419
    -5.1364  -5.1364  -5.0951  -5.0951  -5.0312  -5.0312  -4.9428  -4.9428
    -4.8925  -4.8925  -4.8069  -4.8069  -4.7309  -4.7309  -4.7249  -4.7249
    -4.6247  -4.6247  -4.5621  -4.5621  -4.5106  -4.5106  -4.3732  -4.3732
    -4.3162  -4.3162  -4.2839  -4.2839  -4.2414  -4.2414  -4.0984  -4.0984
    -4.0805  -4.0805  -4.0612  -4.0612  -4.0377  -4.0377  -3.9453  -3.9453
    -3.8927  -3.8927  -3.8815  -3.8815  -3.8715  -3.8715  -3.8097  -3.8097
    -3.7544  -3.7544  -3.6873  -3.6873  -3.6346  -3.6346  -3.6137  -3.6137
    -3.5682  -3.5682  -3.5554  -3.5554  -3.4794  -3.4794  -3.4432  -3.4432
    -3.3970  -3.3970  -3.3278  -3.3278  -3.3185  -3.3185  -3.2560  -3.2560
    -3.2520  -3.2520  -3.2142  -3.2142  -3.1931  -3.1931  -3.1734  -3.1734
    -3.1050  -3.1050  -3.0854  -3.0854  -3.0368  -3.0368  -3.0253  -3.0253
    -2.9800  -2.9800  -2.9168  -2.9168  -2.8548  -2.8548  -2.8361  -2.8361
    -2.8296  -2.8296  -2.7639  -2.7639  -2.7082  -2.7082  -2.6934  -2.6934
    -2.6845  -2.6845  -2.6356  -2.6356  -2.5882  -2.5882  -2.5386  -2.5386
    -2.5144  -2.5144  -2.4241  -2.4241  -2.4085  -2.4085  -2.3492  -2.3492
    -2.3161  -2.3161  -2.2751  -2.2751  -2.2600  -2.2600  -2.2315  -2.2315
    -2.1686  -2.1686  -2.0969  -2.0969  -2.0926  -2.0926  -2.0003  -2.0003
    -1.9930  -1.9930  -1.9589  -1.9589  -1.9357  -1.9357  -1.9058  -1.9058

          k = 0.2500 0.4330 0.0000 (166642 PWs)   bands (ev):

   -20.5579 -20.3020 -20.3020 -20.2474 -20.0056 -20.0055 -19.9062 -19.6983
   -19.6955 -19.6951 -19.6394 -19.4761 -19.4038 -19.4035 -19.2903 -19.2888
   -19.1513 -19.0818 -18.9816 -18.9762 -18.9636 -18.8833 -18.8681 -18.8670
   -18.8447 -18.7808 -18.7561 -18.7501 -18.7471 -18.6722 -18.6690 -18.6613
   -18.6498 -18.6149 -18.6106 -18.5981 -18.5814 -18.5780 -18.5671 -18.4934
   -18.4774 -18.4757 -18.4708 -18.4640 -18.4520 -18.4380 -18.4047 -18.3930
   -18.3845 -18.3722 -18.3554 -18.3241 -18.3198 -18.2800 -18.2735 -18.2402
   -18.2000 -18.1674 -18.1247 -18.1211 -18.1166 -18.0882 -18.0780 -18.0747
   -18.0618 -18.0546 -18.0527 -18.0485 -18.0377 -18.0315 -18.0300 -18.0257
    -8.1868  -8.0606  -8.0482  -7.8636  -7.8151  -7.8013  -7.7656  -7.7415
    -7.6832  -7.6789  -7.5993  -7.5706  -7.5434  -7.5031  -7.4899  -7.4498
    -7.4024  -7.3843  -7.3805  -7.3654  -7.3010  -7.2890  -7.2813  -7.1932
    -7.1894  -7.1664  -7.1060  -7.0343  -7.0168  -7.0086  -6.9585  -6.8411
    -6.8341  -6.8167  -6.7917  -6.7685  -6.6907  -6.6236  -6.6032  -6.5547
    -6.4508  -6.3572  -6.3461  -6.3448  -6.3083  -6.2697  -6.2378  -6.2130
    -6.1970  -6.1162  -6.1105  -6.0612  -5.9908  -5.9880  -5.9513  -5.9203
    -5.8500  -5.8169  -5.7753  -5.7529  -5.7521  -5.7165  -5.6288  -5.5880
    -5.5407  -5.5083  -5.4775  -5.4669  -5.4451  -5.4220  -5.3293  -5.2937
    -5.2399  -5.2111  -5.1458  -5.0889  -5.0467  -4.9678  -4.9345  -4.8717
    -4.8663  -4.8307  -4.8221  -4.7868  -4.7175  -4.7069  -4.6476  -4.6164
    -4.6096  -4.5653  -4.5614  -4.5084  -4.4443  -4.4265  -4.4197  -4.3578
    -4.3394  -4.3093  -4.2947  -4.2433  -4.2209  -4.1985  -4.1801  -4.1794
    -4.0632  -4.0578  -4.0509  -4.0277  -4.0123  -3.9920  -3.9847  -3.9698
    -3.9277  -3.9240  -3.8883  -3.8797  -3.8689  -3.8440  -3.8054  -3.7968
    -3.7943  -3.7005  -3.6915  -3.6884  -3.6876  -3.6553  -3.6526  -3.6476
    -3.6075  -3.6007  -3.5888  -3.5478  -3.5182  -3.5017  -3.4765  -3.4332
    -3.4210  -3.3995  -3.3873  -3.3720  -3.3469  -3.3357  -3.2951  -3.2789
    -3.2615  -3.2537  -3.2391  -3.2191  -3.2174  -3.1740  -3.1206  -3.1103
    -3.0936  -3.0591  -3.0568  -3.0509  -3.0377  -3.0237  -3.0146  -2.9715
    -2.9689  -2.9610  -2.9313  -2.9182  -2.8910  -2.8713  -2.8677  -2.7959
    -2.7936  -2.7868  -2.7759  -2.7240  -2.7218  -2.7181  -2.6878  -2.6827
    -2.6713  -2.6579  -2.6484  -2.6388  -2.6017  -2.5967  -2.5625  -2.5126
    -2.4984  -2.4882  -2.4628  -2.4508  -2.4079  -2.3769  -2.3718  -2.3402
    -2.3251  -2.3241  -2.3106  -2.3017  -2.2831  -2.2585  -2.2381  -2.1920
    -2.1590  -2.1582  -2.1433  -2.1331  -2.0988  -2.0539  -2.0351  -2.0095
    -1.9821  -1.9813  -1.9776  -1.9220  -1.9206  -1.9186  -1.9003  -1.8582

     highest occupied level (ev):    -1.8366

!    total energy              =   -4910.93167363 Ry
     total all-electron energy =    -34162.761443 Ry
     estimated scf accuracy    <          9.5E-10 Ry

     The total energy is the sum of the following terms:
     one-electron contribution =  -81014.63654472 Ry
     hartree contribution      =   40742.61583554 Ry
     xc contribution           =    -675.91457202 Ry
     ewald contribution        =   38384.94416672 Ry
     one-center paw contrib.   =   -2347.94055915 Ry

     convergence has been achieved in  12 iterations

     negative rho (up, down):  4.797E-03 0.000E+00

     Forces acting on atoms (cartesian axes, Ry/au):

     atom    1 type  1   force =     0.00000000   -0.00000000   -0.00204358
     atom    2 type  1   force =    -0.00000000    0.00000000   -0.00285587
     atom    3 type  1   force =     0.00000000    0.00000000    0.00085911
     atom    4 type  1   force =     0.00000000    0.00000000    0.00161835
     atom    5 type  1   force =     0.00000000    0.00000000   -0.00036626
     atom    6 type  1   force =     0.00000000    0.00000000    0.00145699
     atom    7 type  1   force =     0.00000000   -0.00000000   -0.00145699
     atom    8 type  1   force =     0.00000000    0.00000000    0.00036626
     atom    9 type  1   force =     0.00000000   -0.00000000   -0.00161835
     atom   10 type  1   force =     0.00000000    0.00000000   -0.00085911
     atom   11 type  1   force =    -0.00000000    0.00000000    0.00285587
     atom   12 type  1   force =    -0.00000000   -0.00000000    0.00204358
     atom   13 type  2   force =    -0.00090580    0.00050867    0.00056626
     atom   14 type  2   force =     0.00461340   -0.00221458    0.00067924
     atom   15 type  2   force =     0.00089342    0.00053011    0.00056626
     atom   16 type  2   force =     0.00001238   -0.00103878    0.00056626
     atom   17 type  2   force =    -0.00422458   -0.00288803    0.00067924
     atom   18 type  2   force =    -0.00038881    0.00510261    0.00067924
     atom   19 type  2   force =    -0.00189821   -0.00587960   -0.00621287
     atom   20 type  2   force =     0.00414278   -0.00458370    0.00621287
     atom   21 type  2   force =    -0.00414278    0.00458369   -0.00621287
     atom   22 type  2   force =     0.00604099    0.00129590   -0.00621287
     atom   23 type  2   force =    -0.00604098   -0.00129590    0.00621287
     atom   24 type  2   force =     0.00189821    0.00587960    0.00621287
     atom   25 type  2   force =     0.00038881   -0.00510261   -0.00067924
     atom   26 type  2   force =    -0.00089342   -0.00053011   -0.00056626
     atom   27 type  2   force =    -0.00461340    0.00221458   -0.00067924
     atom   28 type  2   force =     0.00422458    0.00288803   -0.00067924
     atom   29 type  2   force =    -0.00001238    0.00103878   -0.00056626
     atom   30 type  2   force =     0.00090580   -0.00050867   -0.00056626
     atom   31 type  1   force =    -0.00000000    0.00000000   -0.00204358
     atom   32 type  1   force =     0.00000000   -0.00000000   -0.00285587
     atom   33 type  1   force =    -0.00000000   -0.00000000    0.00085911
     atom   34 type  1   force =    -0.00000000   -0.00000000    0.00161835
     atom   35 type  1   force =     0.00000000   -0.00000000   -0.00036626
     atom   36 type  1   force =     0.00000000   -0.00000000    0.00145699
     atom   37 type  1   force =     0.00000000    0.00000000   -0.00145699
     atom   38 type  1   force =    -0.00000000    0.00000000    0.00036626
     atom   39 type  1   force =     0.00000000    0.00000000   -0.00161835
     atom   40 type  1   force =     0.00000000    0.00000000   -0.00085911
     atom   41 type  1   force =     0.00000000    0.00000000    0.00285587
     atom   42 type  1   force =     0.00000000    0.00000000    0.00204358
     atom   43 type  2   force =    -0.00090580    0.00050867    0.00056626
     atom   44 type  2   force =     0.00461340   -0.00221458    0.00067924
     atom   45 type  2   force =     0.00089342    0.00053011    0.00056626
     atom   46 type  2   force =     0.00001238   -0.00103878    0.00056626
     atom   47 type  2   force =    -0.00422458   -0.00288803    0.00067924
     atom   48 type  2   force =    -0.00038881    0.00510261    0.00067924
     atom   49 type  2   force =    -0.00189821   -0.00587960   -0.00621287
     atom   50 type  2   force =     0.00414278   -0.00458370    0.00621286
     atom   51 type  2   force =    -0.00414278    0.00458369   -0.00621287
     atom   52 type  2   force =     0.00604099    0.00129591   -0.00621287
     atom   53 type  2   force =    -0.00604099   -0.00129590    0.00621286
     atom   54 type  2   force =     0.00189821    0.00587960    0.00621286
     atom   55 type  2   force =     0.00038881   -0.00510261   -0.00067924
     atom   56 type  2   force =    -0.00089342   -0.00053011   -0.00056626
     atom   57 type  2   force =    -0.00461340    0.00221458   -0.00067924
     atom   58 type  2   force =     0.00422458    0.00288803   -0.00067924
     atom   59 type  2   force =    -0.00001238    0.00103878   -0.00056626
     atom   60 type  2   force =     0.00090580   -0.00050867   -0.00056626
     atom   61 type  1   force =     0.00000000   -0.00000000   -0.00204358
     atom   62 type  1   force =    -0.00000000   -0.00000000   -0.00285587
     atom   63 type  1   force =    -0.00000000    0.00000000    0.00085911
     atom   64 type  1   force =     0.00000000   -0.00000000    0.00161835
     atom   65 type  1   force =    -0.00000000   -0.00000000   -0.00036626
     atom   66 type  1   force =     0.00000000    0.00000000    0.00145699
     atom   67 type  1   force =    -0.00000000    0.00000000   -0.00145699
     atom   68 type  1   force =     0.00000000    0.00000000    0.00036626
     atom   69 type  1   force =     0.00000000    0.00000000   -0.00161835
     atom   70 type  1   force =     0.00000000   -0.00000000   -0.00085911
     atom   71 type  1   force =     0.00000000    0.00000000    0.00285587
     atom   72 type  1   force =     0.00000000   -0.00000000    0.00204358
     atom   73 type  2   force =    -0.00090580    0.00050867    0.00056626
     atom   74 type  2   force =     0.00461340   -0.00221458    0.00067924
     atom   75 type  2   force =     0.00089342    0.00053011    0.00056626
     atom   76 type  2   force =     0.00001238   -0.00103878    0.00056626
     atom   77 type  2   force =    -0.00422458   -0.00288803    0.00067924
     atom   78 type  2   force =    -0.00038881    0.00510261    0.00067924
     atom   79 type  2   force =    -0.00189821   -0.00587960   -0.00621286
     atom   80 type  2   force =     0.00414278   -0.00458369    0.00621287
     atom   81 type  2   force =    -0.00414278    0.00458370   -0.00621286
     atom   82 type  2   force =     0.00604099    0.00129590   -0.00621286
     atom   83 type  2   force =    -0.00604099   -0.00129591    0.00621287
     atom   84 type  2   force =     0.00189821    0.00587960    0.00621287
     atom   85 type  2   force =     0.00038881   -0.00510261   -0.00067924
     atom   86 type  2   force =    -0.00089342   -0.00053011   -0.00056626
     atom   87 type  2   force =    -0.00461340    0.00221458   -0.00067924
     atom   88 type  2   force =     0.00422458    0.00288803   -0.00067924
     atom   89 type  2   force =    -0.00001238    0.00103878   -0.00056626
     atom   90 type  2   force =     0.00090580   -0.00050867   -0.00056626
     atom   91 type  1   force =     0.00000000    0.00000000   -0.00204358
     atom   92 type  1   force =     0.00000000   -0.00000000   -0.00285587
     atom   93 type  1   force =     0.00000000    0.00000000    0.00085911
     atom   94 type  1   force =    -0.00000000    0.00000000    0.00161835
     atom   95 type  1   force =    -0.00000000    0.00000000   -0.00036626
     atom   96 type  1   force =    -0.00000000    0.00000000    0.00145699
     atom   97 type  1   force =    -0.00000000   -0.00000000   -0.00145699
     atom   98 type  1   force =     0.00000000   -0.00000000    0.00036626
     atom   99 type  1   force =    -0.00000000   -0.00000000   -0.00161835
     atom  100 type  1   force =    -0.00000000   -0.00000000   -0.00085911
     atom  101 type  1   force =     0.00000000   -0.00000000    0.00285587
     atom  102 type  1   force =    -0.00000000    0.00000000    0.00204358
     atom  103 type  2   force =    -0.00090580    0.00050867    0.00056626
     atom  104 type  2   force =     0.00461340   -0.00221458    0.00067924
     atom  105 type  2   force =     0.00089342    0.00053011    0.00056626
     atom  106 type  2   force =     0.00001238   -0.00103878    0.00056626
     atom  107 type  2   force =    -0.00422458   -0.00288803    0.00067924
     atom  108 type  2   force =    -0.00038881    0.00510261    0.00067924
     atom  109 type  2   force =    -0.00189821   -0.00587960   -0.00621287
     atom  110 type  2   force =     0.00414278   -0.00458369    0.00621287
     atom  111 type  2   force =    -0.00414278    0.00458370   -0.00621287
     atom  112 type  2   force =     0.00604098    0.00129590   -0.00621287
     atom  113 type  2   force =    -0.00604099   -0.00129590    0.00621287
     atom  114 type  2   force =     0.00189821    0.00587960    0.00621287
     atom  115 type  2   force =     0.00038881   -0.00510261   -0.00067924
     atom  116 type  2   force =    -0.00089342   -0.00053011   -0.00056626
     atom  117 type  2   force =    -0.00461340    0.00221458   -0.00067924
     atom  118 type  2   force =     0.00422458    0.00288803   -0.00067924
     atom  119 type  2   force =    -0.00001238    0.00103878   -0.00056626
     atom  120 type  2   force =     0.00090580   -0.00050867   -0.00056626

     Total force =     0.051568     Total SCF correction =     0.000113


     Computing stress (Cartesian axis) and pressure


     negative rho (up, down):  4.797E-03 0.000E+00
          total   stress  (Ry/bohr**3)                   (kbar)     P=        7.75
   0.00012492   0.00000000   0.00000000           18.38        0.00        0.00
   0.00000000   0.00012492  -0.00000000            0.00       18.38       -0.00
   0.00000000  -0.00000000  -0.00009184            0.00       -0.00      -13.51

     Energy error            =      1.1E-02 Ry
     Gradient error          =      6.2E-03 Ry/Bohr

     number of scf cycles    =   7
     number of bfgs steps    =   6

     energy             old  =   -4910.9208144933 Ry
     energy             new  =   -4910.9316736283 Ry

     CASE: energy            _new < energy            _old

     new trust radius        =       0.0160995501 bohr
     new conv_thr            =       0.0000000006 Ry


ATOMIC_POSITIONS (angstrom)
Al              -0.0000000006        2.7741837623       24.0442528912
Al               2.4025136106        1.3870918805       22.1084754969
Al               0.0000000000       -0.0000000000       21.6457453084
Al               0.0000000001        2.7741837610       19.9306451540
Al               0.0000000000       -0.0000000000       15.0578091431
Al              -0.0000000053        2.7741837560       14.0296867269
Al               2.4025136039        1.3870918826       25.3190730231
Al               0.0000000000       -0.0000000000       24.2909506069
Al               2.4025136109        1.3870918804       19.4181145960
Al               0.0000000000       -0.0000000000       17.7030144416
Al              -0.0000000001        2.7741837608       17.2402842531
Al               2.4025136117        1.3870918816       15.3045068588
O                0.9310382129        1.3811934651       20.7784143641
O                1.6540127364        2.8649136467       23.0051225992
O                3.1331431615        2.6643761681       20.7784143660
O                3.1433595064        0.1157059760       20.7784143637
O                4.0565952377        1.2964017664       23.0051225963
O                1.4969328563       -0.0000397717       23.0051225975
O               -1.5145817301        2.8433699210       25.1956644080
O                1.5853057959        0.1100187128       14.1530953398
O                0.8172078132        4.0512569242       25.1956644135
O                0.6973738611        1.4279244520       25.1956644102
O                1.7051397380        2.7333511873       14.1530953420
O                3.9170953409        1.3179057136       14.1530953365
O                3.3080943643        0.0000397745       16.3436371508
O               -0.7306295515        1.4968994706       18.5703453859
O                0.7485008715        1.2963619952       16.3436371525
O                3.1509455945        2.8648738720       16.3436371504
O               -0.7408458945        4.0455696540       18.5703453840
O                1.4714753970        2.7800821758       18.5703453863
Al              -2.4025136077        6.9354593994       24.0442528912
Al               0.0000000000        5.5483675200       22.1084754953
Al              -2.4025136102        4.1612756400       21.6457453109
Al              -2.4025136092        6.9354593994       19.9306451540
Al              -2.4025136107        4.1612756422       15.0578091382
Al              -2.4025136108        6.9354594066       14.0296867269
Al               0.0000000000        5.5483675200       25.3190730284
Al              -2.4025136093        4.1612756378       24.2909506118
Al               0.0000000000        5.5483675200       19.4181145930
Al              -2.4025136098        4.1612756400       17.7030144391
Al              -2.4025136093        6.9354593997       17.2402842531
Al               0.0000000000        5.5483675200       15.3045068606
O               -1.4714753973        5.5424691032       20.7784143634
O               -0.7485008726        7.0261892846       23.0051225996
O                0.7306295498        6.8256518006       20.7784143634
O                0.7408458975        4.2769816163       20.7784143634
O                1.6540816255        5.4576774080       23.0051225996
O               -0.9055807529        4.1612358674       23.0051225996
O               -3.9170953352        7.0046455708       25.1956644102
O               -0.8172078107        4.2712943445       14.1530953436
O               -1.5853058019        8.2125325663       25.1956644080
O               -1.7051397423        5.5892000893       25.1956644135
O               -0.6973738700        6.8946268192       14.1530953436
O                1.5145817308        5.4791813563       14.1530953436
O                0.9055807554        4.1613154137       16.3436371537
O               -3.1331431606        5.6581751103       18.5703453863
O               -1.6540127377        5.4576376328       16.3436371537
O                0.7484319823        7.0261495136       16.3436371537
O               -3.1433595057        8.2068452946       18.5703453859
O               -0.9310382140        6.9413578142       18.5703453840
Al               4.8050272200        2.7741837600       24.0442528894
Al               7.2075408293        1.3870918803       22.1084754969
Al               4.8050272201        0.0000000002       21.6457453109
Al               4.8050272200        2.7741837600       19.9306451570
Al               4.8050272223       -0.0000000005       15.0578091382
Al               4.8050272200        2.7741837600       14.0296867216
Al               7.2075408308        1.3870918734       25.3190730231
Al               4.8050272177        0.0000000005       24.2909506118
Al               7.2075408292        1.3870918806       19.4181145960
Al               4.8050272199       -0.0000000002       17.7030144391
Al               4.8050272200        2.7741837600       17.2402842547
Al               7.2075408277        1.3870918806       15.3045068588
O                5.7360654340        1.3811934658       20.7784143660
O                6.4590399577        2.8649136472       23.0051225963
O                7.9381703806        2.6643761697       20.7784143637
O                7.9483867257        0.1157059754       20.7784143641
O                8.8616224552        1.2964017669       23.0051225975
O                6.3019600757       -0.0000397745       23.0051225992
O                3.2904454892        2.8433699237       25.1956644064
O                6.3903330219        0.1100187037       14.1530953420
O                5.6222350307        4.0512569255       25.1956644064
O                5.5024010900        1.4279244508       25.1956644064
O                6.5101669623        2.7333511907       14.1530953365
O                8.7221225552        1.3179057092       14.1530953398
O                8.1131215837        0.0000397717       16.3436371525
O                4.0743976702        1.4968994694       18.5703453866
O                5.5535280926        1.2963619954       16.3436371504
O                7.9559728122        2.8648738722       16.3436371508
O                4.0641813225        4.0455696537       18.5703453866
O                6.2765026173        2.7800821768       18.5703453866
Al               2.4025136083        6.9354593984       24.0442528912
Al               4.8050272201        5.5483675192       22.1084754969
Al               2.4025136101        4.1612756398       21.6457453109
Al               2.4025136091        6.9354593996       19.9306451540
Al               2.4025136085        4.1612756383       15.0578091382
Al               2.4025136161        6.9354593974       14.0296867269
Al               4.8050272253        5.5483675240       25.3190730231
Al               2.4025136115        4.1612756417       24.2909506118
Al               4.8050272199        5.5483675190       19.4181145960
Al               2.4025136099        4.1612756402       17.7030144391
Al               2.4025136094        6.9354593995       17.2402842531
Al               4.8050272206        5.5483675177       15.3045068588
O                3.3335518230        5.5424691042       20.7784143637
O                4.0565263485        7.0261892848       23.0051225975
O                5.5356567715        6.8256517994       20.7784143641
O                5.5458731145        4.2769816160       20.7784143660
O                6.4591088478        5.4576774078       23.0051225992
O                3.8994464646        4.1612358663       23.0051225963
O                0.8879318791        7.0046455664       25.1956644135
O                3.9878194068        4.2712943458       14.1530953365
O                3.2197214241        8.2125325572       25.1956644102
O                3.0998874820        5.5892000927       25.1956644080
O                4.1076533589        6.8946268180       14.1530953398
O                6.3196089501        5.4791813590       14.1530953420
O                5.7106079729        4.1613154126       16.3436371504
O                1.6718840585        5.6581751119       18.5703453840
O                3.1510144836        5.4576376333       16.3436371508
O                5.5534592048        7.0261495131       16.3436371525
O                1.6616677136        8.2068452940       18.5703453863
O                3.8739890071        6.9413578149       18.5703453859



     Writing config-only to output data dir ./tmp/al2o3.save/ :
     XML data file
     NEW-OLD atomic charge density approx. for the potential

     negative rho (up, down):  4.800E-03 0.000E+00

     total cpu time spent up to now is    15064.3 secs

     Self-consistent Calculation

     iteration #  1     ecut=    60.00 Ry     beta= 0.30
     Davidson diagonalization with overlap
     ethr =  1.00E-06,  avg # of iterations =  4.0

     negative rho (up, down):  4.797E-03 0.000E+00

     total cpu time spent up to now is    15204.3 secs

     total energy              =   -4910.93477519 Ry
     estimated scf accuracy    <       0.00152613 Ry

     iteration #  2     ecut=    60.00 Ry     beta= 0.30
     Davidson diagonalization with overlap
     ethr =  2.65E-07,  avg # of iterations =  2.0

     negative rho (up, down):  4.791E-03 0.000E+00

     total cpu time spent up to now is    15273.5 secs

     total energy              =   -4910.93456271 Ry
     estimated scf accuracy    <       0.00048921 Ry

     iteration #  3     ecut=    60.00 Ry     beta= 0.30
     Davidson diagonalization with overlap
     ethr =  8.49E-08,  avg # of iterations =  4.0

     negative rho (up, down):  4.790E-03 0.000E+00

     total cpu time spent up to now is    15365.8 secs

     total energy              =   -4910.93470585 Ry
     estimated scf accuracy    <       0.00007691 Ry

     iteration #  4     ecut=    60.00 Ry     beta= 0.30
     Davidson diagonalization with overlap
     ethr =  1.34E-08,  avg # of iterations =  3.2

     negative rho (up, down):  4.788E-03 0.000E+00

     total cpu time spent up to now is    15455.0 secs

     total energy              =   -4910.93472700 Ry
     estimated scf accuracy    <       0.00002049 Ry

     iteration #  5     ecut=    60.00 Ry     beta= 0.30
     Davidson diagonalization with overlap
     ethr =  3.56E-09,  avg # of iterations =  2.0

     negative rho (up, down):  4.789E-03 0.000E+00

     total cpu time spent up to now is    15540.1 secs

     total energy              =   -4910.93472941 Ry
     estimated scf accuracy    <       0.00000265 Ry

     iteration #  6     ecut=    60.00 Ry     beta= 0.30
     Davidson diagonalization with overlap
     ethr =  4.60E-10,  avg # of iterations =  5.0

     negative rho (up, down):  4.789E-03 0.000E+00

     total cpu time spent up to now is    15657.9 secs

     total energy              =   -4910.93473024 Ry
     estimated scf accuracy    <       0.00000829 Ry

     iteration #  7     ecut=    60.00 Ry     beta= 0.30
     Davidson diagonalization with overlap
     ethr =  4.60E-10,  avg # of iterations =  2.5

     negative rho (up, down):  4.789E-03 0.000E+00

     total cpu time spent up to now is    15744.2 secs

     total energy              =   -4910.93472954 Ry
     estimated scf accuracy    <       0.00000206 Ry

     iteration #  8     ecut=    60.00 Ry     beta= 0.30
     Davidson diagonalization with overlap
     ethr =  3.58E-10,  avg # of iterations =  3.8

     negative rho (up, down):  4.790E-03 0.000E+00

     total cpu time spent up to now is    15834.3 secs

     total energy              =   -4910.93473018 Ry
     estimated scf accuracy    <       0.00000007 Ry

     iteration #  9     ecut=    60.00 Ry     beta= 0.30
     Davidson diagonalization with overlap
     ethr =  1.16E-11,  avg # of iterations =  4.2

     negative rho (up, down):  4.790E-03 0.000E+00

     total cpu time spent up to now is    15942.6 secs

     total energy              =   -4910.93473016 Ry
     estimated scf accuracy    <       0.00000013 Ry

     iteration # 10     ecut=    60.00 Ry     beta= 0.30
     Davidson diagonalization with overlap
     ethr =  1.16E-11,  avg # of iterations =  2.2

     negative rho (up, down):  4.791E-03 0.000E+00

     total cpu time spent up to now is    16028.1 secs

     total energy              =   -4910.93473016 Ry
     estimated scf accuracy    <       0.00000003 Ry

     iteration # 11     ecut=    60.00 Ry     beta= 0.30
     Davidson diagonalization with overlap
     ethr =  4.70E-12,  avg # of iterations =  3.8

     negative rho (up, down):  4.792E-03 0.000E+00

     total cpu time spent up to now is    16117.5 secs

     End of self-consistent calculation

          k = 0.0000 0.0000 0.0000 (166875 PWs)   bands (ev):

   -20.7389 -20.4265 -20.0698 -19.8257 -19.8257 -19.8257 -19.7573 -19.7573
   -19.7573 -19.5735 -19.5735 -19.5735 -19.5250 -19.3920 -19.3920 -19.3920
   -19.1506 -19.1506 -19.1506 -19.1378 -19.1378 -19.1378 -18.9097 -18.8232
   -18.8232 -18.8232 -18.7430 -18.7430 -18.7430 -18.6972 -18.6842 -18.6842
   -18.6842 -18.5353 -18.5353 -18.5353 -18.4441 -18.4441 -18.4441 -18.4203
   -18.4203 -18.4203 -18.3891 -18.3891 -18.3046 -18.3046 -18.3046 -18.2756
   -18.2756 -18.2654 -18.2654 -18.2654 -18.2470 -18.2470 -18.2470 -18.2079
   -18.2078 -18.1926 -18.1926 -18.1579 -18.1579 -18.1579 -18.0698 -18.0698
   -18.0698 -18.0418 -18.0418 -18.0311 -18.0311 -18.0311 -18.0295 -18.0295
    -8.3250  -8.1107  -8.1106  -8.1106  -8.0223  -8.0223  -8.0223  -7.7572
    -7.7572  -7.7572  -7.6465  -7.5967  -7.5967  -7.5967  -7.4397  -7.4185
    -7.3185  -7.3185  -7.3185  -7.1512  -7.1512  -7.1512  -7.1198  -7.1198
    -6.9984  -6.9524  -6.9524  -6.9524  -6.8186  -6.8186  -6.8186  -6.7664
    -6.7664  -6.6457  -6.5790  -6.5790  -6.5790  -6.5593  -6.5593  -6.5593
    -6.4424  -6.4300  -6.4300  -6.4300  -6.2832  -6.2832  -5.9710  -5.8642
    -5.8642  -5.8407  -5.8407  -5.8407  -5.7384  -5.7384  -5.7384  -5.7237
    -5.7237  -5.6838  -5.6838  -5.6838  -5.5926  -5.5926  -5.5752  -5.5416
    -5.5416  -5.5416  -5.4885  -5.4885  -5.4885  -5.4322  -5.4322  -5.4322
    -5.3427  -5.3021  -5.3021  -5.3021  -5.2050  -5.1965  -5.1965  -5.1965
    -5.1028  -5.1028  -5.1028  -4.9705  -4.9705  -4.9705  -4.9426  -4.7832
    -4.7832  -4.7832  -4.7092  -4.6106  -4.6106  -4.6106  -4.5013  -4.3723
    -4.3164  -4.3164  -4.3164  -4.1971  -4.1971  -4.1971  -4.0828  -4.0828
    -4.0828  -3.9981  -3.9981  -3.9981  -3.9840  -3.9840  -3.9840  -3.9726
    -3.9726  -3.9707  -3.9707  -3.9707  -3.8918  -3.8918  -3.7461  -3.7097
    -3.7097  -3.7097  -3.6781  -3.6781  -3.6781  -3.4884  -3.4884  -3.4884
    -3.4438  -3.4438  -3.4438  -3.3874  -3.3874  -3.3874  -3.3349  -3.3349
    -3.2875  -3.2875  -3.2606  -3.2606  -3.2606  -3.2171  -3.2171  -3.2171
    -3.2140  -3.2140  -3.2140  -3.1493  -3.1493  -3.1493  -3.1096  -3.1096
    -3.1096  -3.0128  -3.0128  -3.0128  -2.9264  -2.9264  -2.9264  -2.9130
    -2.9130  -2.9130  -2.9078  -2.9078  -2.8974  -2.8974  -2.8974  -2.8945
    -2.8945  -2.8838  -2.8838  -2.8838  -2.8151  -2.8151  -2.8151  -2.7914
    -2.6994  -2.6994  -2.6994  -2.5300  -2.5300  -2.5300  -2.5120  -2.5120
    -2.5120  -2.4013  -2.4013  -2.4013  -2.3737  -2.3737  -2.3038  -2.3038
    -2.3038  -2.2971  -2.2971  -2.1750  -2.1678  -2.1678  -2.0901  -2.0901
    -2.0901  -2.0513  -2.0513  -2.0513  -2.0338  -2.0338  -1.9754  -1.9754
    -1.9754  -1.9176  -1.9176  -1.9176  -1.8190  -1.8190  -1.8112  -1.8112

          k = 0.0000 0.2887 0.0000 (166721 PWs)   bands (ev):

   -20.6698 -20.3601 -20.1589 -20.0095 -19.9360 -19.9359 -19.8786 -19.6958
   -19.6941 -19.6001 -19.5437 -19.5380 -19.4771 -19.3607 -19.3548 -19.3296
   -19.1416 -19.1327 -19.0300 -19.0293 -19.0139 -18.9912 -18.8883 -18.8768
   -18.8738 -18.8191 -18.7814 -18.7568 -18.6828 -18.6589 -18.6478 -18.6308
   -18.6196 -18.5911 -18.5769 -18.5292 -18.5210 -18.5202 -18.4879 -18.4875
   -18.4574 -18.4362 -18.4235 -18.4143 -18.3570 -18.3532 -18.3447 -18.3444
   -18.3206 -18.2907 -18.2894 -18.2686 -18.2592 -18.2571 -18.2298 -18.2116
   -18.2109 -18.2056 -18.1607 -18.1237 -18.1079 -18.0865 -18.0764 -18.0684
   -18.0470 -18.0381 -18.0270 -18.0244 -18.0239 -18.0218 -18.0188 -18.0087
    -8.2690  -8.1194  -8.0125  -7.9940  -7.9177  -7.8963  -7.8737  -7.7525
    -7.7119  -7.6307  -7.6222  -7.5817  -7.5177  -7.5105  -7.5086  -7.4913
    -7.4654  -7.4511  -7.3850  -7.2968  -7.1405  -7.1381  -7.1118  -7.1042
    -7.0788  -7.0713  -7.0490  -6.9726  -6.9330  -6.8427  -6.8072  -6.7621
    -6.7461  -6.6989  -6.6800  -6.6648  -6.6341  -6.5980  -6.5694  -6.4708
    -6.4643  -6.4638  -6.4572  -6.4561  -6.2425  -6.1659  -6.0757  -6.0631
    -6.0508  -5.9777  -5.9701  -5.9221  -5.9217  -5.8417  -5.8195  -5.8112
    -5.8112  -5.7587  -5.7477  -5.7361  -5.7281  -5.6343  -5.6182  -5.5983
    -5.5584  -5.5385  -5.5237  -5.4888  -5.4636  -5.4385  -5.3927  -5.3790
    -5.2159  -5.1567  -5.0897  -5.0699  -5.0139  -5.0115  -5.0111  -4.9854
    -4.9754  -4.9631  -4.9386  -4.9193  -4.8901  -4.8194  -4.8057  -4.6935
    -4.6649  -4.5996  -4.5816  -4.5685  -4.5056  -4.4422  -4.4171  -4.4130
    -4.3830  -4.3546  -4.3388  -4.3261  -4.2341  -4.2195  -4.2163  -4.1886
    -4.1528  -4.1250  -4.1141  -4.0810  -4.0458  -4.0004  -3.9924  -3.9508
    -3.8815  -3.8484  -3.8335  -3.8180  -3.8061  -3.7806  -3.7700  -3.7608
    -3.7093  -3.6992  -3.6791  -3.6372  -3.6150  -3.5696  -3.5665  -3.5384
    -3.5090  -3.5089  -3.4365  -3.4365  -3.4142  -3.4076  -3.4072  -3.4035
    -3.3501  -3.3426  -3.3423  -3.3094  -3.2917  -3.2659  -3.2529  -3.2287
    -3.2227  -3.1921  -3.1843  -3.1789  -3.1740  -3.1403  -3.1241  -3.1200
    -3.1171  -3.0655  -3.0558  -3.0375  -3.0226  -3.0077  -2.9990  -2.9895
    -2.9749  -2.9496  -2.9288  -2.9162  -2.8901  -2.8768  -2.8709  -2.8517
    -2.7820  -2.7631  -2.7550  -2.7182  -2.7127  -2.6898  -2.6860  -2.6753
    -2.6748  -2.6741  -2.6042  -2.5531  -2.5292  -2.5199  -2.5150  -2.5051
    -2.4778  -2.4550  -2.4450  -2.4285  -2.3881  -2.3438  -2.3437  -2.3329
    -2.3032  -2.3008  -2.3007  -2.2817  -2.2423  -2.1782  -2.1134  -2.0988
    -2.0892  -2.0832  -2.0822  -2.0491  -2.0450  -2.0313  -2.0248  -1.9884
    -1.9779  -1.9681  -1.9415  -1.9244  -1.9175  -1.9035  -1.8468  -1.8176

          k = 0.0000-0.5774 0.0000 (166636 PWs)   bands (ev):

   -20.4691 -20.4691 -20.1681 -20.1681 -19.9870 -19.9870 -19.8373 -19.8373
   -19.7213 -19.7213 -19.4766 -19.4766 -19.3514 -19.3514 -19.3017 -19.3017
   -19.0808 -19.0808 -18.9921 -18.9921 -18.8634 -18.8634 -18.8434 -18.8434
   -18.8075 -18.8075 -18.7415 -18.7415 -18.7068 -18.7068 -18.6879 -18.6879
   -18.6564 -18.6564 -18.5730 -18.5730 -18.5079 -18.5079 -18.4736 -18.4736
   -18.4629 -18.4629 -18.4520 -18.4520 -18.4302 -18.4302 -18.4219 -18.4219
   -18.3444 -18.3444 -18.3282 -18.3282 -18.2724 -18.2724 -18.2494 -18.2494
   -18.1450 -18.1450 -18.1096 -18.1096 -18.0699 -18.0699 -18.0562 -18.0562
   -18.0392 -18.0392 -18.0335 -18.0335 -18.0089 -18.0089 -18.0040 -18.0040
    -8.1473  -8.1473  -7.8273  -7.8273  -7.7824  -7.7824  -7.7098  -7.7098
    -7.6771  -7.6771  -7.6233  -7.6233  -7.5720  -7.5720  -7.4073  -7.4073
    -7.3493  -7.3493  -7.3331  -7.3331  -7.3028  -7.3028  -7.2232  -7.2232
    -7.1166  -7.1166  -7.0879  -7.0879  -6.9901  -6.9901  -6.9818  -6.9818
    -6.8034  -6.8034  -6.7726  -6.7726  -6.5853  -6.5853  -6.5842  -6.5842
    -6.3195  -6.3195  -6.2789  -6.2789  -6.2526  -6.2526  -6.2188  -6.2188
    -6.1558  -6.1558  -6.1209  -6.1209  -5.9302  -5.9302  -5.8825  -5.8825
    -5.8142  -5.8142  -5.7244  -5.7244  -5.7096  -5.7096  -5.7084  -5.7084
    -5.6295  -5.6295  -5.4138  -5.4138  -5.2455  -5.2455  -5.2226  -5.2226
    -5.1166  -5.1166  -5.0773  -5.0773  -5.0174  -5.0174  -4.9368  -4.9368
    -4.8776  -4.8776  -4.7861  -4.7861  -4.7144  -4.7144  -4.7070  -4.7070
    -4.6073  -4.6073  -4.5385  -4.5385  -4.4901  -4.4901  -4.3604  -4.3604
    -4.2974  -4.2974  -4.2669  -4.2669  -4.2248  -4.2248  -4.0825  -4.0825
    -4.0598  -4.0598  -4.0415  -4.0415  -4.0242  -4.0242  -3.9280  -3.9280
    -3.8755  -3.8755  -3.8576  -3.8576  -3.8567  -3.8567  -3.7946  -3.7946
    -3.7259  -3.7259  -3.6802  -3.6802  -3.6249  -3.6249  -3.5972  -3.5972
    -3.5556  -3.5556  -3.5370  -3.5370  -3.4617  -3.4617  -3.4288  -3.4288
    -3.3747  -3.3747  -3.3071  -3.3071  -3.2960  -3.2960  -3.2366  -3.2366
    -3.2332  -3.2332  -3.1940  -3.1940  -3.1741  -3.1741  -3.1510  -3.1510
    -3.0908  -3.0908  -3.0655  -3.0655  -3.0222  -3.0222  -3.0060  -3.0060
    -2.9590  -2.9590  -2.8925  -2.8925  -2.8359  -2.8359  -2.8141  -2.8141
    -2.8124  -2.8124  -2.7434  -2.7434  -2.6874  -2.6874  -2.6732  -2.6732
    -2.6656  -2.6656  -2.6137  -2.6137  -2.5661  -2.5661  -2.5169  -2.5169
    -2.4912  -2.4912  -2.4016  -2.4016  -2.3883  -2.3883  -2.3237  -2.3237
    -2.2888  -2.2888  -2.2510  -2.2510  -2.2381  -2.2381  -2.2086  -2.2086
    -2.1423  -2.1423  -2.0698  -2.0698  -2.0645  -2.0645  -1.9723  -1.9723
    -1.9641  -1.9641  -1.9321  -1.9321  -1.9072  -1.9072  -1.8795  -1.8795

          k = 0.2500 0.4330 0.0000 (166642 PWs)   bands (ev):

   -20.5349 -20.2788 -20.2788 -20.2307 -19.9882 -19.9881 -19.8930 -19.6812
   -19.6808 -19.6747 -19.6160 -19.4536 -19.3888 -19.3815 -19.2734 -19.2720
   -19.1392 -19.0736 -18.9629 -18.9576 -18.9478 -18.8645 -18.8562 -18.8500
   -18.8223 -18.7613 -18.7395 -18.7367 -18.7234 -18.6569 -18.6533 -18.6445
   -18.6336 -18.5920 -18.5883 -18.5785 -18.5603 -18.5589 -18.5519 -18.4782
   -18.4652 -18.4628 -18.4515 -18.4450 -18.4330 -18.4184 -18.3901 -18.3750
   -18.3660 -18.3613 -18.3320 -18.3099 -18.3046 -18.2672 -18.2584 -18.2179
   -18.1762 -18.1462 -18.0999 -18.0980 -18.0953 -18.0662 -18.0546 -18.0500
   -18.0406 -18.0329 -18.0298 -18.0241 -18.0136 -18.0078 -18.0071 -18.0024
    -8.1609  -8.0362  -8.0231  -7.8395  -7.7908  -7.7773  -7.7414  -7.7187
    -7.6584  -7.6559  -7.5786  -7.5477  -7.5233  -7.4802  -7.4708  -7.4286
    -7.3914  -7.3674  -7.3638  -7.3449  -7.2852  -7.2722  -7.2637  -7.1779
    -7.1714  -7.1502  -7.0903  -7.0265  -7.0040  -6.9934  -6.9472  -6.8213
    -6.8208  -6.8077  -6.7746  -6.7594  -6.6714  -6.6028  -6.5839  -6.5348
    -6.4357  -6.3380  -6.3273  -6.3223  -6.2950  -6.2505  -6.2202  -6.1957
    -6.1808  -6.0951  -6.0871  -6.0356  -5.9726  -5.9608  -5.9242  -5.8950
    -5.8264  -5.7929  -5.7523  -5.7297  -5.7288  -5.6963  -5.6050  -5.5644
    -5.5212  -5.4873  -5.4549  -5.4466  -5.4228  -5.4047  -5.3086  -5.2785
    -5.2189  -5.1927  -5.1277  -5.0681  -5.0443  -4.9524  -4.9202  -4.8557
    -4.8518  -4.8111  -4.8029  -4.7758  -4.6967  -4.6947  -4.6237  -4.5941
    -4.5893  -4.5516  -4.5452  -4.4954  -4.4262  -4.4027  -4.3988  -4.3414
    -4.3213  -4.3004  -4.2750  -4.2256  -4.2047  -4.1837  -4.1650  -4.1595
    -4.0470  -4.0468  -4.0305  -4.0145  -3.9953  -3.9675  -3.9630  -3.9514
    -3.9162  -3.9122  -3.8713  -3.8600  -3.8566  -3.8290  -3.7872  -3.7844
    -3.7756  -3.6831  -3.6752  -3.6737  -3.6711  -3.6374  -3.6355  -3.6247
    -3.5870  -3.5834  -3.5639  -3.5450  -3.5044  -3.4803  -3.4550  -3.4115
    -3.4030  -3.3754  -3.3596  -3.3567  -3.3269  -3.3222  -3.2694  -3.2623
    -3.2458  -3.2314  -3.2203  -3.2013  -3.1994  -3.1581  -3.1040  -3.0938
    -3.0691  -3.0371  -3.0336  -3.0282  -3.0126  -3.0050  -3.0002  -2.9560
    -2.9519  -2.9410  -2.9137  -2.8993  -2.8697  -2.8516  -2.8474  -2.7776
    -2.7745  -2.7691  -2.7530  -2.7053  -2.7036  -2.6934  -2.6704  -2.6635
    -2.6534  -2.6374  -2.6225  -2.6167  -2.5820  -2.5755  -2.5392  -2.4915
    -2.4763  -2.4645  -2.4417  -2.4294  -2.3888  -2.3546  -2.3472  -2.3146
    -2.3026  -2.3011  -2.2848  -2.2767  -2.2565  -2.2348  -2.2115  -2.1672
    -2.1364  -2.1311  -2.1165  -2.1044  -2.0711  -2.0259  -2.0057  -1.9816
    -1.9549  -1.9541  -1.9482  -1.8948  -1.8919  -1.8909  -1.8751  -1.8321

     highest occupied level (ev):    -1.8112

!    total energy              =   -4910.93473017 Ry
     total all-electron energy =    -34162.764499 Ry
     estimated scf accuracy    <          6.0E-10 Ry

     The total energy is the sum of the following terms:
     one-electron contribution =  -81064.29227565 Ry
     hartree contribution      =   40767.91669261 Ry
     xc contribution           =    -676.00654216 Ry
     ewald contribution        =   38409.39054448 Ry
     one-center paw contrib.   =   -2347.94314945 Ry

     convergence has been achieved in  11 iterations

     negative rho (up, down):  4.792E-03 0.000E+00

     Forces acting on atoms (cartesian axes, Ry/au):

     atom    1 type  1   force =     0.00000000   -0.00000000   -0.00535119
     atom    2 type  1   force =    -0.00000000    0.00000000   -0.00195507
     atom    3 type  1   force =     0.00000000   -0.00000000    0.00066835
     atom    4 type  1   force =     0.00000000   -0.00000000    0.00119081
     atom    5 type  1   force =     0.00000000   -0.00000000   -0.00134433
     atom    6 type  1   force =     0.00000000   -0.00000000    0.00309578
     atom    7 type  1   force =     0.00000000   -0.00000000   -0.00309578
     atom    8 type  1   force =     0.00000000    0.00000000    0.00134433
     atom    9 type  1   force =    -0.00000000   -0.00000000   -0.00119081
     atom   10 type  1   force =     0.00000000    0.00000000   -0.00066835
     atom   11 type  1   force =    -0.00000000   -0.00000000    0.00195507
     atom   12 type  1   force =    -0.00000000   -0.00000000    0.00535119
     atom   13 type  2   force =    -0.00050456    0.00068260   -0.00028239
     atom   14 type  2   force =     0.00237512    0.00018855   -0.00014989
     atom   15 type  2   force =     0.00084343    0.00009566   -0.00028239
     atom   16 type  2   force =    -0.00033887   -0.00077826   -0.00028239
     atom   17 type  2   force =    -0.00102427   -0.00215119   -0.00014989
     atom   18 type  2   force =    -0.00135085    0.00196264   -0.00014989
     atom   19 type  2   force =    -0.00362176   -0.00148996   -0.00379439
     atom   20 type  2   force =    -0.00052053   -0.00388152    0.00379439
     atom   21 type  2   force =     0.00052053    0.00388151   -0.00379439
     atom   22 type  2   force =     0.00310123   -0.00239155   -0.00379439
     atom   23 type  2   force =    -0.00310122    0.00239155    0.00379439
     atom   24 type  2   force =     0.00362176    0.00148996    0.00379439
     atom   25 type  2   force =     0.00135085   -0.00196264    0.00014989
     atom   26 type  2   force =    -0.00084342   -0.00009566    0.00028239
     atom   27 type  2   force =    -0.00237512   -0.00018855    0.00014989
     atom   28 type  2   force =     0.00102427    0.00215119    0.00014989
     atom   29 type  2   force =     0.00033887    0.00077826    0.00028239
     atom   30 type  2   force =     0.00050456   -0.00068260    0.00028239
     atom   31 type  1   force =    -0.00000000    0.00000000   -0.00535119
     atom   32 type  1   force =    -0.00000000    0.00000000   -0.00195507
     atom   33 type  1   force =     0.00000000   -0.00000000    0.00066835
     atom   34 type  1   force =    -0.00000000   -0.00000000    0.00119081
     atom   35 type  1   force =     0.00000000   -0.00000000   -0.00134433
     atom   36 type  1   force =    -0.00000000   -0.00000000    0.00309578
     atom   37 type  1   force =     0.00000000    0.00000000   -0.00309578
     atom   38 type  1   force =    -0.00000000    0.00000000    0.00134433
     atom   39 type  1   force =     0.00000000   -0.00000000   -0.00119081
     atom   40 type  1   force =    -0.00000000    0.00000000   -0.00066835
     atom   41 type  1   force =    -0.00000000    0.00000000    0.00195507
     atom   42 type  1   force =     0.00000000   -0.00000000    0.00535119
     atom   43 type  2   force =    -0.00050456    0.00068260   -0.00028239
     atom   44 type  2   force =     0.00237512    0.00018855   -0.00014989
     atom   45 type  2   force =     0.00084343    0.00009566   -0.00028239
     atom   46 type  2   force =    -0.00033887   -0.00077826   -0.00028239
     atom   47 type  2   force =    -0.00102427   -0.00215119   -0.00014989
     atom   48 type  2   force =    -0.00135085    0.00196264   -0.00014989
     atom   49 type  2   force =    -0.00362176   -0.00148997   -0.00379439
     atom   50 type  2   force =    -0.00052053   -0.00388151    0.00379439
     atom   51 type  2   force =     0.00052053    0.00388151   -0.00379439
     atom   52 type  2   force =     0.00310122   -0.00239155   -0.00379439
     atom   53 type  2   force =    -0.00310122    0.00239155    0.00379439
     atom   54 type  2   force =     0.00362176    0.00148996    0.00379439
     atom   55 type  2   force =     0.00135085   -0.00196264    0.00014989
     atom   56 type  2   force =    -0.00084343   -0.00009566    0.00028239
     atom   57 type  2   force =    -0.00237512   -0.00018855    0.00014989
     atom   58 type  2   force =     0.00102427    0.00215119    0.00014989
     atom   59 type  2   force =     0.00033887    0.00077826    0.00028239
     atom   60 type  2   force =     0.00050456   -0.00068260    0.00028239
     atom   61 type  1   force =     0.00000000    0.00000000   -0.00535119
     atom   62 type  1   force =     0.00000000   -0.00000000   -0.00195507
     atom   63 type  1   force =    -0.00000000   -0.00000000    0.00066835
     atom   64 type  1   force =     0.00000000    0.00000000    0.00119081
     atom   65 type  1   force =    -0.00000000   -0.00000000   -0.00134433
     atom   66 type  1   force =     0.00000000    0.00000000    0.00309578
     atom   67 type  1   force =     0.00000000    0.00000000   -0.00309578
     atom   68 type  1   force =     0.00000000    0.00000000    0.00134433
     atom   69 type  1   force =     0.00000000    0.00000000   -0.00119081
     atom   70 type  1   force =     0.00000000    0.00000000   -0.00066835
     atom   71 type  1   force =     0.00000000   -0.00000000    0.00195507
     atom   72 type  1   force =     0.00000000   -0.00000000    0.00535119
     atom   73 type  2   force =    -0.00050456    0.00068260   -0.00028239
     atom   74 type  2   force =     0.00237512    0.00018855   -0.00014989
     atom   75 type  2   force =     0.00084343    0.00009566   -0.00028239
     atom   76 type  2   force =    -0.00033887   -0.00077826   -0.00028239
     atom   77 type  2   force =    -0.00102427   -0.00215119   -0.00014989
     atom   78 type  2   force =    -0.00135085    0.00196264   -0.00014989
     atom   79 type  2   force =    -0.00362176   -0.00148996   -0.00379439
     atom   80 type  2   force =    -0.00052053   -0.00388151    0.00379439
     atom   81 type  2   force =     0.00052053    0.00388151   -0.00379439
     atom   82 type  2   force =     0.00310122   -0.00239155   -0.00379439
     atom   83 type  2   force =    -0.00310122    0.00239155    0.00379439
     atom   84 type  2   force =     0.00362176    0.00148997    0.00379439
     atom   85 type  2   force =     0.00135085   -0.00196264    0.00014989
     atom   86 type  2   force =    -0.00084343   -0.00009566    0.00028239
     atom   87 type  2   force =    -0.00237512   -0.00018855    0.00014989
     atom   88 type  2   force =     0.00102427    0.00215119    0.00014989
     atom   89 type  2   force =     0.00033887    0.00077826    0.00028239
     atom   90 type  2   force =     0.00050456   -0.00068260    0.00028239
     atom   91 type  1   force =     0.00000000    0.00000000   -0.00535119
     atom   92 type  1   force =     0.00000000    0.00000000   -0.00195507
     atom   93 type  1   force =    -0.00000000    0.00000000    0.00066835
     atom   94 type  1   force =     0.00000000    0.00000000    0.00119081
     atom   95 type  1   force =     0.00000000    0.00000000   -0.00134433
     atom   96 type  1   force =    -0.00000000    0.00000000    0.00309578
     atom   97 type  1   force =    -0.00000000    0.00000000   -0.00309578
     atom   98 type  1   force =    -0.00000000   -0.00000000    0.00134433
     atom   99 type  1   force =    -0.00000000    0.00000000   -0.00119081
     atom  100 type  1   force =     0.00000000   -0.00000000   -0.00066835
     atom  101 type  1   force =     0.00000000   -0.00000000    0.00195507
     atom  102 type  1   force =    -0.00000000    0.00000000    0.00535119
     atom  103 type  2   force =    -0.00050456    0.00068260   -0.00028239
     atom  104 type  2   force =     0.00237512    0.00018855   -0.00014989
     atom  105 type  2   force =     0.00084342    0.00009566   -0.00028239
     atom  106 type  2   force =    -0.00033887   -0.00077826   -0.00028239
     atom  107 type  2   force =    -0.00102427   -0.00215119   -0.00014989
     atom  108 type  2   force =    -0.00135085    0.00196264   -0.00014989
     atom  109 type  2   force =    -0.00362176   -0.00148996   -0.00379439
     atom  110 type  2   force =    -0.00052053   -0.00388151    0.00379439
     atom  111 type  2   force =     0.00052053    0.00388152   -0.00379439
     atom  112 type  2   force =     0.00310122   -0.00239155   -0.00379439
     atom  113 type  2   force =    -0.00310123    0.00239155    0.00379439
     atom  114 type  2   force =     0.00362176    0.00148996    0.00379439
     atom  115 type  2   force =     0.00135085   -0.00196264    0.00014989
     atom  116 type  2   force =    -0.00084343   -0.00009566    0.00028239
     atom  117 type  2   force =    -0.00237512   -0.00018855    0.00014989
     atom  118 type  2   force =     0.00102427    0.00215119    0.00014989
     atom  119 type  2   force =     0.00033887    0.00077826    0.00028239
     atom  120 type  2   force =     0.00050456   -0.00068260    0.00028239

     Total force =     0.035147     Total SCF correction =     0.000084


     Computing stress (Cartesian axis) and pressure


     negative rho (up, down):  4.792E-03 0.000E+00
          total   stress  (Ry/bohr**3)                   (kbar)     P=        8.61
   0.00012952   0.00000000   0.00000000           19.05        0.00        0.00
   0.00000000   0.00012952   0.00000000            0.00       19.05        0.00
   0.00000000   0.00000000  -0.00008345            0.00        0.00      -12.28

     Energy error            =      3.1E-03 Ry
     Gradient error          =      5.4E-03 Ry/Bohr

     number of scf cycles    =   8
     number of bfgs steps    =   7

     energy             old  =   -4910.9316736283 Ry
     energy             new  =   -4910.9347301691 Ry

     CASE: energy            _new < energy            _old

     new trust radius        =       0.0126558240 bohr
     new conv_thr            =       0.0000000005 Ry


ATOMIC_POSITIONS (angstrom)
Al              -0.0000000005        2.7741837620       24.0405808438
Al               2.4025136104        1.3870918805       22.1060855683
Al               0.0000000000       -0.0000000000       21.6472629473
Al               0.0000000002        2.7741837609       19.9323050581
Al               0.0000000000       -0.0000000000       15.0587980453
Al              -0.0000000038        2.7741837566       14.0325630527
Al               2.4025136052        1.3870918816       25.3161966973
Al               0.0000000000       -0.0000000000       24.2899617047
Al               2.4025136109        1.3870918802       19.4164546919
Al               0.0000000000       -0.0000000000       17.7014968027
Al              -0.0000000003        2.7741837606       17.2426741817
Al               2.4025136115        1.3870918815       15.3081789062
O                0.9302842056        1.3817220673       20.7787545350
O                1.6578964629        2.8632738262       23.0057192761
O                3.1339779482        2.6647648565       20.7787545366
O                3.1432787265        0.1147886854       20.7787545351
O                4.0532332485        1.2938582715       23.0057192736
O                1.4964111196        0.0041435440       23.0057192747
O               -1.5152794053        2.8404783942       25.1896640385
O                1.5874610955        0.1079687425       14.1590957094
O                0.8150525132        4.0533068923       25.1896640428
O                0.7002268373        1.4287660111       25.1896640406
O                1.7022867648        2.7325096283       14.1590957115
O                3.9177930153        1.3207972421       14.1590957072
O                3.3086161013       -0.0041435416       16.3430404739
O               -0.7314643380        1.4965107822       18.5700052150
O                0.7446171455        1.2980018158       16.3430404753
O                3.1543075838        2.8674173676       16.3430404731
O               -0.7407651152        4.0464869446       18.5700052134
O                1.4722294040        2.7795535730       18.5700052149
Al              -2.4025136080        6.9354593995       24.0405808438
Al               0.0000000000        5.5483675200       22.1060855676
Al              -2.4025136101        4.1612756399       21.6472629496
Al              -2.4025136094        6.9354593994       19.9323050581
Al              -2.4025136102        4.1612756416       15.0587980412
Al              -2.4025136111        6.9354594050       14.0325630527
Al               0.0000000000        5.5483675200       25.3161967025
Al              -2.4025136098        4.1612756384       24.2899617088
Al               0.0000000000        5.5483675200       19.4164546897
Al              -2.4025136099        4.1612756401       17.7014968004
Al              -2.4025136093        6.9354593999       17.2426741817
Al               0.0000000000        5.5483675200       15.3081789080
O               -1.4722294047        5.5429977059       20.7787545349
O               -0.7446171461        7.0245494642       23.0057192769
O                0.7314643369        6.8260404887       20.7787545349
O                0.7407651178        4.2760643253       20.7787545349
O                1.6507196362        5.4551339124       23.0057192769
O               -0.9061024901        4.1654191834       23.0057192769
O               -3.9177930118        7.0017540414       25.1896640406
O               -0.8150525120        4.2692443767       14.1590957122
O               -1.5874611000        8.2145825341       25.1896640385
O               -1.7022867679        5.5900416498       25.1896640428
O               -0.7002268435        6.8937852596       14.1590957122
O                1.5152794055        5.4820728836       14.1590957122
O                0.9061024920        4.1571320981       16.3430404764
O               -3.1339779476        5.6577864224       18.5700052149
O               -1.6578964636        5.4592774534       16.3430404764
O                0.7517939715        7.0286930085       16.3430404764
O               -3.1432787264        8.2077625851       18.5700052150
O               -0.9302842066        6.9408292119       18.5700052134
Al               4.8050272200        2.7741837600       24.0405808420
Al               7.2075408293        1.3870918801       22.1060855683
Al               4.8050272199        0.0000000002       21.6472629496
Al               4.8050272200        2.7741837600       19.9323050603
Al               4.8050272215       -0.0000000006       15.0587980412
Al               4.8050272200        2.7741837600       14.0325630475
Al               7.2075408311        1.3870918750       25.3161966973
Al               4.8050272185        0.0000000006       24.2899617088
Al               7.2075408294        1.3870918806       19.4164546919
Al               4.8050272201       -0.0000000002       17.7014968004
Al               4.8050272200        2.7741837600       17.2426741824
Al               7.2075408280        1.3870918805       15.3081789062
O                5.7353114266        1.3817220681       20.7787545366
O                6.4629236836        2.8632738266       23.0057192736
O                7.9390051676        2.6647648576       20.7787545351
O                7.9483059464        0.1147886849       20.7787545350
O                8.8582604659        1.2938582718       23.0057192747
O                6.3014383387        0.0041435416       23.0057192761
O                3.2897478145        2.8404783964       25.1896640378
O                6.3924883200        0.1079687359       14.1590957115
O                5.6200797320        4.0533068933       25.1896640378
O                5.5052540635        1.4287660104       25.1896640378
O                6.5073139879        2.7325096302       14.1590957072
O                8.7228202318        1.3207972386       14.1590957094
O                8.1136433204       -0.0041435440       16.3430404753
O                4.0735628831        1.4965107813       18.5700052151
O                5.5496443661        1.2980018158       16.3430404731
O                7.9593348016        2.8674173678       16.3430404739
O                4.0642621022        4.0464869447       18.5700052151
O                6.2772566247        2.7795535741       18.5700052151
Al               2.4025136085        6.9354593985       24.0405808438
Al               4.8050272203        5.5483675194       22.1060855683
Al               2.4025136102        4.1612756400       21.6472629496
Al               2.4025136091        6.9354593998       19.9323050581
Al               2.4025136087        4.1612756390       15.0587980412
Al               2.4025136148        6.9354593984       14.0325630527
Al               4.8050272238        5.5483675234       25.3161966973
Al               2.4025136113        4.1612756410       24.2899617088
Al               4.8050272198        5.5483675191       19.4164546919
Al               2.4025136098        4.1612756400       17.7014968004
Al               2.4025136096        6.9354593995       17.2426741817
Al               4.8050272205        5.5483675180       15.3081789062
O                3.3327978160        5.5429977070       20.7787545351
O                4.0604100745        7.0245494642       23.0057192747
O                5.5364915580        6.8260404878       20.7787545350
O                5.5457923352        4.2760643254       20.7787545366
O                6.4557468584        5.4551339122       23.0057192761
O                3.8989247280        4.1654191819       23.0057192736
O                0.8872342047        7.0017540379       25.1896640428
O                3.9899747068        4.2692443777       14.1590957072
O                3.2175661245        8.2145825275       25.1896640406
O                3.1027404552        5.5900416517       25.1896640385
O                4.1048003827        6.8937852589       14.1590957094
O                6.3203066253        5.4820728858       14.1590957115
O                5.7111297101        4.1571320966       16.3430404731
O                1.6710492718        5.6577864235       18.5700052134
O                3.1471307571        5.4592774538       16.3430404739
O                5.5568211941        7.0286930082       16.3430404753
O                1.6617484935        8.2077625846       18.5700052149
O                3.8747430144        6.9408292127       18.5700052150



     Writing config-only to output data dir ./tmp/al2o3.save/ :
     XML data file
     NEW-OLD atomic charge density approx. for the potential

     negative rho (up, down):  4.816E-03 0.000E+00

     total cpu time spent up to now is    16238.0 secs

     Self-consistent Calculation

     iteration #  1     ecut=    60.00 Ry     beta= 0.30
     Davidson diagonalization with overlap
     ethr =  1.00E-06,  avg # of iterations =  4.0

     negative rho (up, down):  4.807E-03 0.000E+00

     total cpu time spent up to now is    16370.1 secs

     total energy              =   -4910.93634869 Ry
     estimated scf accuracy    <       0.00072393 Ry

     iteration #  2     ecut=    60.00 Ry     beta= 0.30
     Davidson diagonalization with overlap
     ethr =  1.26E-07,  avg # of iterations =  2.0

     negative rho (up, down):  4.793E-03 0.000E+00

     total cpu time spent up to now is    16449.7 secs

     total energy              =   -4910.93628249 Ry
     estimated scf accuracy    <       0.00025768 Ry

     iteration #  3     ecut=    60.00 Ry     beta= 0.30
     Davidson diagonalization with overlap
     ethr =  4.47E-08,  avg # of iterations =  2.8

     negative rho (up, down):  4.792E-03 0.000E+00

     total cpu time spent up to now is    16538.3 secs

     total energy              =   -4910.93634886 Ry
     estimated scf accuracy    <       0.00002187 Ry

     iteration #  4     ecut=    60.00 Ry     beta= 0.30
     Davidson diagonalization with overlap
     ethr =  3.80E-09,  avg # of iterations =  3.8

     negative rho (up, down):  4.787E-03 0.000E+00

     total cpu time spent up to now is    16625.9 secs

     total energy              =   -4910.93635176 Ry
     estimated scf accuracy    <       0.00000752 Ry

     iteration #  5     ecut=    60.00 Ry     beta= 0.30
     Davidson diagonalization with overlap
     ethr =  1.31E-09,  avg # of iterations =  3.2

     negative rho (up, down):  4.787E-03 0.000E+00

     total cpu time spent up to now is    16716.3 secs

     total energy              =   -4910.93635270 Ry
     estimated scf accuracy    <       0.00000323 Ry

     iteration #  6     ecut=    60.00 Ry     beta= 0.30
     Davidson diagonalization with overlap
     ethr =  5.60E-10,  avg # of iterations =  2.8

     negative rho (up, down):  4.786E-03 0.000E+00

     total cpu time spent up to now is    16805.2 secs

     total energy              =   -4910.93635388 Ry
     estimated scf accuracy    <       0.00000119 Ry

     iteration #  7     ecut=    60.00 Ry     beta= 0.30
     Davidson diagonalization with overlap
     ethr =  2.06E-10,  avg # of iterations =  2.0

     negative rho (up, down):  4.786E-03 0.000E+00

     total cpu time spent up to now is    16882.0 secs

     total energy              =   -4910.93635376 Ry
     estimated scf accuracy    <       0.00000038 Ry

     iteration #  8     ecut=    60.00 Ry     beta= 0.30
     Davidson diagonalization with overlap
     ethr =  6.53E-11,  avg # of iterations =  3.0

     negative rho (up, down):  4.786E-03 0.000E+00

     total cpu time spent up to now is    16971.3 secs

     total energy              =   -4910.93635389 Ry
     estimated scf accuracy    <       0.00000005 Ry

     iteration #  9     ecut=    60.00 Ry     beta= 0.30
     Davidson diagonalization with overlap
     ethr =  8.80E-12,  avg # of iterations =  2.2

     negative rho (up, down):  4.786E-03 0.000E+00

     total cpu time spent up to now is    17057.6 secs

     total energy              =   -4910.93635390 Ry
     estimated scf accuracy    <          2.0E-09 Ry

     iteration # 10     ecut=    60.00 Ry     beta= 0.30
     Davidson diagonalization with overlap
     ethr =  3.54E-13,  avg # of iterations =  5.0

     negative rho (up, down):  4.787E-03 0.000E+00

     total cpu time spent up to now is    17178.4 secs

     total energy              =   -4910.93635391 Ry
     estimated scf accuracy    <          1.9E-09 Ry

     iteration # 11     ecut=    60.00 Ry     beta= 0.30
     Davidson diagonalization with overlap
     ethr =  3.23E-13,  avg # of iterations =  2.8

     negative rho (up, down):  4.787E-03 0.000E+00

     total cpu time spent up to now is    17267.4 secs

     End of self-consistent calculation

          k = 0.0000 0.0000 0.0000 (166875 PWs)   bands (ev):

   -20.7325 -20.4239 -20.0671 -19.8186 -19.8186 -19.8186 -19.7516 -19.7516
   -19.7516 -19.5688 -19.5688 -19.5688 -19.5192 -19.3867 -19.3867 -19.3867
   -19.1498 -19.1498 -19.1498 -19.1358 -19.1358 -19.1358 -18.8986 -18.8178
   -18.8178 -18.8178 -18.7371 -18.7371 -18.7371 -18.6865 -18.6779 -18.6779
   -18.6779 -18.5308 -18.5308 -18.5308 -18.4413 -18.4413 -18.4413 -18.4120
   -18.4120 -18.4120 -18.3830 -18.3830 -18.3004 -18.3004 -18.3004 -18.2693
   -18.2693 -18.2561 -18.2561 -18.2561 -18.2386 -18.2386 -18.2386 -18.2039
   -18.2039 -18.1892 -18.1892 -18.1473 -18.1473 -18.1473 -18.0606 -18.0606
   -18.0606 -18.0347 -18.0347 -18.0226 -18.0226 -18.0226 -18.0219 -18.0219
    -8.3149  -8.1042  -8.1042  -8.1042  -8.0136  -8.0136  -8.0136  -7.7525
    -7.7525  -7.7525  -7.6448  -7.5959  -7.5959  -7.5959  -7.4267  -7.4165
    -7.3105  -7.3105  -7.3105  -7.1452  -7.1452  -7.1452  -7.1135  -7.1135
    -6.9952  -6.9455  -6.9455  -6.9455  -6.8119  -6.8119  -6.8119  -6.7639
    -6.7639  -6.6379  -6.5714  -6.5714  -6.5714  -6.5530  -6.5530  -6.5530
    -6.4392  -6.4237  -6.4237  -6.4237  -6.2805  -6.2805  -5.9725  -5.8571
    -5.8571  -5.8312  -5.8312  -5.8312  -5.7348  -5.7348  -5.7348  -5.7172
    -5.7172  -5.6768  -5.6768  -5.6768  -5.5834  -5.5834  -5.5674  -5.5310
    -5.5310  -5.5310  -5.4838  -5.4838  -5.4838  -5.4219  -5.4219  -5.4219
    -5.3345  -5.2951  -5.2951  -5.2951  -5.1955  -5.1915  -5.1915  -5.1915
    -5.0996  -5.0996  -5.0996  -4.9674  -4.9674  -4.9674  -4.9338  -4.7789
    -4.7789  -4.7789  -4.7016  -4.6048  -4.6048  -4.6048  -4.4828  -4.3591
    -4.3120  -4.3120  -4.3120  -4.1906  -4.1906  -4.1906  -4.0778  -4.0778
    -4.0778  -3.9906  -3.9906  -3.9906  -3.9757  -3.9757  -3.9757  -3.9655
    -3.9655  -3.9637  -3.9637  -3.9637  -3.8849  -3.8849  -3.7372  -3.7080
    -3.7080  -3.7080  -3.6727  -3.6727  -3.6727  -3.4849  -3.4849  -3.4849
    -3.4427  -3.4427  -3.4427  -3.3819  -3.3819  -3.3819  -3.3273  -3.3273
    -3.2801  -3.2801  -3.2537  -3.2537  -3.2537  -3.2181  -3.2181  -3.2181
    -3.2070  -3.2070  -3.2070  -3.1441  -3.1441  -3.1441  -3.1021  -3.1021
    -3.1021  -3.0100  -3.0100  -3.0100  -2.9134  -2.9134  -2.9134  -2.9068
    -2.9068  -2.9068  -2.9049  -2.9049  -2.8895  -2.8895  -2.8882  -2.8882
    -2.8882  -2.8733  -2.8733  -2.8733  -2.8060  -2.8060  -2.8060  -2.7780
    -2.6891  -2.6891  -2.6891  -2.5191  -2.5191  -2.5191  -2.5009  -2.5009
    -2.5009  -2.3883  -2.3883  -2.3883  -2.3691  -2.3691  -2.2937  -2.2937
    -2.2937  -2.2920  -2.2920  -2.1607  -2.1597  -2.1597  -2.0751  -2.0751
    -2.0751  -2.0372  -2.0372  -2.0372  -2.0263  -2.0263  -1.9608  -1.9608
    -1.9608  -1.9037  -1.9037  -1.9037  -1.8093  -1.8093  -1.8009  -1.8009

          k = 0.0000 0.2887 0.0000 (166721 PWs)   bands (ev):

   -20.6634 -20.3574 -20.1523 -20.0067 -19.9292 -19.9292 -19.8752 -19.6916
   -19.6899 -19.5962 -19.5380 -19.5323 -19.4713 -19.3550 -19.3491 -19.3229
   -19.1397 -19.1308 -19.0266 -19.0263 -19.0111 -18.9870 -18.8827 -18.8713
   -18.8630 -18.8152 -18.7754 -18.7515 -18.6725 -18.6524 -18.6444 -18.6268
   -18.6143 -18.5859 -18.5684 -18.5266 -18.5183 -18.5150 -18.4824 -18.4811
   -18.4511 -18.4271 -18.4147 -18.4114 -18.3513 -18.3443 -18.3401 -18.3398
   -18.3150 -18.2867 -18.2855 -18.2602 -18.2536 -18.2507 -18.2257 -18.2072
   -18.2022 -18.1960 -18.1522 -18.1151 -18.0984 -18.0775 -18.0670 -18.0583
   -18.0376 -18.0308 -18.0182 -18.0169 -18.0151 -18.0133 -18.0110 -18.0008
    -8.2591  -8.1117  -8.0054  -7.9869  -7.9100  -7.8880  -7.8657  -7.7464
    -7.7077  -7.6260  -7.6175  -7.5743  -7.5155  -7.5077  -7.5021  -7.4896
    -7.4611  -7.4440  -7.3783  -7.2911  -7.1335  -7.1324  -7.1065  -7.1005
    -7.0738  -7.0657  -7.0446  -6.9672  -6.9322  -6.8365  -6.8007  -6.7577
    -6.7411  -6.6912  -6.6736  -6.6573  -6.6287  -6.5905  -6.5644  -6.4671
    -6.4581  -6.4577  -6.4501  -6.4492  -6.2386  -6.1619  -6.0675  -6.0587
    -6.0452  -5.9712  -5.9648  -5.9128  -5.9122  -5.8302  -5.8121  -5.8033
    -5.8000  -5.7474  -5.7416  -5.7282  -5.7221  -5.6248  -5.6101  -5.5910
    -5.5503  -5.5319  -5.5167  -5.4810  -5.4549  -5.4290  -5.3889  -5.3736
    -5.2092  -5.1518  -5.0847  -5.0652  -5.0085  -5.0045  -5.0038  -4.9793
    -4.9705  -4.9609  -4.9338  -4.9148  -4.8819  -4.8122  -4.7992  -4.6866
    -4.6653  -4.5928  -4.5742  -4.5637  -4.5002  -4.4374  -4.4117  -4.4059
    -4.3781  -4.3434  -4.3303  -4.3140  -4.2293  -4.2107  -4.2062  -4.1817
    -4.1478  -4.1176  -4.1030  -4.0778  -4.0403  -3.9971  -3.9856  -3.9449
    -3.8780  -3.8434  -3.8242  -3.8130  -3.8036  -3.7740  -3.7679  -3.7554
    -3.7076  -3.6978  -3.6778  -3.6349  -3.6077  -3.5654  -3.5637  -3.5351
    -3.5047  -3.4964  -3.4301  -3.4283  -3.4045  -3.4034  -3.3996  -3.3995
    -3.3437  -3.3373  -3.3333  -3.3050  -3.2848  -3.2609  -3.2498  -3.2245
    -3.2146  -3.1872  -3.1778  -3.1719  -3.1685  -3.1318  -3.1182  -3.1156
    -3.1114  -3.0612  -3.0448  -3.0297  -3.0206  -3.0018  -2.9950  -2.9851
    -2.9704  -2.9409  -2.9238  -2.9092  -2.8776  -2.8699  -2.8635  -2.8414
    -2.7759  -2.7560  -2.7468  -2.7083  -2.7029  -2.6808  -2.6750  -2.6671
    -2.6651  -2.6618  -2.5951  -2.5436  -2.5223  -2.5157  -2.5064  -2.4960
    -2.4669  -2.4456  -2.4374  -2.4192  -2.3822  -2.3309  -2.3301  -2.3201
    -2.2922  -2.2915  -2.2889  -2.2710  -2.2343  -2.1664  -2.1040  -2.0841
    -2.0814  -2.0687  -2.0679  -2.0353  -2.0319  -2.0177  -2.0132  -1.9742
    -1.9633  -1.9538  -1.9280  -1.9105  -1.9035  -1.8920  -1.8364  -1.8073

          k = 0.0000-0.5774 0.0000 (166636 PWs)   bands (ev):

   -20.4627 -20.4627 -20.1651 -20.1651 -19.9803 -19.9803 -19.8343 -19.8343
   -19.7175 -19.7175 -19.4723 -19.4723 -19.3456 -19.3456 -19.2944 -19.2944
   -19.0759 -19.0759 -18.9880 -18.9880 -18.8559 -18.8559 -18.8389 -18.8389
   -18.8030 -18.8030 -18.7327 -18.7327 -18.7041 -18.7041 -18.6867 -18.6867
   -18.6503 -18.6503 -18.5666 -18.5666 -18.5021 -18.5021 -18.4670 -18.4670
   -18.4563 -18.4563 -18.4473 -18.4473 -18.4221 -18.4221 -18.4170 -18.4170
   -18.3413 -18.3413 -18.3235 -18.3235 -18.2636 -18.2636 -18.2455 -18.2455
   -18.1362 -18.1362 -18.1010 -18.1010 -18.0625 -18.0625 -18.0464 -18.0464
   -18.0307 -18.0307 -18.0240 -18.0240 -18.0009 -18.0009 -17.9951 -17.9951
    -8.1381  -8.1381  -7.8201  -7.8201  -7.7745  -7.7745  -7.7023  -7.7023
    -7.6694  -7.6694  -7.6163  -7.6163  -7.5678  -7.5678  -7.4020  -7.4020
    -7.3466  -7.3466  -7.3286  -7.3286  -7.2969  -7.2969  -7.2197  -7.2197
    -7.1139  -7.1139  -7.0829  -7.0829  -6.9862  -6.9862  -6.9794  -6.9794
    -6.7993  -6.7993  -6.7689  -6.7689  -6.5800  -6.5800  -6.5765  -6.5765
    -6.3128  -6.3128  -6.2698  -6.2698  -6.2462  -6.2462  -6.2126  -6.2126
    -6.1476  -6.1476  -6.1137  -6.1137  -5.9198  -5.9198  -5.8769  -5.8769
    -5.8037  -5.8037  -5.7139  -5.7139  -5.7007  -5.7007  -5.6995  -5.6995
    -5.6208  -5.6208  -5.4063  -5.4063  -5.2404  -5.2404  -5.2163  -5.2163
    -5.1098  -5.1098  -5.0716  -5.0716  -5.0138  -5.0138  -4.9332  -4.9332
    -4.8718  -4.8718  -4.7800  -4.7800  -4.7073  -4.7073  -4.7008  -4.7008
    -4.6009  -4.6009  -4.5291  -4.5291  -4.4839  -4.4839  -4.3559  -4.3559
    -4.2914  -4.2914  -4.2622  -4.2622  -4.2206  -4.2206  -4.0785  -4.0785
    -4.0541  -4.0541  -4.0352  -4.0352  -4.0210  -4.0210  -3.9229  -3.9229
    -3.8713  -3.8713  -3.8518  -3.8518  -3.8456  -3.8456  -3.7920  -3.7920
    -3.7130  -3.7130  -3.6793  -3.6793  -3.6234  -3.6234  -3.5915  -3.5915
    -3.5520  -3.5520  -3.5315  -3.5315  -3.4556  -3.4556  -3.4230  -3.4230
    -3.3681  -3.3681  -3.2992  -3.2992  -3.2879  -3.2879  -3.2300  -3.2300
    -3.2259  -3.2259  -3.1874  -3.1874  -3.1687  -3.1687  -3.1429  -3.1429
    -3.0869  -3.0869  -3.0592  -3.0592  -3.0181  -3.0181  -3.0001  -3.0001
    -2.9510  -2.9510  -2.8837  -2.8837  -2.8286  -2.8286  -2.8077  -2.8077
    -2.8066  -2.8066  -2.7365  -2.7365  -2.6797  -2.6797  -2.6640  -2.6640
    -2.6564  -2.6564  -2.6045  -2.6045  -2.5560  -2.5560  -2.5084  -2.5084
    -2.4810  -2.4810  -2.3932  -2.3932  -2.3807  -2.3807  -2.3102  -2.3102
    -2.2744  -2.2744  -2.2392  -2.2392  -2.2289  -2.2289  -2.1976  -2.1976
    -2.1297  -2.1297  -2.0567  -2.0567  -2.0508  -2.0508  -1.9588  -1.9588
    -1.9499  -1.9499  -1.9202  -1.9202  -1.8939  -1.8939  -1.8680  -1.8680

          k = 0.2500 0.4330 0.0000 (166642 PWs)   bands (ev):

   -20.5284 -20.2723 -20.2723 -20.2279 -19.9850 -19.9849 -19.8901 -19.6779
   -19.6775 -19.6673 -19.6099 -19.4490 -19.3830 -19.3754 -19.2670 -19.2656
   -19.1348 -19.0697 -18.9572 -18.9519 -18.9441 -18.8593 -18.8561 -18.8449
   -18.8126 -18.7556 -18.7379 -18.7307 -18.7150 -18.6520 -18.6485 -18.6389
   -18.6288 -18.5849 -18.5795 -18.5730 -18.5538 -18.5517 -18.5486 -18.4733
   -18.4624 -18.4591 -18.4463 -18.4385 -18.4265 -18.4115 -18.3858 -18.3687
   -18.3593 -18.3589 -18.3228 -18.3055 -18.2999 -18.2635 -18.2537 -18.2088
   -18.1675 -18.1384 -18.0919 -18.0869 -18.0864 -18.0581 -18.0457 -18.0404
   -18.0329 -18.0251 -18.0214 -18.0145 -18.0047 -17.9991 -17.9989 -17.9941
    -8.1513  -8.0279  -8.0144  -7.8321  -7.7828  -7.7699  -7.7341  -7.7117
    -7.6504  -7.6495  -7.5730  -7.5415  -7.5179  -7.4731  -7.4657  -7.4232
    -7.3898  -7.3652  -7.3585  -7.3387  -7.2817  -7.2676  -7.2597  -7.1751
    -7.1663  -7.1458  -7.0864  -7.0261  -7.0006  -6.9892  -6.9446  -6.8158
    -6.8139  -6.8042  -6.7695  -6.7556  -6.6656  -6.5963  -6.5780  -6.5292
    -6.4295  -6.3293  -6.3207  -6.3142  -6.2902  -6.2441  -6.2146  -6.1885
    -6.1725  -6.0878  -6.0801  -6.0269  -5.9666  -5.9504  -5.9131  -5.8842
    -5.8161  -5.7833  -5.7431  -5.7203  -5.7188  -5.6906  -5.5967  -5.5553
    -5.5140  -5.4815  -5.4471  -5.4378  -5.4131  -5.3993  -5.3023  -5.2717
    -5.2111  -5.1854  -5.1218  -5.0605  -5.0419  -4.9464  -4.9148  -4.8512
    -4.8449  -4.8061  -4.7953  -4.7712  -4.6932  -4.6883  -4.6172  -4.5853
    -4.5814  -4.5479  -4.5406  -4.4898  -4.4201  -4.3943  -4.3929  -4.3365
    -4.3164  -4.2998  -4.2681  -4.2207  -4.2005  -4.1785  -4.1597  -4.1539
    -4.0461  -4.0426  -4.0228  -4.0129  -3.9905  -3.9631  -3.9485  -3.9460
    -3.9156  -3.9070  -3.8680  -3.8590  -3.8472  -3.8230  -3.7819  -3.7806
    -3.7710  -3.6791  -3.6712  -3.6665  -3.6664  -3.6328  -3.6299  -3.6153
    -3.5796  -3.5774  -3.5538  -3.5426  -3.4997  -3.4717  -3.4468  -3.4041
    -3.3971  -3.3664  -3.3572  -3.3433  -3.3236  -3.3133  -3.2579  -3.2571
    -3.2442  -3.2240  -3.2141  -3.1999  -3.1918  -3.1529  -3.0991  -3.0883
    -3.0604  -3.0282  -3.0255  -3.0190  -3.0019  -2.9985  -2.9959  -2.9509
    -2.9466  -2.9350  -2.9077  -2.8928  -2.8630  -2.8464  -2.8405  -2.7730
    -2.7690  -2.7632  -2.7437  -2.6992  -2.6952  -2.6834  -2.6651  -2.6562
    -2.6438  -2.6283  -2.6105  -2.6073  -2.5757  -2.5655  -2.5293  -2.4839
    -2.4671  -2.4543  -2.4338  -2.4216  -2.3802  -2.3448  -2.3365  -2.3014
    -2.2923  -2.2887  -2.2708  -2.2638  -2.2425  -2.2240  -2.1994  -2.1542
    -2.1266  -2.1173  -2.1033  -2.0909  -2.0584  -2.0119  -1.9910  -1.9680
    -1.9424  -1.9415  -1.9335  -1.8828  -1.8801  -1.8763  -1.8643  -1.8214

     highest occupied level (ev):    -1.8009

!    total energy              =   -4910.93635390 Ry
     total all-electron energy =    -34162.766123 Ry
     estimated scf accuracy    <          5.1E-10 Ry

     The total energy is the sum of the following terms:
     one-electron contribution =  -81117.13810345 Ry
     hartree contribution      =   40794.53953170 Ry
     xc contribution           =    -676.09916630 Ry
     ewald contribution        =   38435.70894072 Ry
     one-center paw contrib.   =   -2347.94755658 Ry

     convergence has been achieved in  11 iterations

     negative rho (up, down):  4.787E-03 0.000E+00

     Forces acting on atoms (cartesian axes, Ry/au):

     atom    1 type  1   force =     0.00000000   -0.00000000   -0.00555882
     atom    2 type  1   force =     0.00000000    0.00000000   -0.00119609
     atom    3 type  1   force =     0.00000000    0.00000000    0.00036195
     atom    4 type  1   force =     0.00000000    0.00000000    0.00058050
     atom    5 type  1   force =     0.00000000   -0.00000000   -0.00101580
     atom    6 type  1   force =     0.00000000    0.00000000    0.00370330
     atom    7 type  1   force =     0.00000000    0.00000000   -0.00370330
     atom    8 type  1   force =     0.00000000    0.00000000    0.00101580
     atom    9 type  1   force =     0.00000000   -0.00000000   -0.00058050
     atom   10 type  1   force =     0.00000000    0.00000000   -0.00036195
     atom   11 type  1   force =    -0.00000000    0.00000000    0.00119609
     atom   12 type  1   force =    -0.00000000   -0.00000000    0.00555882
     atom   13 type  2   force =    -0.00009201    0.00043590   -0.00048422
     atom   14 type  2   force =     0.00037580    0.00110417   -0.00133969
     atom   15 type  2   force =     0.00042350   -0.00013827   -0.00048422
     atom   16 type  2   force =    -0.00033150   -0.00029763   -0.00048422
     atom   17 type  2   force =     0.00076833   -0.00087754   -0.00133969
     atom   18 type  2   force =    -0.00114414   -0.00022663   -0.00133969
     atom   19 type  2   force =    -0.00216163    0.00121090   -0.00207633
     atom   20 type  2   force =    -0.00212949   -0.00126658    0.00207633
     atom   21 type  2   force =     0.00212949    0.00126658   -0.00207633
     atom   22 type  2   force =     0.00003215   -0.00247748   -0.00207633
     atom   23 type  2   force =    -0.00003215    0.00247748    0.00207633
     atom   24 type  2   force =     0.00216163   -0.00121090    0.00207633
     atom   25 type  2   force =     0.00114414    0.00022663    0.00133969
     atom   26 type  2   force =    -0.00042350    0.00013827    0.00048422
     atom   27 type  2   force =    -0.00037580   -0.00110417    0.00133969
     atom   28 type  2   force =    -0.00076834    0.00087754    0.00133969
     atom   29 type  2   force =     0.00033149    0.00029763    0.00048422
     atom   30 type  2   force =     0.00009201   -0.00043590    0.00048422
     atom   31 type  1   force =    -0.00000000    0.00000000   -0.00555882
     atom   32 type  1   force =     0.00000000    0.00000000   -0.00119609
     atom   33 type  1   force =     0.00000000   -0.00000000    0.00036195
     atom   34 type  1   force =    -0.00000000   -0.00000000    0.00058050
     atom   35 type  1   force =     0.00000000   -0.00000000   -0.00101580
     atom   36 type  1   force =     0.00000000   -0.00000000    0.00370330
     atom   37 type  1   force =     0.00000000    0.00000000   -0.00370330
     atom   38 type  1   force =    -0.00000000    0.00000000    0.00101580
     atom   39 type  1   force =     0.00000000    0.00000000   -0.00058050
     atom   40 type  1   force =    -0.00000000    0.00000000   -0.00036195
     atom   41 type  1   force =     0.00000000    0.00000000    0.00119609
     atom   42 type  1   force =     0.00000000    0.00000000    0.00555882
     atom   43 type  2   force =    -0.00009201    0.00043590   -0.00048422
     atom   44 type  2   force =     0.00037580    0.00110417   -0.00133969
     atom   45 type  2   force =     0.00042350   -0.00013827   -0.00048422
     atom   46 type  2   force =    -0.00033150   -0.00029763   -0.00048422
     atom   47 type  2   force =     0.00076834   -0.00087754   -0.00133969
     atom   48 type  2   force =    -0.00114414   -0.00022663   -0.00133969
     atom   49 type  2   force =    -0.00216163    0.00121090   -0.00207633
     atom   50 type  2   force =    -0.00212949   -0.00126658    0.00207633
     atom   51 type  2   force =     0.00212949    0.00126658   -0.00207633
     atom   52 type  2   force =     0.00003215   -0.00247748   -0.00207633
     atom   53 type  2   force =    -0.00003215    0.00247748    0.00207633
     atom   54 type  2   force =     0.00216163   -0.00121090    0.00207633
     atom   55 type  2   force =     0.00114414    0.00022663    0.00133969
     atom   56 type  2   force =    -0.00042350    0.00013827    0.00048422
     atom   57 type  2   force =    -0.00037580   -0.00110417    0.00133969
     atom   58 type  2   force =    -0.00076833    0.00087754    0.00133969
     atom   59 type  2   force =     0.00033150    0.00029763    0.00048422
     atom   60 type  2   force =     0.00009201   -0.00043590    0.00048422
     atom   61 type  1   force =     0.00000000   -0.00000000   -0.00555882
     atom   62 type  1   force =    -0.00000000   -0.00000000   -0.00119609
     atom   63 type  1   force =    -0.00000000   -0.00000000    0.00036195
     atom   64 type  1   force =     0.00000000   -0.00000000    0.00058050
     atom   65 type  1   force =    -0.00000000    0.00000000   -0.00101580
     atom   66 type  1   force =     0.00000000    0.00000000    0.00370330
     atom   67 type  1   force =    -0.00000000    0.00000000   -0.00370330
     atom   68 type  1   force =     0.00000000   -0.00000000    0.00101580
     atom   69 type  1   force =     0.00000000    0.00000000   -0.00058050
     atom   70 type  1   force =     0.00000000    0.00000000   -0.00036195
     atom   71 type  1   force =     0.00000000   -0.00000000    0.00119609
     atom   72 type  1   force =     0.00000000   -0.00000000    0.00555882
     atom   73 type  2   force =    -0.00009201    0.00043590   -0.00048422
     atom   74 type  2   force =     0.00037580    0.00110417   -0.00133969
     atom   75 type  2   force =     0.00042350   -0.00013827   -0.00048422
     atom   76 type  2   force =    -0.00033150   -0.00029763   -0.00048422
     atom   77 type  2   force =     0.00076834   -0.00087754   -0.00133969
     atom   78 type  2   force =    -0.00114414   -0.00022663   -0.00133969
     atom   79 type  2   force =    -0.00216163    0.00121090   -0.00207633
     atom   80 type  2   force =    -0.00212949   -0.00126658    0.00207633
     atom   81 type  2   force =     0.00212949    0.00126658   -0.00207633
     atom   82 type  2   force =     0.00003215   -0.00247748   -0.00207633
     atom   83 type  2   force =    -0.00003215    0.00247748    0.00207633
     atom   84 type  2   force =     0.00216163   -0.00121090    0.00207633
     atom   85 type  2   force =     0.00114414    0.00022663    0.00133969
     atom   86 type  2   force =    -0.00042350    0.00013827    0.00048422
     atom   87 type  2   force =    -0.00037580   -0.00110417    0.00133969
     atom   88 type  2   force =    -0.00076833    0.00087754    0.00133969
     atom   89 type  2   force =     0.00033150    0.00029763    0.00048422
     atom   90 type  2   force =     0.00009201   -0.00043590    0.00048422
     atom   91 type  1   force =     0.00000000    0.00000000   -0.00555882
     atom   92 type  1   force =     0.00000000   -0.00000000   -0.00119609
     atom   93 type  1   force =    -0.00000000    0.00000000    0.00036195
     atom   94 type  1   force =    -0.00000000    0.00000000    0.00058050
     atom   95 type  1   force =     0.00000000    0.00000000   -0.00101580
     atom   96 type  1   force =    -0.00000000   -0.00000000    0.00370330
     atom   97 type  1   force =    -0.00000000   -0.00000000   -0.00370330
     atom   98 type  1   force =    -0.00000000   -0.00000000    0.00101580
     atom   99 type  1   force =    -0.00000000   -0.00000000   -0.00058050
     atom  100 type  1   force =     0.00000000   -0.00000000   -0.00036195
     atom  101 type  1   force =    -0.00000000   -0.00000000    0.00119609
     atom  102 type  1   force =    -0.00000000    0.00000000    0.00555882
     atom  103 type  2   force =    -0.00009201    0.00043590   -0.00048422
     atom  104 type  2   force =     0.00037580    0.00110417   -0.00133969
     atom  105 type  2   force =     0.00042350   -0.00013827   -0.00048422
     atom  106 type  2   force =    -0.00033149   -0.00029763   -0.00048422
     atom  107 type  2   force =     0.00076833   -0.00087754   -0.00133969
     atom  108 type  2   force =    -0.00114414   -0.00022663   -0.00133969
     atom  109 type  2   force =    -0.00216163    0.00121090   -0.00207633
     atom  110 type  2   force =    -0.00212949   -0.00126658    0.00207633
     atom  111 type  2   force =     0.00212949    0.00126658   -0.00207633
     atom  112 type  2   force =     0.00003215   -0.00247748   -0.00207633
     atom  113 type  2   force =    -0.00003215    0.00247748    0.00207633
     atom  114 type  2   force =     0.00216163   -0.00121090    0.00207633
     atom  115 type  2   force =     0.00114414    0.00022663    0.00133969
     atom  116 type  2   force =    -0.00042350    0.00013827    0.00048422
     atom  117 type  2   force =    -0.00037580   -0.00110417    0.00133969
     atom  118 type  2   force =    -0.00076834    0.00087754    0.00133969
     atom  119 type  2   force =     0.00033150    0.00029763    0.00048422
     atom  120 type  2   force =     0.00009201   -0.00043590    0.00048422

     Total force =     0.026782     Total SCF correction =     0.000100


     Computing stress (Cartesian axis) and pressure


     negative rho (up, down):  4.787E-03 0.000E+00
          total   stress  (Ry/bohr**3)                   (kbar)     P=        9.52
   0.00013489   0.00000000   0.00000000           19.84        0.00        0.00
   0.00000000   0.00013489  -0.00000000            0.00       19.84       -0.00
   0.00000000  -0.00000000  -0.00007556            0.00       -0.00      -11.12

     Energy error            =      1.6E-03 Ry
     Gradient error          =      5.6E-03 Ry/Bohr

     number of scf cycles    =   9
     number of bfgs steps    =   8

     energy             old  =   -4910.9347301691 Ry
     energy             new  =   -4910.9363539030 Ry

     CASE: energy            _new < energy            _old

     new trust radius        =       0.0144715075 bohr
     new conv_thr            =       0.0000000006 Ry


ATOMIC_POSITIONS (angstrom)
Al              -0.0000000005        2.7741837616       24.0351961007
Al               2.4025136103        1.3870918807       22.1034307905
Al               0.0000000000       -0.0000000000       21.6488369722
Al               0.0000000003        2.7741837608       19.9339934328
Al               0.0000000000       -0.0000000000       15.0591187895
Al              -0.0000000022        2.7741837582       14.0402210444
Al               2.4025136074        1.3870918810       25.3085387056
Al               0.0000000000       -0.0000000000       24.2896409605
Al               2.4025136108        1.3870918801       19.4147663172
Al               0.0000000000        0.0000000000       17.6999227778
Al              -0.0000000004        2.7741837606       17.2453289595
Al               2.4025136111        1.3870918812       15.3135636493
O                0.9296662491        1.3823442485       20.7787893880
O                1.6609872714        2.8625695352       23.0053734061
O                3.1348257513        2.6649889319       20.7787893890
O                3.1430488793        0.1139424286       20.7787893885
O                4.0510779106        1.2915336987       23.0053734039
O                1.4954756493        0.0071724075       23.0053734051
O               -1.5168821168        2.8396118825       25.1837265334
O                1.5874101625        0.1061474951       14.1650332149
O                0.8151034457        4.0551281378       25.1837265365
O                0.7017786173        1.4278112781       25.1837265351
O                1.7007349878        2.7334643613       14.1650332166
O                3.9193957264        1.3216637561       14.1650332135
O                3.3095515717       -0.0071724057       16.3433863439
O               -0.7323121410        1.4962867067       18.5699703620
O                0.7415263375        1.2987061065       16.3433863449
O                3.1564629215        2.8697419410       16.3433863431
O               -0.7405352686        4.0473332014       18.5699703610
O                1.4728473603        2.7789313911       18.5699703615
Al              -2.4025136084        6.9354593996       24.0351961007
Al               0.0000000000        5.5483675200       22.1034307907
Al              -2.4025136100        4.1612756397       21.6488369743
Al              -2.4025136095        6.9354593993       19.9339934328
Al              -2.4025136097        4.1612756408       15.0591187864
Al              -2.4025136104        6.9354594028       14.0402210444
Al               0.0000000000        5.5483675200       25.3085387105
Al              -2.4025136103        4.1612756392       24.2896409636
Al               0.0000000000        5.5483675200       19.4147663160
Al              -2.4025136100        4.1612756403       17.6999227757
Al              -2.4025136093        6.9354594001       17.2453289595
Al               0.0000000000        5.5483675200       15.3135636508
O               -1.4728473613        5.5436198878       20.7787893885
O               -0.7415263377        7.0238451737       23.0053734069
O                0.7323121406        6.8262645640       20.7787893885
O                0.7405352708        4.2752180683       20.7787893885
O                1.6485642985        5.4528093390       23.0053734069
O               -0.9070379608        4.1684480473       23.0053734069
O               -3.9193957248        7.0008875270       25.1837265351
O               -0.8151034456        4.2674231312       14.1650332166
O               -1.5874101654        8.2164037789       25.1837265334
O               -1.7007349892        5.5890869183       25.1837265365
O               -0.7017786217        6.8947399922       14.1650332166
O                1.5168821173        5.4829393966       14.1650332166
O                0.9070379621        4.1541032344       16.3433863461
O               -3.1348257510        5.6575623475       18.5699703615
O               -1.6609872715        5.4599817444       16.3433863461
O                0.7539493094        7.0310175813       16.3433863461
O               -3.1430488800        8.2086088417       18.5699703620
O               -0.9296662501        6.9402070305       18.5699703610
Al               4.8050272200        2.7741837600       24.0351960992
Al               7.2075408293        1.3870918799       22.1034307905
Al               4.8050272197        0.0000000001       21.6488369743
Al               4.8050272200        2.7741837600       19.9339934340
Al               4.8050272206       -0.0000000007       15.0591187864
Al               4.8050272200        2.7741837600       14.0402210395
Al               7.2075408304        1.3870918772       25.3085387056
Al               4.8050272194        0.0000000007       24.2896409636
Al               7.2075408295        1.3870918807       19.4147663172
Al               4.8050272203       -0.0000000001       17.6999227757
Al               4.8050272200        2.7741837600       17.2453289593
Al               7.2075408284        1.3870918804       15.3135636493
O                5.7346934701        1.3823442495       20.7787893890
O                6.4660144915        2.8625695356       23.0053734039
O                7.9398529710        2.6649889325       20.7787893885
O                7.9480761000        0.1139424283       20.7787893880
O                8.8561051283        1.2915336990       23.0053734051
O                6.3005028683        0.0071724057       23.0053734061
O                3.2881451027        2.8396118834       25.1837265334
O                6.3924373854        0.1061474911       14.1650332166
O                5.6201306656        4.0551281388       25.1837265334
O                5.5068058417        1.4278112778       25.1837265334
O                6.5057622092        2.7334643617       14.1650332135
O                8.7244229448        1.3216637530       14.1650332149
O                8.1145787907       -0.0071724075       16.3433863449
O                4.0727150794        1.4962867060       18.5699703615
O                5.5465535577        1.2987061063       16.3433863431
O                7.9614901398        2.8697419409       16.3433863439
O                4.0644919492        4.0473332017       18.5699703615
O                6.2778745813        2.7789313922       18.5699703615
Al               2.4025136089        6.9354593988       24.0351961007
Al               4.8050272204        5.5483675194       22.1034307905
Al               2.4025136102        4.1612756402       21.6488369743
Al               2.4025136092        6.9354593999       19.9339934328
Al               2.4025136092        4.1612756398       15.0591187864
Al               2.4025136126        6.9354593990       14.0402210444
Al               4.8050272222        5.5483675218       25.3085387056
Al               2.4025136108        4.1612756402       24.2896409636
Al               4.8050272197        5.5483675192       19.4147663172
Al               2.4025136098        4.1612756398       17.6999227757
Al               2.4025136097        6.9354593993       17.2453289595
Al               4.8050272205        5.5483675184       15.3135636493
O                3.3321798597        5.5436198889       20.7787893885
O                4.0635008825        7.0238451735       23.0053734051
O                5.5373393610        6.8262645633       20.7787893880
O                5.5455624886        4.2752180686       20.7787893890
O                6.4535915202        5.4528093391       23.0053734061
O                3.8979892579        4.1684480456       23.0053734039
O                0.8856314936        7.0008875239       25.1837265365
O                3.9899237743        4.2674231322       14.1650332135
O                3.2176170575        8.2164037749       25.1837265351
O                3.1042922322        5.5890869187       25.1837265334
O                4.1032486027        6.8947399919       14.1650332149
O                6.3219093368        5.4829393975       14.1650332166
O                5.7120651808        4.1541032327       16.3433863431
O                1.6702014687        5.6575623481       18.5699703610
O                3.1440399486        5.4599817448       16.3433863439
O                5.5589765317        7.0310175810       16.3433863449
O                1.6619783407        8.2086088414       18.5699703615
O                3.8753609709        6.9402070315       18.5699703620



     Writing config-only to output data dir ./tmp/al2o3.save/ :
     XML data file
     NEW-OLD atomic charge density approx. for the potential

     negative rho (up, down):  4.884E-03 0.000E+00

     total cpu time spent up to now is    17388.1 secs

     Self-consistent Calculation

     iteration #  1     ecut=    60.00 Ry     beta= 0.30
     Davidson diagonalization with overlap
     ethr =  1.00E-06,  avg # of iterations =  4.0

     Threshold (ethr) on eigenvalues was too large:
     Diagonalizing with lowered threshold

     Davidson diagonalization with overlap
     ethr =  9.80E-08,  avg # of iterations =  2.5

     negative rho (up, down):  4.853E-03 0.000E+00

     total cpu time spent up to now is    17593.1 secs

     total energy              =   -4910.93754488 Ry
     estimated scf accuracy    <       0.00062194 Ry

     iteration #  2     ecut=    60.00 Ry     beta= 0.30
     Davidson diagonalization with overlap
     ethr =  1.08E-07,  avg # of iterations =  2.0

     negative rho (up, down):  4.813E-03 0.000E+00

     total cpu time spent up to now is    17662.6 secs

     total energy              =   -4910.93750353 Ry
     estimated scf accuracy    <       0.00019592 Ry

     iteration #  3     ecut=    60.00 Ry     beta= 0.30
     Davidson diagonalization with overlap
     ethr =  3.40E-08,  avg # of iterations =  2.5

     negative rho (up, down):  4.805E-03 0.000E+00

     total cpu time spent up to now is    17750.2 secs

     total energy              =   -4910.93754335 Ry
     estimated scf accuracy    <       0.00001854 Ry

     iteration #  4     ecut=    60.00 Ry     beta= 0.30
     Davidson diagonalization with overlap
     ethr =  3.22E-09,  avg # of iterations =  4.0

     negative rho (up, down):  4.792E-03 0.000E+00

     total cpu time spent up to now is    17833.5 secs

     total energy              =   -4910.93754710 Ry
     estimated scf accuracy    <       0.00000711 Ry

     iteration #  5     ecut=    60.00 Ry     beta= 0.30
     Davidson diagonalization with overlap
     ethr =  1.23E-09,  avg # of iterations =  3.5

     negative rho (up, down):  4.790E-03 0.000E+00

     total cpu time spent up to now is    17922.6 secs

     total energy              =   -4910.93754809 Ry
     estimated scf accuracy    <       0.00000155 Ry

     iteration #  6     ecut=    60.00 Ry     beta= 0.30
     Davidson diagonalization with overlap
     ethr =  2.70E-10,  avg # of iterations =  3.5

     negative rho (up, down):  4.789E-03 0.000E+00

     total cpu time spent up to now is    18023.5 secs

     total energy              =   -4910.93754846 Ry
     estimated scf accuracy    <       0.00000144 Ry

     iteration #  7     ecut=    60.00 Ry     beta= 0.30
     Davidson diagonalization with overlap
     ethr =  2.49E-10,  avg # of iterations =  2.0

     negative rho (up, down):  4.789E-03 0.000E+00

     total cpu time spent up to now is    18108.0 secs

     total energy              =   -4910.93754859 Ry
     estimated scf accuracy    <       0.00000011 Ry

     iteration #  8     ecut=    60.00 Ry     beta= 0.30
     Davidson diagonalization with overlap
     ethr =  1.93E-11,  avg # of iterations =  4.5

     negative rho (up, down):  4.789E-03 0.000E+00

     total cpu time spent up to now is    18211.9 secs

     total energy              =   -4910.93754863 Ry
     estimated scf accuracy    <       0.00000003 Ry

     iteration #  9     ecut=    60.00 Ry     beta= 0.30
     Davidson diagonalization with overlap
     ethr =  5.64E-12,  avg # of iterations =  2.2

     negative rho (up, down):  4.789E-03 0.000E+00

     total cpu time spent up to now is    18297.8 secs

     total energy              =   -4910.93754864 Ry
     estimated scf accuracy    <          5.2E-09 Ry

     iteration # 10     ecut=    60.00 Ry     beta= 0.30
     Davidson diagonalization with overlap
     ethr =  9.11E-13,  avg # of iterations =  5.0

     negative rho (up, down):  4.790E-03 0.000E+00

     total cpu time spent up to now is    18409.7 secs

     total energy              =   -4910.93754864 Ry
     estimated scf accuracy    <          2.9E-09 Ry

     iteration # 11     ecut=    60.00 Ry     beta= 0.30
     Davidson diagonalization with overlap
     ethr =  5.10E-13,  avg # of iterations =  2.0

     negative rho (up, down):  4.790E-03 0.000E+00

     total cpu time spent up to now is    18490.0 secs

     End of self-consistent calculation

          k = 0.0000 0.0000 0.0000 (166875 PWs)   bands (ev):

   -20.7477 -20.4424 -20.0819 -19.8322 -19.8322 -19.8322 -19.7681 -19.7681
   -19.7681 -19.5867 -19.5867 -19.5867 -19.5300 -19.4005 -19.4005 -19.4005
   -19.1637 -19.1637 -19.1637 -19.1516 -19.1516 -19.1516 -18.9071 -18.8289
   -18.8289 -18.8289 -18.7488 -18.7488 -18.7488 -18.6959 -18.6917 -18.6917
   -18.6917 -18.5454 -18.5454 -18.5454 -18.4548 -18.4548 -18.4548 -18.4232
   -18.4232 -18.4232 -18.3967 -18.3967 -18.3125 -18.3125 -18.3125 -18.2829
   -18.2829 -18.2669 -18.2669 -18.2669 -18.2499 -18.2499 -18.2499 -18.2156
   -18.2156 -18.2007 -18.2007 -18.1576 -18.1576 -18.1576 -18.0726 -18.0726
   -18.0726 -18.0494 -18.0494 -18.0363 -18.0363 -18.0353 -18.0353 -18.0353
    -8.3250  -8.1173  -8.1173  -8.1173  -8.0275  -8.0275  -8.0275  -7.7684
    -7.7684  -7.7684  -7.6627  -7.6107  -7.6107  -7.6107  -7.4364  -7.4336
    -7.3231  -7.3231  -7.3231  -7.1571  -7.1571  -7.1571  -7.1279  -7.1279
    -7.0156  -6.9571  -6.9571  -6.9571  -6.8239  -6.8239  -6.8239  -6.7801
    -6.7801  -6.6467  -6.5815  -6.5815  -6.5815  -6.5663  -6.5663  -6.5663
    -6.4502  -6.4377  -6.4377  -6.4377  -6.2929  -6.2929  -5.9815  -5.8717
    -5.8717  -5.8434  -5.8434  -5.8434  -5.7482  -5.7482  -5.7482  -5.7291
    -5.7291  -5.6885  -5.6885  -5.6885  -5.5974  -5.5974  -5.5755  -5.5451
    -5.5451  -5.5451  -5.4934  -5.4934  -5.4934  -5.4355  -5.4355  -5.4355
    -5.3474  -5.3082  -5.3082  -5.3082  -5.2101  -5.2082  -5.2082  -5.2082
    -5.1132  -5.1132  -5.1132  -4.9766  -4.9766  -4.9766  -4.9449  -4.7892
    -4.7892  -4.7892  -4.7116  -4.6154  -4.6154  -4.6154  -4.4867  -4.3677
    -4.3261  -4.3261  -4.3261  -4.2026  -4.2026  -4.2026  -4.0935  -4.0935
    -4.0935  -3.9999  -3.9999  -3.9999  -3.9884  -3.9884  -3.9884  -3.9771
    -3.9771  -3.9771  -3.9766  -3.9766  -3.8960  -3.8960  -3.7448  -3.7181
    -3.7181  -3.7181  -3.6835  -3.6835  -3.6835  -3.4978  -3.4978  -3.4978
    -3.4567  -3.4567  -3.4567  -3.3956  -3.3956  -3.3956  -3.3363  -3.3363
    -3.2907  -3.2907  -3.2634  -3.2634  -3.2634  -3.2344  -3.2344  -3.2344
    -3.2185  -3.2185  -3.2185  -3.1582  -3.1582  -3.1582  -3.1158  -3.1158
    -3.1158  -3.0238  -3.0238  -3.0238  -2.9246  -2.9246  -2.9246  -2.9198
    -2.9198  -2.9198  -2.9166  -2.9166  -2.9018  -2.9018  -2.9018  -2.8994
    -2.8994  -2.8813  -2.8813  -2.8813  -2.8132  -2.8132  -2.8132  -2.7813
    -2.6999  -2.6999  -2.6999  -2.5276  -2.5276  -2.5276  -2.5076  -2.5076
    -2.5076  -2.3956  -2.3956  -2.3956  -2.3830  -2.3830  -2.3062  -2.3062
    -2.3021  -2.3021  -2.3021  -2.1710  -2.1710  -2.1647  -2.0805  -2.0805
    -2.0805  -2.0428  -2.0428  -2.0428  -2.0372  -2.0372  -1.9667  -1.9667
    -1.9667  -1.9101  -1.9101  -1.9101  -1.8219  -1.8219  -1.8123  -1.8123

          k = 0.0000 0.2887 0.0000 (166721 PWs)   bands (ev):

   -20.6785 -20.3758 -20.1671 -20.0215 -19.9438 -19.9437 -19.8932 -19.7092
   -19.7075 -19.6113 -19.5536 -19.5480 -19.4821 -19.3680 -19.3622 -19.3350
   -19.1554 -19.1465 -19.0406 -19.0402 -19.0250 -19.0020 -18.8945 -18.8833
   -18.8717 -18.8283 -18.7883 -18.7651 -18.6822 -18.6660 -18.6594 -18.6423
   -18.6260 -18.5989 -18.5786 -18.5402 -18.5317 -18.5283 -18.4955 -18.4947
   -18.4648 -18.4377 -18.4255 -18.4246 -18.3653 -18.3554 -18.3522 -18.3517
   -18.3290 -18.2989 -18.2981 -18.2715 -18.2660 -18.2621 -18.2377 -18.2192
   -18.2129 -18.2065 -18.1637 -18.1267 -18.1096 -18.0893 -18.0787 -18.0694
   -18.0493 -18.0447 -18.0306 -18.0305 -18.0274 -18.0260 -18.0247 -18.0143
    -8.2694  -8.1245  -8.0185  -7.9999  -7.9240  -7.9017  -7.8795  -7.7616
    -7.7238  -7.6417  -7.6334  -7.5876  -7.5290  -7.5227  -7.5150  -7.5048
    -7.4769  -7.4563  -7.3905  -7.3070  -7.1470  -7.1460  -7.1199  -7.1162
    -7.0857  -7.0770  -7.0596  -6.9787  -6.9475  -6.8490  -6.8146  -6.7699
    -6.7536  -6.7035  -6.6862  -6.6700  -6.6436  -6.6041  -6.5772  -6.4785
    -6.4719  -6.4693  -6.4612  -6.4604  -6.2508  -6.1744  -6.0769  -6.0724
    -6.0577  -5.9861  -5.9769  -5.9262  -5.9250  -5.8413  -5.8241  -5.8162
    -5.8130  -5.7599  -5.7549  -5.7410  -5.7343  -5.6349  -5.6204  -5.6041
    -5.5644  -5.5441  -5.5299  -5.4906  -5.4677  -5.4379  -5.3993  -5.3888
    -5.2223  -5.1635  -5.0969  -5.0783  -5.0221  -5.0181  -5.0156  -4.9909
    -4.9846  -4.9720  -4.9446  -4.9250  -4.8963  -4.8216  -4.8094  -4.6997
    -4.6793  -4.6035  -4.5841  -4.5765  -4.5137  -4.4487  -4.4261  -4.4177
    -4.3900  -4.3521  -4.3408  -4.3215  -4.2415  -4.2234  -4.2132  -4.1934
    -4.1624  -4.1298  -4.1127  -4.0935  -4.0541  -4.0105  -3.9972  -3.9590
    -3.8913  -3.8566  -3.8329  -3.8257  -3.8174  -3.7868  -3.7804  -3.7676
    -3.7199  -3.7098  -3.6873  -3.6471  -3.6202  -3.5776  -3.5767  -3.5475
    -3.5178  -3.5048  -3.4419  -3.4402  -3.4178  -3.4124  -3.4117  -3.4109
    -3.3566  -3.3506  -3.3449  -3.3164  -3.2978  -3.2741  -3.2610  -3.2396
    -3.2256  -3.1985  -3.1901  -3.1847  -3.1814  -3.1435  -3.1299  -3.1290
    -3.1240  -3.0746  -3.0543  -3.0415  -3.0336  -3.0148  -3.0081  -2.9973
    -2.9812  -2.9508  -2.9342  -2.9213  -2.8866  -2.8812  -2.8749  -2.8528
    -2.7882  -2.7671  -2.7593  -2.7176  -2.7116  -2.6919  -2.6820  -2.6788
    -2.6752  -2.6695  -2.6063  -2.5524  -2.5341  -2.5302  -2.5165  -2.5048
    -2.4741  -2.4554  -2.4490  -2.4284  -2.3957  -2.3381  -2.3368  -2.3268
    -2.3015  -2.2998  -2.2966  -2.2795  -2.2455  -2.1750  -2.1135  -2.0918
    -2.0897  -2.0740  -2.0739  -2.0416  -2.0387  -2.0243  -2.0226  -1.9798
    -1.9693  -1.9600  -1.9352  -1.9172  -1.9103  -1.9005  -1.8479  -1.8185

          k = 0.0000-0.5774 0.0000 (166636 PWs)   bands (ev):

   -20.4777 -20.4777 -20.1834 -20.1834 -19.9949 -19.9949 -19.8491 -19.8491
   -19.7354 -19.7354 -19.4877 -19.4877 -19.3563 -19.3563 -19.3070 -19.3070
   -19.0895 -19.0895 -19.0019 -19.0019 -18.8682 -18.8682 -18.8531 -18.8531
   -18.8169 -18.8169 -18.7437 -18.7437 -18.7184 -18.7184 -18.7015 -18.7015
   -18.6640 -18.6640 -18.5802 -18.5802 -18.5148 -18.5148 -18.4783 -18.4783
   -18.4682 -18.4682 -18.4596 -18.4596 -18.4327 -18.4327 -18.4314 -18.4314
   -18.3544 -18.3544 -18.3356 -18.3356 -18.2747 -18.2747 -18.2577 -18.2577
   -18.1475 -18.1475 -18.1128 -18.1128 -18.0754 -18.0754 -18.0574 -18.0574
   -18.0434 -18.0434 -18.0357 -18.0357 -18.0140 -18.0140 -18.0073 -18.0073
    -8.1494  -8.1494  -7.8335  -7.8335  -7.7869  -7.7869  -7.7156  -7.7156
    -7.6839  -7.6839  -7.6303  -7.6303  -7.5832  -7.5832  -7.4169  -7.4169
    -7.3619  -7.3619  -7.3421  -7.3421  -7.3109  -7.3109  -7.2347  -7.2347
    -7.1290  -7.1290  -7.0970  -7.0970  -6.9993  -6.9993  -6.9939  -6.9939
    -6.8106  -6.8106  -6.7808  -6.7808  -6.5948  -6.5948  -6.5894  -6.5894
    -6.3231  -6.3231  -6.2795  -6.2795  -6.2600  -6.2600  -6.2252  -6.2252
    -6.1582  -6.1582  -6.1287  -6.1287  -5.9332  -5.9332  -5.8919  -5.8919
    -5.8128  -5.8128  -5.7226  -5.7226  -5.7139  -5.7139  -5.7118  -5.7118
    -5.6309  -5.6309  -5.4177  -5.4177  -5.2539  -5.2539  -5.2286  -5.2286
    -5.1219  -5.1219  -5.0841  -5.0841  -5.0283  -5.0283  -4.9422  -4.9422
    -4.8822  -4.8822  -4.7932  -4.7932  -4.7166  -4.7166  -4.7120  -4.7120
    -4.6116  -4.6116  -4.5393  -4.5393  -4.4977  -4.4977  -4.3676  -4.3676
    -4.3053  -4.3053  -4.2769  -4.2769  -4.2341  -4.2341  -4.0918  -4.0918
    -4.0679  -4.0679  -4.0465  -4.0465  -4.0338  -4.0338  -3.9364  -3.9364
    -3.8829  -3.8829  -3.8643  -3.8643  -3.8534  -3.8534  -3.8065  -3.8065
    -3.7214  -3.7214  -3.6909  -3.6909  -3.6363  -3.6363  -3.6030  -3.6030
    -3.5652  -3.5652  -3.5439  -3.5439  -3.4668  -3.4668  -3.4344  -3.4344
    -3.3811  -3.3811  -3.3109  -3.3109  -3.2986  -3.2986  -3.2424  -3.2424
    -3.2370  -3.2370  -3.1989  -3.1989  -3.1821  -3.1821  -3.1542  -3.1542
    -3.0998  -3.0998  -3.0725  -3.0725  -3.0307  -3.0307  -3.0118  -3.0118
    -2.9629  -2.9629  -2.8956  -2.8956  -2.8398  -2.8398  -2.8211  -2.8211
    -2.8187  -2.8187  -2.7495  -2.7495  -2.6915  -2.6915  -2.6727  -2.6727
    -2.6656  -2.6656  -2.6142  -2.6142  -2.5653  -2.5653  -2.5182  -2.5182
    -2.4903  -2.4903  -2.4041  -2.4041  -2.3920  -2.3920  -2.3156  -2.3156
    -2.2799  -2.2799  -2.2465  -2.2465  -2.2387  -2.2387  -2.2058  -2.2058
    -2.1357  -2.1357  -2.0634  -2.0634  -2.0575  -2.0575  -1.9644  -1.9644
    -1.9567  -1.9567  -1.9298  -1.9298  -1.9016  -1.9016  -1.8777  -1.8777

          k = 0.2500 0.4330 0.0000 (166642 PWs)   bands (ev):

   -20.5435 -20.2872 -20.2872 -20.2462 -20.0031 -20.0031 -19.9049 -19.6927
   -19.6924 -19.6806 -19.6258 -19.4676 -19.3938 -19.3909 -19.2781 -19.2766
   -19.1478 -19.0813 -18.9705 -18.9652 -18.9581 -18.8740 -18.8735 -18.8594
   -18.8223 -18.7697 -18.7526 -18.7441 -18.7268 -18.6642 -18.6613 -18.6508
   -18.6419 -18.5981 -18.5902 -18.5872 -18.5671 -18.5637 -18.5635 -18.4854
   -18.4762 -18.4723 -18.4608 -18.4516 -18.4380 -18.4229 -18.3987 -18.3805
   -18.3722 -18.3708 -18.3333 -18.3176 -18.3122 -18.2756 -18.2660 -18.2199
   -18.1787 -18.1505 -18.1039 -18.0986 -18.0963 -18.0705 -18.0578 -18.0517
   -18.0458 -18.0379 -18.0335 -18.0260 -18.0171 -18.0117 -18.0117 -18.0070
    -8.1620  -8.0401  -8.0264  -7.8459  -7.7955  -7.7832  -7.7482  -7.7249
    -7.6646  -7.6638  -7.5879  -7.5572  -7.5328  -7.4866  -7.4782  -7.4394
    -7.4048  -7.3797  -7.3735  -7.3520  -7.2961  -7.2818  -7.2743  -7.1910
    -7.1805  -7.1602  -7.1008  -7.0407  -7.0137  -7.0029  -6.9587  -6.8271
    -6.8258  -6.8157  -6.7827  -6.7676  -6.6797  -6.6098  -6.5919  -6.5438
    -6.4402  -6.3392  -6.3324  -6.3271  -6.3013  -6.2576  -6.2282  -6.1998
    -6.1812  -6.1004  -6.0950  -6.0411  -5.9796  -5.9628  -5.9248  -5.8956
    -5.8261  -5.7958  -5.7551  -5.7304  -5.7290  -5.7059  -5.6088  -5.5663
    -5.5266  -5.4964  -5.4592  -5.4469  -5.4222  -5.4127  -5.3157  -5.2816
    -5.2228  -5.1962  -5.1334  -5.0722  -5.0510  -4.9577  -4.9266  -4.8651
    -4.8535  -4.8192  -4.8057  -4.7806  -4.7083  -4.6979  -4.6314  -4.5955
    -4.5918  -4.5612  -4.5531  -4.5016  -4.4317  -4.4075  -4.4057  -4.3494
    -4.3307  -4.3140  -4.2806  -4.2333  -4.2142  -4.1917  -4.1697  -4.1671
    -4.0614  -4.0545  -4.0334  -4.0286  -4.0042  -3.9775  -3.9578  -3.9552
    -3.9285  -3.9196  -3.8832  -3.8743  -3.8561  -3.8354  -3.7955  -3.7915
    -3.7853  -3.6934  -3.6830  -3.6792  -3.6775  -3.6457  -3.6417  -3.6262
    -3.5905  -3.5883  -3.5642  -3.5512  -3.5104  -3.4825  -3.4581  -3.4151
    -3.4087  -3.3771  -3.3707  -3.3523  -3.3351  -3.3243  -3.2686  -3.2670
    -3.2620  -3.2349  -3.2259  -3.2185  -3.2017  -3.1645  -3.1106  -3.0999
    -3.0719  -3.0394  -3.0375  -3.0292  -3.0120  -3.0092  -3.0076  -2.9628
    -2.9580  -2.9478  -2.9196  -2.9053  -2.8762  -2.8613  -2.8531  -2.7870
    -2.7829  -2.7755  -2.7542  -2.7116  -2.7049  -2.6939  -2.6781  -2.6675
    -2.6517  -2.6383  -2.6195  -2.6169  -2.5889  -2.5743  -2.5395  -2.4954
    -2.4764  -2.4625  -2.4459  -2.4325  -2.3899  -2.3532  -2.3459  -2.3081
    -2.3015  -2.2951  -2.2764  -2.2707  -2.2476  -2.2319  -2.2074  -2.1600
    -2.1349  -2.1223  -2.1090  -2.0980  -2.0660  -2.0176  -1.9958  -1.9736
    -1.9504  -1.9502  -1.9401  -1.8921  -1.8894  -1.8830  -1.8747  -1.8322

     highest occupied level (ev):    -1.8123

!    total energy              =   -4910.93754864 Ry
     total all-electron energy =    -34162.767318 Ry
     estimated scf accuracy    <          4.2E-10 Ry

     The total energy is the sum of the following terms:
     one-electron contribution =  -81180.83502026 Ry
     hartree contribution      =   40826.19538960 Ry
     xc contribution           =    -676.19418436 Ry
     ewald contribution        =   38467.85005495 Ry
     one-center paw contrib.   =   -2347.95378858 Ry

     convergence has been achieved in  11 iterations

     negative rho (up, down):  4.790E-03 0.000E+00

     Forces acting on atoms (cartesian axes, Ry/au):

     atom    1 type  1   force =    -0.00000000   -0.00000000   -0.00441216
     atom    2 type  1   force =     0.00000000   -0.00000000   -0.00091067
     atom    3 type  1   force =     0.00000000   -0.00000000   -0.00036290
     atom    4 type  1   force =    -0.00000000   -0.00000000   -0.00007886
     atom    5 type  1   force =     0.00000000   -0.00000000   -0.00007514
     atom    6 type  1   force =     0.00000000   -0.00000000    0.00326640
     atom    7 type  1   force =     0.00000000   -0.00000000   -0.00326640
     atom    8 type  1   force =     0.00000000   -0.00000000    0.00007514
     atom    9 type  1   force =    -0.00000000   -0.00000000    0.00007886
     atom   10 type  1   force =     0.00000000    0.00000000    0.00036290
     atom   11 type  1   force =     0.00000000   -0.00000000    0.00091067
     atom   12 type  1   force =    -0.00000000   -0.00000000    0.00441216
     atom   13 type  2   force =     0.00024774    0.00002870   -0.00045534
     atom   14 type  2   force =    -0.00121479    0.00113369   -0.00243287
     atom   15 type  2   force =    -0.00009902   -0.00022890   -0.00045534
     atom   16 type  2   force =    -0.00014872    0.00020020   -0.00045534
     atom   17 type  2   force =     0.00158920    0.00048519   -0.00243287
     atom   18 type  2   force =    -0.00037441   -0.00161888   -0.00243287
     atom   19 type  2   force =     0.00012505    0.00190810   -0.00080350
     atom   20 type  2   force =    -0.00158994    0.00106235    0.00080350
     atom   21 type  2   force =     0.00158994   -0.00106235   -0.00080350
     atom   22 type  2   force =    -0.00171499   -0.00084575   -0.00080350
     atom   23 type  2   force =     0.00171499    0.00084575    0.00080350
     atom   24 type  2   force =    -0.00012505   -0.00190810    0.00080350
     atom   25 type  2   force =     0.00037441    0.00161888    0.00243287
     atom   26 type  2   force =     0.00009902    0.00022890    0.00045534
     atom   27 type  2   force =     0.00121479   -0.00113369    0.00243287
     atom   28 type  2   force =    -0.00158920   -0.00048519    0.00243287
     atom   29 type  2   force =     0.00014872   -0.00020020    0.00045534
     atom   30 type  2   force =    -0.00024774   -0.00002870    0.00045534
     atom   31 type  1   force =    -0.00000000    0.00000000   -0.00441216
     atom   32 type  1   force =     0.00000000   -0.00000000   -0.00091067
     atom   33 type  1   force =     0.00000000    0.00000000   -0.00036290
     atom   34 type  1   force =    -0.00000000    0.00000000   -0.00007886
     atom   35 type  1   force =    -0.00000000   -0.00000000   -0.00007514
     atom   36 type  1   force =    -0.00000000   -0.00000000    0.00326640
     atom   37 type  1   force =     0.00000000    0.00000000   -0.00326640
     atom   38 type  1   force =     0.00000000    0.00000000    0.00007514
     atom   39 type  1   force =     0.00000000   -0.00000000    0.00007886
     atom   40 type  1   force =    -0.00000000   -0.00000000    0.00036290
     atom   41 type  1   force =    -0.00000000   -0.00000000    0.00091067
     atom   42 type  1   force =     0.00000000    0.00000000    0.00441216
     atom   43 type  2   force =     0.00024774    0.00002870   -0.00045534
     atom   44 type  2   force =    -0.00121479    0.00113369   -0.00243287
     atom   45 type  2   force =    -0.00009902   -0.00022890   -0.00045534
     atom   46 type  2   force =    -0.00014872    0.00020020   -0.00045534
     atom   47 type  2   force =     0.00158920    0.00048519   -0.00243287
     atom   48 type  2   force =    -0.00037441   -0.00161888   -0.00243287
     atom   49 type  2   force =     0.00012505    0.00190810   -0.00080350
     atom   50 type  2   force =    -0.00158994    0.00106235    0.00080350
     atom   51 type  2   force =     0.00158994   -0.00106235   -0.00080350
     atom   52 type  2   force =    -0.00171499   -0.00084575   -0.00080350
     atom   53 type  2   force =     0.00171499    0.00084575    0.00080350
     atom   54 type  2   force =    -0.00012505   -0.00190810    0.00080350
     atom   55 type  2   force =     0.00037441    0.00161888    0.00243287
     atom   56 type  2   force =     0.00009902    0.00022890    0.00045534
     atom   57 type  2   force =     0.00121479   -0.00113369    0.00243287
     atom   58 type  2   force =    -0.00158920   -0.00048519    0.00243287
     atom   59 type  2   force =     0.00014872   -0.00020020    0.00045534
     atom   60 type  2   force =    -0.00024774   -0.00002870    0.00045534
     atom   61 type  1   force =     0.00000000   -0.00000000   -0.00441216
     atom   62 type  1   force =     0.00000000    0.00000000   -0.00091067
     atom   63 type  1   force =    -0.00000000   -0.00000000   -0.00036290
     atom   64 type  1   force =     0.00000000   -0.00000000   -0.00007886
     atom   65 type  1   force =    -0.00000000    0.00000000   -0.00007514
     atom   66 type  1   force =     0.00000000   -0.00000000    0.00326640
     atom   67 type  1   force =     0.00000000    0.00000000   -0.00326640
     atom   68 type  1   force =     0.00000000   -0.00000000    0.00007514
     atom   69 type  1   force =     0.00000000   -0.00000000    0.00007886
     atom   70 type  1   force =     0.00000000    0.00000000    0.00036290
     atom   71 type  1   force =     0.00000000    0.00000000    0.00091067
     atom   72 type  1   force =     0.00000000   -0.00000000    0.00441216
     atom   73 type  2   force =     0.00024774    0.00002870   -0.00045534
     atom   74 type  2   force =    -0.00121479    0.00113369   -0.00243287
     atom   75 type  2   force =    -0.00009902   -0.00022890   -0.00045534
     atom   76 type  2   force =    -0.00014872    0.00020020   -0.00045534
     atom   77 type  2   force =     0.00158920    0.00048519   -0.00243287
     atom   78 type  2   force =    -0.00037441   -0.00161888   -0.00243287
     atom   79 type  2   force =     0.00012505    0.00190810   -0.00080350
     atom   80 type  2   force =    -0.00158994    0.00106235    0.00080350
     atom   81 type  2   force =     0.00158994   -0.00106235   -0.00080350
     atom   82 type  2   force =    -0.00171499   -0.00084575   -0.00080350
     atom   83 type  2   force =     0.00171499    0.00084575    0.00080350
     atom   84 type  2   force =    -0.00012505   -0.00190810    0.00080350
     atom   85 type  2   force =     0.00037441    0.00161888    0.00243287
     atom   86 type  2   force =     0.00009902    0.00022890    0.00045534
     atom   87 type  2   force =     0.00121479   -0.00113369    0.00243287
     atom   88 type  2   force =    -0.00158920   -0.00048519    0.00243287
     atom   89 type  2   force =     0.00014872   -0.00020020    0.00045534
     atom   90 type  2   force =    -0.00024774   -0.00002870    0.00045534
     atom   91 type  1   force =     0.00000000    0.00000000   -0.00441216
     atom   92 type  1   force =    -0.00000000    0.00000000   -0.00091067
     atom   93 type  1   force =    -0.00000000    0.00000000   -0.00036290
     atom   94 type  1   force =     0.00000000    0.00000000   -0.00007886
     atom   95 type  1   force =     0.00000000    0.00000000   -0.00007514
     atom   96 type  1   force =    -0.00000000    0.00000000    0.00326640
     atom   97 type  1   force =    -0.00000000    0.00000000   -0.00326640
     atom   98 type  1   force =    -0.00000000   -0.00000000    0.00007514
     atom   99 type  1   force =     0.00000000    0.00000000    0.00007886
     atom  100 type  1   force =     0.00000000   -0.00000000    0.00036290
     atom  101 type  1   force =    -0.00000000    0.00000000    0.00091067
     atom  102 type  1   force =     0.00000000    0.00000000    0.00441216
     atom  103 type  2   force =     0.00024774    0.00002870   -0.00045534
     atom  104 type  2   force =    -0.00121479    0.00113369   -0.00243287
     atom  105 type  2   force =    -0.00009902   -0.00022890   -0.00045534
     atom  106 type  2   force =    -0.00014872    0.00020020   -0.00045534
     atom  107 type  2   force =     0.00158920    0.00048519   -0.00243287
     atom  108 type  2   force =    -0.00037441   -0.00161888   -0.00243287
     atom  109 type  2   force =     0.00012505    0.00190810   -0.00080350
     atom  110 type  2   force =    -0.00158994    0.00106235    0.00080350
     atom  111 type  2   force =     0.00158994   -0.00106235   -0.00080350
     atom  112 type  2   force =    -0.00171499   -0.00084575   -0.00080350
     atom  113 type  2   force =     0.00171499    0.00084575    0.00080350
     atom  114 type  2   force =    -0.00012505   -0.00190810    0.00080350
     atom  115 type  2   force =     0.00037441    0.00161888    0.00243287
     atom  116 type  2   force =     0.00009902    0.00022890    0.00045534
     atom  117 type  2   force =     0.00121479   -0.00113369    0.00243287
     atom  118 type  2   force =    -0.00158920   -0.00048519    0.00243287
     atom  119 type  2   force =     0.00014872   -0.00020020    0.00045534
     atom  120 type  2   force =    -0.00024774   -0.00002870    0.00045534

     Total force =     0.023810     Total SCF correction =     0.000070


     Computing stress (Cartesian axis) and pressure


     negative rho (up, down):  4.790E-03 0.000E+00
          total   stress  (Ry/bohr**3)                   (kbar)     P=       10.49
   0.00014027   0.00000000   0.00000000           20.63        0.00        0.00
   0.00000000   0.00014027  -0.00000000            0.00       20.63       -0.00
   0.00000000  -0.00000000  -0.00006668            0.00       -0.00       -9.81

     Energy error            =      1.2E-03 Ry
     Gradient error          =      4.4E-03 Ry/Bohr

     number of scf cycles    =  10
     number of bfgs steps    =   9

     energy             old  =   -4910.9363539030 Ry
     energy             new  =   -4910.9375486407 Ry

     CASE: energy            _new < energy            _old

     new trust radius        =       0.0212099378 bohr
     new conv_thr            =       0.0000000004 Ry


ATOMIC_POSITIONS (angstrom)
Al              -0.0000000005        2.7741837610       24.0284837742
Al               2.4025136102        1.3870918807       22.1003315589
Al               0.0000000000       -0.0000000000       21.6499460079
Al               0.0000000004        2.7741837607       19.9354270895
Al               0.0000000000       -0.0000000000       15.0594240463
Al              -0.0000000005        2.7741837593       14.0514448595
Al               2.4025136091        1.3870918801       25.2973148905
Al               0.0000000000       -0.0000000000       24.2893357037
Al               2.4025136108        1.3870918800       19.4133326605
Al               0.0000000000        0.0000000000       17.6988137421
Al              -0.0000000005        2.7741837605       17.2484281911
Al               2.4025136106        1.3870918809       15.3202759758
O                0.9292951943        1.3828453086       20.7785845337
O                1.6628171673        2.8625106848       23.0034629172
O                3.1354452097        2.6650597448       20.7785845340
O                3.1428004754        0.1133705556       20.7785845342
O                4.0501119969        1.2899783882       23.0034629157
O                1.4946116673        0.0087865682       23.0034629166
O               -1.5181070536        2.8401197065       25.1780026107
O                1.5863579075        0.1053405778       14.1707571383
O                0.8161557006        4.0559350530       25.1780026123
O                0.7019513007        1.4264965400       25.1780026117
O                1.7005623079        2.7347790997       14.1707571393
O                3.9206206629        1.3211559341       14.1707571377
O                3.3104155536       -0.0087865673       16.3452968328
O               -0.7329315991        1.4962158940       18.5701752163
O                0.7396964424        1.2987649565       16.3452968334
O                3.1574288348        2.8712972523       16.3452968321
O               -0.7402868653        4.0479050745       18.5701752160
O                1.4732184149        2.7784303306       18.5701752158
Al              -2.4025136089        6.9354593999       24.0284837742
Al               0.0000000000        5.5483675200       22.1003315601
Al              -2.4025136098        4.1612756396       21.6499460094
Al              -2.4025136096        6.9354593993       19.9354270895
Al              -2.4025136095        4.1612756398       15.0594240446
Al              -2.4025136104        6.9354594008       14.0514448595
Al               0.0000000000        5.5483675200       25.2973148948
Al              -2.4025136105        4.1612756402       24.2893357054
Al               0.0000000000        5.5483675200       19.4133326606
Al              -2.4025136102        4.1612756404       17.6988137406
Al              -2.4025136093        6.9354594002       17.2484281911
Al               0.0000000000        5.5483675200       15.3202759770
O               -1.4732184163        5.5441209485       20.7785845344
O               -0.7396964420        7.0237863239       23.0034629179
O                0.7329315993        6.8263353766       20.7785845344
O                0.7402868670        4.2746461949       20.7785845344
O                1.6475983852        5.4512540277       23.0034629179
O               -0.9079019432        4.1700622084       23.0034629179
O               -3.9206206632        7.0013953479       25.1780026117
O               -0.8161557016        4.2666162162       14.1707571388
O               -1.5863579085        8.2172106933       25.1780026107
O               -1.7005623077        5.5877721812       25.1780026123
O               -0.7019513026        6.8960547301       14.1707571388
O                1.5181070541        5.4824315737       14.1707571388
O                0.9079019437        4.1524890733       16.3452968343
O               -3.1354452094        5.6574915351       18.5701752158
O               -1.6628171668        5.4600405949       16.3452968343
O                0.7549152231        7.0325728918       16.3452968343
O               -3.1428004765        8.2091807147       18.5701752163
O               -0.9292951951        6.9397059703       18.5701752160
Al               4.8050272200        2.7741837600       24.0284837730
Al               7.2075408293        1.3870918798       22.1003315589
Al               4.8050272196       -0.0000000000       21.6499460094
Al               4.8050272200        2.7741837600       19.9354270894
Al               4.8050272196       -0.0000000004       15.0594240446
Al               4.8050272200        2.7741837600       14.0514448552
Al               7.2075408304        1.3870918792       25.2973148905
Al               4.8050272204        0.0000000004       24.2893357054
Al               7.2075408296        1.3870918807       19.4133326605
Al               4.8050272204        0.0000000000       17.6988137406
Al               4.8050272200        2.7741837600       17.2484281899
Al               7.2075408289        1.3870918801       15.3202759758
O                5.7343224151        1.3828453097       20.7785845340
O                6.4678443868        2.8625106851       23.0034629157
O                7.9404724294        2.6650597449       20.7785845342
O                7.9478276965        0.1133705553       20.7785845337
O                8.8551392151        1.2899783883       23.0034629166
O                6.2996388864        0.0087865673       23.0034629172
O                3.2869201659        2.8401197063       25.1780026112
O                6.3913851285        0.1053405767       14.1707571393
O                5.6211829216        4.0559350538       25.1780026112
O                5.5069785226        1.4264965399       25.1780026112
O                6.5055895277        2.7347790988       14.1707571377
O                8.7256478832        1.3211559321       14.1707571383
O                8.1154427727       -0.0087865682       16.3452968334
O                4.0720956207        1.4962158934       18.5701752156
O                5.5447236620        1.2987649561       16.3452968321
O                7.9624560537        2.8712972520       16.3452968328
O                4.0647403530        4.0479050751       18.5701752156
O                6.2782456363        2.7784303315       18.5701752156
Al               2.4025136094        6.9354593991       24.0284837742
Al               4.8050272205        5.5483675195       22.1003315589
Al               2.4025136102        4.1612756404       21.6499460094
Al               2.4025136092        6.9354594000       19.9354270895
Al               2.4025136099        4.1612756406       15.0594240446
Al               2.4025136109        6.9354593999       14.0514448595
Al               4.8050272205        5.5483675207       25.2973148905
Al               2.4025136101        4.1612756394       24.2893357054
Al               4.8050272196        5.5483675193       19.4133326605
Al               2.4025136098        4.1612756396       17.6988137406
Al               2.4025136098        6.9354593993       17.2484281911
Al               4.8050272205        5.5483675190       15.3202759758
O                3.3318088051        5.5441209494       20.7785845342
O                4.0653307776        7.0237863235       23.0034629166
O                5.5379588191        6.8263353760       20.7785845337
O                5.5453140853        4.2746461955       20.7785845340
O                6.4526256063        5.4512540280       23.0034629172
O                3.8971252763        4.1700622067       23.0034629157
O                0.8844065571        7.0013953459       25.1780026123
O                3.9888715194        4.2666162170       14.1707571377
O                3.2186693125        8.2172106922       25.1780026117
O                3.1044649121        5.5877721803       25.1780026107
O                4.1030759193        6.8960547300       14.1707571383
O                6.3231342736        5.4824315735       14.1707571393
O                5.7129291632        4.1524890716       16.3452968321
O                1.6695820103        5.6574915352       18.5701752160
O                3.1422100527        5.4600405952       16.3452968328
O                5.5599424449        7.0325728917       16.3452968334
O                1.6622267446        8.2091807144       18.5701752158
O                3.8757320257        6.9397059714       18.5701752163



     Writing config-only to output data dir ./tmp/al2o3.save/ :
     XML data file
     NEW-OLD atomic charge density approx. for the potential

     negative rho (up, down):  4.947E-03 0.000E+00

     total cpu time spent up to now is    18610.6 secs

     Self-consistent Calculation

     iteration #  1     ecut=    60.00 Ry     beta= 0.30
     Davidson diagonalization with overlap
     ethr =  1.00E-06,  avg # of iterations =  4.2

     Threshold (ethr) on eigenvalues was too large:
     Diagonalizing with lowered threshold

     Davidson diagonalization with overlap
     ethr =  8.99E-08,  avg # of iterations =  3.8

     negative rho (up, down):  4.896E-03 0.000E+00

     total cpu time spent up to now is    18824.3 secs

     total energy              =   -4910.93855183 Ry
     estimated scf accuracy    <       0.00055083 Ry

     iteration #  2     ecut=    60.00 Ry     beta= 0.30
     Davidson diagonalization with overlap
     ethr =  9.56E-08,  avg # of iterations =  2.0

     negative rho (up, down):  4.830E-03 0.000E+00

     total cpu time spent up to now is    18893.6 secs

     total energy              =   -4910.93853305 Ry
     estimated scf accuracy    <       0.00019813 Ry

     iteration #  3     ecut=    60.00 Ry     beta= 0.30
     Davidson diagonalization with overlap
     ethr =  3.44E-08,  avg # of iterations =  2.5

     negative rho (up, down):  4.814E-03 0.000E+00

     total cpu time spent up to now is    18979.9 secs

     total energy              =   -4910.93856430 Ry
     estimated scf accuracy    <       0.00002085 Ry

     iteration #  4     ecut=    60.00 Ry     beta= 0.30
     Davidson diagonalization with overlap
     ethr =  3.62E-09,  avg # of iterations =  4.5

     negative rho (up, down):  4.800E-03 0.000E+00

     total cpu time spent up to now is    19061.2 secs

     total energy              =   -4910.93856848 Ry
     estimated scf accuracy    <       0.00000628 Ry

     iteration #  5     ecut=    60.00 Ry     beta= 0.30
     Davidson diagonalization with overlap
     ethr =  1.09E-09,  avg # of iterations =  3.0

     negative rho (up, down):  4.797E-03 0.000E+00

     total cpu time spent up to now is    19149.3 secs

     total energy              =   -4910.93856955 Ry
     estimated scf accuracy    <       0.00000099 Ry

     iteration #  6     ecut=    60.00 Ry     beta= 0.30
     Davidson diagonalization with overlap
     ethr =  1.71E-10,  avg # of iterations =  4.0

     negative rho (up, down):  4.796E-03 0.000E+00

     total cpu time spent up to now is    19243.7 secs

     total energy              =   -4910.93856970 Ry
     estimated scf accuracy    <       0.00000056 Ry

     iteration #  7     ecut=    60.00 Ry     beta= 0.30
     Davidson diagonalization with overlap
     ethr =  9.75E-11,  avg # of iterations =  2.0

     negative rho (up, down):  4.796E-03 0.000E+00

     total cpu time spent up to now is    19329.6 secs

     total energy              =   -4910.93856978 Ry
     estimated scf accuracy    <       0.00000002 Ry

     iteration #  8     ecut=    60.00 Ry     beta= 0.30
     Davidson diagonalization with overlap
     ethr =  4.05E-12,  avg # of iterations =  5.0

     negative rho (up, down):  4.796E-03 0.000E+00

     total cpu time spent up to now is    19435.2 secs

     total energy              =   -4910.93856979 Ry
     estimated scf accuracy    <          6.9E-09 Ry

     iteration #  9     ecut=    60.00 Ry     beta= 0.30
     Davidson diagonalization with overlap
     ethr =  1.21E-12,  avg # of iterations =  3.5

     negative rho (up, down):  4.797E-03 0.000E+00

     total cpu time spent up to now is    19532.7 secs

     total energy              =   -4910.93856979 Ry
     estimated scf accuracy    <          1.1E-09 Ry

     iteration # 10     ecut=    60.00 Ry     beta= 0.30
     Davidson diagonalization with overlap
     ethr =  1.95E-13,  avg # of iterations =  3.5

     negative rho (up, down):  4.797E-03 0.000E+00

     total cpu time spent up to now is    19622.7 secs

     End of self-consistent calculation

          k = 0.0000 0.0000 0.0000 (166875 PWs)   bands (ev):

   -20.7786 -20.4753 -20.1085 -19.8614 -19.8614 -19.8614 -19.8004 -19.8004
   -19.8004 -19.6196 -19.6196 -19.6196 -19.5532 -19.4282 -19.4282 -19.4282
   -19.1880 -19.1880 -19.1880 -19.1788 -19.1788 -19.1788 -18.9297 -18.8526
   -18.8526 -18.8526 -18.7729 -18.7729 -18.7729 -18.7201 -18.7201 -18.7201
   -18.7196 -18.5735 -18.5735 -18.5735 -18.4792 -18.4792 -18.4792 -18.4476
   -18.4476 -18.4476 -18.4247 -18.4247 -18.3362 -18.3362 -18.3362 -18.3112
   -18.3112 -18.2919 -18.2919 -18.2919 -18.2751 -18.2751 -18.2751 -18.2383
   -18.2383 -18.2225 -18.2225 -18.1829 -18.1829 -18.1829 -18.0996 -18.0996
   -18.0996 -18.0793 -18.0793 -18.0662 -18.0662 -18.0629 -18.0629 -18.0629
    -8.3496  -8.1450  -8.1450  -8.1450  -8.0577  -8.0577  -8.0577  -7.7984
    -7.7984  -7.7984  -7.6942  -7.6362  -7.6362  -7.6362  -7.4713  -7.4553
    -7.3502  -7.3502  -7.3502  -7.1817  -7.1817  -7.1817  -7.1574  -7.1574
    -7.0509  -6.9817  -6.9817  -6.9817  -6.8496  -6.8496  -6.8496  -6.8091
    -6.8091  -6.6690  -6.6041  -6.6041  -6.6041  -6.5936  -6.5936  -6.5936
    -6.4704  -6.4662  -6.4662  -6.4662  -6.3157  -6.3157  -5.9989  -5.9021
    -5.9021  -5.8719  -5.8719  -5.8719  -5.7734  -5.7734  -5.7734  -5.7543
    -5.7543  -5.7133  -5.7133  -5.7133  -5.6278  -5.6278  -5.5972  -5.5775
    -5.5775  -5.5775  -5.5131  -5.5131  -5.5131  -5.4661  -5.4661  -5.4661
    -5.3721  -5.3355  -5.3355  -5.3355  -5.2397  -5.2397  -5.2397  -5.2394
    -5.1381  -5.1381  -5.1381  -4.9952  -4.9952  -4.9952  -4.9704  -4.8099
    -4.8099  -4.8099  -4.7349  -4.6372  -4.6372  -4.6372  -4.5085  -4.3922
    -4.3529  -4.3529  -4.3529  -4.2271  -4.2271  -4.2271  -4.1237  -4.1237
    -4.1237  -4.0215  -4.0215  -4.0215  -4.0162  -4.0162  -4.0162  -4.0041
    -4.0041  -4.0041  -4.0002  -4.0002  -3.9197  -3.9197  -3.7648  -3.7376
    -3.7376  -3.7376  -3.7048  -3.7048  -3.7048  -3.5223  -3.5223  -3.5223
    -3.4804  -3.4804  -3.4804  -3.4222  -3.4222  -3.4222  -3.3566  -3.3566
    -3.3138  -3.3138  -3.2846  -3.2846  -3.2846  -3.2603  -3.2603  -3.2603
    -3.2435  -3.2435  -3.2435  -3.1852  -3.1852  -3.1852  -3.1446  -3.1446
    -3.1446  -3.0484  -3.0484  -3.0484  -2.9524  -2.9524  -2.9524  -2.9467
    -2.9467  -2.9467  -2.9381  -2.9381  -2.9310  -2.9310  -2.9310  -2.9195
    -2.9195  -2.9038  -2.9038  -2.9038  -2.8335  -2.8335  -2.8335  -2.7973
    -2.7259  -2.7259  -2.7259  -2.5503  -2.5503  -2.5503  -2.5277  -2.5277
    -2.5277  -2.4177  -2.4177  -2.4177  -2.4100  -2.4100  -2.3343  -2.3343
    -2.3244  -2.3244  -2.3244  -2.1963  -2.1963  -2.1820  -2.1011  -2.1011
    -2.1011  -2.0633  -2.0633  -2.0633  -2.0614  -2.0614  -1.9878  -1.9878
    -1.9878  -1.9313  -1.9313  -1.9313  -1.8502  -1.8502  -1.8392  -1.8392

          k = 0.0000 0.2887 0.0000 (166721 PWs)   bands (ev):

   -20.7095 -20.4086 -20.1976 -20.0481 -19.9741 -19.9740 -19.9259 -19.7419
   -19.7402 -19.6391 -19.5840 -19.5784 -19.5053 -19.3947 -19.3889 -19.3612
   -19.1834 -19.1743 -19.0671 -19.0660 -19.0503 -19.0300 -18.9190 -18.9082
   -18.8945 -18.8536 -18.8147 -18.7922 -18.7063 -18.6943 -18.6873 -18.6711
   -18.6501 -18.6247 -18.6024 -18.5647 -18.5562 -18.5546 -18.5228 -18.5213
   -18.4930 -18.4621 -18.4498 -18.4488 -18.3935 -18.3804 -18.3759 -18.3757
   -18.3571 -18.3228 -18.3221 -18.2967 -18.2895 -18.2874 -18.2610 -18.2422
   -18.2380 -18.2315 -18.1893 -18.1526 -18.1353 -18.1159 -18.1053 -18.0957
   -18.0760 -18.0733 -18.0590 -18.0577 -18.0546 -18.0537 -18.0535 -18.0426
    -8.2943  -8.1521  -8.0462  -8.0277  -7.9539  -7.9315  -7.9093  -7.7924
    -7.7537  -7.6715  -7.6635  -7.6157  -7.5535  -7.5500  -7.5428  -7.5316
    -7.5055  -7.4823  -7.4161  -7.3383  -7.1747  -7.1731  -7.1462  -7.1451
    -7.1096  -7.1004  -7.0880  -7.0019  -6.9735  -6.8751  -6.8432  -6.7937
    -6.7786  -6.7305  -6.7127  -6.6971  -6.6727  -6.6327  -6.6028  -6.5051
    -6.4958  -6.4937  -6.4852  -6.4843  -6.2750  -6.1984  -6.0994  -6.0987
    -6.0834  -6.0161  -6.0014  -5.9561  -5.9543  -5.8698  -5.8509  -5.8438
    -5.8436  -5.7901  -5.7815  -5.7686  -5.7591  -5.6595  -5.6446  -5.6315
    -5.5940  -5.5699  -5.5574  -5.5130  -5.4958  -5.4609  -5.4207  -5.4185
    -5.2492  -5.1885  -5.1208  -5.1042  -5.0487  -5.0439  -5.0412  -5.0150
    -5.0118  -4.9926  -4.9662  -4.9459  -4.9247  -4.8433  -4.8318  -4.7267
    -4.7024  -4.6261  -4.6060  -4.6014  -4.5407  -4.4716  -4.4540  -4.4421
    -4.4133  -4.3756  -4.3645  -4.3437  -4.2654  -4.2490  -4.2356  -4.2182
    -4.1910  -4.1562  -4.1373  -4.1225  -4.0808  -4.0351  -4.0218  -3.9873
    -3.9161  -3.8826  -3.8548  -3.8506  -3.8415  -3.8135  -3.8037  -3.7920
    -3.7414  -3.7312  -3.7048  -3.6691  -3.6467  -3.6024  -3.5983  -3.5711
    -3.5431  -3.5279  -3.4666  -3.4662  -3.4413  -3.4368  -3.4359  -3.4337
    -3.3829  -3.3765  -3.3712  -3.3384  -3.3246  -3.3001  -3.2816  -3.2675
    -3.2501  -3.2210  -3.2155  -3.2112  -3.2069  -3.1689  -3.1539  -3.1534
    -3.1497  -3.1000  -3.0788  -3.0670  -3.0563  -3.0409  -3.0327  -3.0209
    -3.0026  -2.9741  -2.9554  -2.9472  -2.9116  -2.9057  -2.8993  -2.8793
    -2.8134  -2.7912  -2.7859  -2.7417  -2.7343  -2.7174  -2.7046  -2.7025
    -2.6998  -2.6923  -2.6322  -2.5745  -2.5596  -2.5575  -2.5400  -2.5266
    -2.4949  -2.4790  -2.4745  -2.4511  -2.4230  -2.3600  -2.3585  -2.3482
    -2.3255  -2.3215  -2.3187  -2.3022  -2.2702  -2.1990  -2.1364  -2.1156
    -2.1104  -2.0949  -2.0941  -2.0628  -2.0602  -2.0473  -2.0457  -1.9998
    -1.9906  -1.9814  -1.9575  -1.9390  -1.9322  -1.9230  -1.8752  -1.8452

          k = 0.0000-0.5774 0.0000 (166636 PWs)   bands (ev):

   -20.5085 -20.5085 -20.2161 -20.2161 -20.0253 -20.0253 -19.8758 -19.8758
   -19.7681 -19.7681 -19.5164 -19.5164 -19.3797 -19.3797 -19.3345 -19.3345
   -19.1167 -19.1167 -19.0288 -19.0288 -18.8947 -18.8947 -18.8807 -18.8807
   -18.8436 -18.8436 -18.7689 -18.7689 -18.7442 -18.7442 -18.7270 -18.7270
   -18.6918 -18.6918 -18.6084 -18.6084 -18.5402 -18.5402 -18.5025 -18.5025
   -18.4930 -18.4930 -18.4839 -18.4839 -18.4594 -18.4594 -18.4565 -18.4565
   -18.3784 -18.3784 -18.3599 -18.3599 -18.2998 -18.2998 -18.2814 -18.2814
   -18.1728 -18.1728 -18.1390 -18.1390 -18.1025 -18.1025 -18.0834 -18.0834
   -18.0708 -18.0708 -18.0624 -18.0624 -18.0418 -18.0418 -18.0343 -18.0343
    -8.1754  -8.1754  -7.8622  -7.8622  -7.8140  -7.8140  -7.7442  -7.7442
    -7.7145  -7.7145  -7.6595  -7.6595  -7.6122  -7.6122  -7.4461  -7.4461
    -7.3890  -7.3890  -7.3685  -7.3685  -7.3385  -7.3385  -7.2623  -7.2623
    -7.1563  -7.1563  -7.1246  -7.1246  -7.0247  -7.0247  -7.0200  -7.0200
    -6.8330  -6.8330  -6.8039  -6.8039  -6.6237  -6.6237  -6.6171  -6.6171
    -6.3459  -6.3459  -6.3037  -6.3037  -6.2874  -6.2874  -6.2511  -6.2511
    -6.1827  -6.1827  -6.1596  -6.1596  -5.9636  -5.9636  -5.9213  -5.9213
    -5.8364  -5.8364  -5.7459  -5.7459  -5.7425  -5.7425  -5.7393  -5.7393
    -5.6551  -5.6551  -5.4428  -5.4428  -5.2804  -5.2804  -5.2544  -5.2544
    -5.1470  -5.1470  -5.1097  -5.1097  -5.0554  -5.0554  -4.9612  -4.9612
    -4.9044  -4.9044  -4.8199  -4.8199  -4.7379  -4.7379  -4.7355  -4.7355
    -4.6343  -4.6343  -4.5627  -4.5627  -4.5253  -4.5253  -4.3912  -4.3912
    -4.3324  -4.3324  -4.3044  -4.3044  -4.2602  -4.2602  -4.1167  -4.1167
    -4.0958  -4.0958  -4.0695  -4.0695  -4.0567  -4.0567  -3.9636  -3.9636
    -3.9047  -3.9047  -3.8890  -3.8890  -3.8765  -3.8765  -3.8326  -3.8326
    -3.7454  -3.7454  -3.7111  -3.7111  -3.6583  -3.6583  -3.6268  -3.6268
    -3.5901  -3.5901  -3.5692  -3.5692  -3.4904  -3.4904  -3.4579  -3.4579
    -3.4075  -3.4075  -3.3367  -3.3367  -3.3226  -3.3226  -3.2678  -3.2678
    -3.2616  -3.2616  -3.2228  -3.2228  -3.2088  -3.2088  -3.1793  -3.1793
    -3.1239  -3.1239  -3.0989  -3.0989  -3.0549  -3.0549  -3.0356  -3.0356
    -2.9890  -2.9890  -2.9223  -2.9223  -2.8643  -2.8643  -2.8465  -2.8465
    -2.8447  -2.8447  -2.7764  -2.7764  -2.7166  -2.7166  -2.6949  -2.6949
    -2.6885  -2.6885  -2.6378  -2.6378  -2.5890  -2.5890  -2.5409  -2.5409
    -2.5140  -2.5140  -2.4287  -2.4287  -2.4167  -2.4167  -2.3358  -2.3358
    -2.3005  -2.3005  -2.2681  -2.2681  -2.2625  -2.2625  -2.2287  -2.2287
    -2.1552  -2.1552  -2.0848  -2.0848  -2.0790  -2.0790  -1.9836  -1.9836
    -1.9788  -1.9788  -1.9549  -1.9549  -1.9248  -1.9248  -1.9027  -1.9027

          k = 0.2500 0.4330 0.0000 (166642 PWs)   bands (ev):

   -20.5743 -20.3178 -20.3178 -20.2790 -20.0358 -20.0357 -19.9315 -19.7198
   -19.7194 -19.7095 -19.6575 -19.5014 -19.4214 -19.4171 -19.3024 -19.3009
   -19.1738 -19.1048 -18.9976 -18.9924 -18.9843 -18.9027 -18.9023 -18.8878
   -18.8460 -18.7979 -18.7781 -18.7716 -18.7533 -18.6888 -18.6866 -18.6752
   -18.6678 -18.6261 -18.6150 -18.6147 -18.5946 -18.5915 -18.5887 -18.5096
   -18.5011 -18.4970 -18.4889 -18.4785 -18.4618 -18.4468 -18.4235 -18.4054
   -18.3963 -18.3954 -18.3574 -18.3415 -18.3366 -18.2991 -18.2903 -18.2452
   -18.2039 -18.1766 -18.1300 -18.1245 -18.1219 -18.0971 -18.0849 -18.0781
   -18.0731 -18.0652 -18.0601 -18.0525 -18.0444 -18.0394 -18.0392 -18.0349
    -8.1872  -8.0669  -8.0532  -7.8754  -7.8234  -7.8116  -7.7779  -7.7527
    -7.6953  -7.6930  -7.6172  -7.5887  -7.5619  -7.5150  -7.5028  -7.4710
    -7.4312  -7.4058  -7.4026  -7.3794  -7.3230  -7.3093  -7.3016  -7.2195
    -7.2085  -7.1874  -7.1277  -7.0653  -7.0383  -7.0296  -6.9845  -6.8514
    -6.8504  -6.8378  -6.8091  -6.7909  -6.7079  -6.6375  -6.6199  -6.5726
    -6.4632  -6.3630  -6.3571  -6.3550  -6.3235  -6.2857  -6.2553  -6.2247
    -6.2033  -6.1272  -6.1255  -6.0714  -6.0057  -5.9920  -5.9532  -5.9233
    -5.8510  -5.8245  -5.7824  -5.7549  -5.7539  -5.7360  -5.6355  -5.5923
    -5.5530  -5.5255  -5.4853  -5.4693  -5.4453  -5.4397  -5.3428  -5.3037
    -5.2482  -5.2204  -5.1577  -5.0981  -5.0694  -4.9817  -4.9510  -4.8919
    -4.8735  -4.8439  -4.8293  -4.8007  -4.7340  -4.7201  -4.6588  -4.6188
    -4.6151  -4.5865  -4.5774  -4.5262  -4.4559  -4.4353  -4.4306  -4.3743
    -4.3584  -4.3377  -4.3071  -4.2580  -4.2402  -4.2181  -4.1932  -4.1901
    -4.0875  -4.0771  -4.0570  -4.0563  -4.0301  -4.0046  -3.9812  -3.9782
    -3.9505  -3.9450  -3.9107  -3.9001  -3.8781  -3.8612  -3.8218  -3.8129
    -3.8129  -3.7205  -3.7060  -3.7034  -3.7018  -3.6706  -3.6654  -3.6514
    -3.6143  -3.6112  -3.5891  -3.5678  -3.5317  -3.5073  -3.4834  -3.4396
    -3.4325  -3.4018  -3.3944  -3.3775  -3.3571  -3.3491  -3.2921  -3.2920
    -3.2913  -3.2584  -3.2500  -3.2499  -3.2245  -3.1880  -3.1329  -3.1234
    -3.0979  -3.0652  -3.0635  -3.0535  -3.0372  -3.0320  -3.0307  -2.9866
    -2.9807  -2.9731  -2.9444  -2.9310  -2.9026  -2.8897  -2.8794  -2.8140
    -2.8099  -2.8006  -2.7797  -2.7369  -2.7280  -2.7189  -2.7037  -2.6919
    -2.6733  -2.6619  -2.6441  -2.6405  -2.6157  -2.5968  -2.5645  -2.5201
    -2.4993  -2.4843  -2.4723  -2.4565  -2.4132  -2.3749  -2.3700  -2.3299
    -2.3252  -2.3160  -2.2970  -2.2928  -2.2671  -2.2538  -2.2304  -2.1799
    -2.1566  -2.1414  -2.1286  -2.1200  -2.0884  -2.0380  -2.0147  -1.9927
    -1.9742  -1.9731  -1.9625  -1.9167  -1.9139  -1.9055  -1.9003  -1.8585

     highest occupied level (ev):    -1.8392

!    total energy              =   -4910.93856979 Ry
     total all-electron energy =    -34162.768339 Ry
     estimated scf accuracy    <          2.6E-10 Ry

     The total energy is the sum of the following terms:
     one-electron contribution =  -81256.17707046 Ry
     hartree contribution      =   40863.38648642 Ry
     xc contribution           =    -676.28228226 Ry
     ewald contribution        =   38506.09520900 Ry
     one-center paw contrib.   =   -2347.96091249 Ry

     convergence has been achieved in  10 iterations

     negative rho (up, down):  4.797E-03 0.000E+00

     Forces acting on atoms (cartesian axes, Ry/au):

     atom    1 type  1   force =     0.00000000   -0.00000000   -0.00259069
     atom    2 type  1   force =     0.00000000   -0.00000000   -0.00095230
     atom    3 type  1   force =     0.00000000   -0.00000000   -0.00129386
     atom    4 type  1   force =    -0.00000000    0.00000000   -0.00056947
     atom    5 type  1   force =     0.00000000   -0.00000000    0.00103503
     atom    6 type  1   force =    -0.00000000    0.00000000    0.00213334
     atom    7 type  1   force =     0.00000000    0.00000000   -0.00213334
     atom    8 type  1   force =     0.00000000    0.00000000   -0.00103503
     atom    9 type  1   force =     0.00000000    0.00000000    0.00056947
     atom   10 type  1   force =     0.00000000    0.00000000    0.00129386
     atom   11 type  1   force =     0.00000000    0.00000000    0.00095230
     atom   12 type  1   force =    -0.00000000   -0.00000000    0.00259069
     atom   13 type  2   force =     0.00043763   -0.00033341   -0.00049545
     atom   14 type  2   force =    -0.00211626    0.00068194   -0.00299875
     atom   15 type  2   force =    -0.00050756   -0.00021229   -0.00049545
     atom   16 type  2   force =     0.00006993    0.00054570   -0.00049545
     atom   17 type  2   force =     0.00164870    0.00149176   -0.00299875
     atom   18 type  2   force =     0.00046755   -0.00217370   -0.00299875
     atom   19 type  2   force =     0.00198871    0.00114060   -0.00009001
     atom   20 type  2   force =     0.00000657    0.00229257    0.00009001
     atom   21 type  2   force =    -0.00000657   -0.00229257   -0.00009001
     atom   22 type  2   force =    -0.00198214    0.00115197   -0.00009001
     atom   23 type  2   force =     0.00198214   -0.00115197    0.00009001
     atom   24 type  2   force =    -0.00198871   -0.00114060    0.00009001
     atom   25 type  2   force =    -0.00046755    0.00217370    0.00299875
     atom   26 type  2   force =     0.00050756    0.00021229    0.00049545
     atom   27 type  2   force =     0.00211626   -0.00068194    0.00299875
     atom   28 type  2   force =    -0.00164870   -0.00149176    0.00299875
     atom   29 type  2   force =    -0.00006993   -0.00054570    0.00049545
     atom   30 type  2   force =    -0.00043763    0.00033341    0.00049545
     atom   31 type  1   force =    -0.00000000    0.00000000   -0.00259069
     atom   32 type  1   force =     0.00000000   -0.00000000   -0.00095230
     atom   33 type  1   force =    -0.00000000    0.00000000   -0.00129386
     atom   34 type  1   force =     0.00000000    0.00000000   -0.00056947
     atom   35 type  1   force =    -0.00000000   -0.00000000    0.00103503
     atom   36 type  1   force =     0.00000000   -0.00000000    0.00213334
     atom   37 type  1   force =     0.00000000    0.00000000   -0.00213334
     atom   38 type  1   force =     0.00000000    0.00000000   -0.00103503
     atom   39 type  1   force =     0.00000000   -0.00000000    0.00056947
     atom   40 type  1   force =     0.00000000   -0.00000000    0.00129386
     atom   41 type  1   force =     0.00000000   -0.00000000    0.00095230
     atom   42 type  1   force =     0.00000000    0.00000000    0.00259069
     atom   43 type  2   force =     0.00043763   -0.00033341   -0.00049545
     atom   44 type  2   force =    -0.00211626    0.00068194   -0.00299875
     atom   45 type  2   force =    -0.00050756   -0.00021229   -0.00049545
     atom   46 type  2   force =     0.00006993    0.00054570   -0.00049545
     atom   47 type  2   force =     0.00164870    0.00149176   -0.00299875
     atom   48 type  2   force =     0.00046755   -0.00217370   -0.00299875
     atom   49 type  2   force =     0.00198871    0.00114060   -0.00009001
     atom   50 type  2   force =     0.00000657    0.00229257    0.00009001
     atom   51 type  2   force =    -0.00000657   -0.00229257   -0.00009001
     atom   52 type  2   force =    -0.00198214    0.00115197   -0.00009001
     atom   53 type  2   force =     0.00198214   -0.00115197    0.00009001
     atom   54 type  2   force =    -0.00198871   -0.00114060    0.00009001
     atom   55 type  2   force =    -0.00046755    0.00217370    0.00299875
     atom   56 type  2   force =     0.00050756    0.00021229    0.00049545
     atom   57 type  2   force =     0.00211626   -0.00068194    0.00299875
     atom   58 type  2   force =    -0.00164870   -0.00149176    0.00299875
     atom   59 type  2   force =    -0.00006993   -0.00054570    0.00049545
     atom   60 type  2   force =    -0.00043763    0.00033341    0.00049545
     atom   61 type  1   force =     0.00000000   -0.00000000   -0.00259069
     atom   62 type  1   force =    -0.00000000    0.00000000   -0.00095230
     atom   63 type  1   force =     0.00000000    0.00000000   -0.00129386
     atom   64 type  1   force =     0.00000000    0.00000000   -0.00056947
     atom   65 type  1   force =    -0.00000000    0.00000000    0.00103503
     atom   66 type  1   force =     0.00000000    0.00000000    0.00213334
     atom   67 type  1   force =    -0.00000000    0.00000000   -0.00213334
     atom   68 type  1   force =     0.00000000   -0.00000000   -0.00103503
     atom   69 type  1   force =    -0.00000000   -0.00000000    0.00056947
     atom   70 type  1   force =    -0.00000000   -0.00000000    0.00129386
     atom   71 type  1   force =     0.00000000    0.00000000    0.00095230
     atom   72 type  1   force =     0.00000000   -0.00000000    0.00259069
     atom   73 type  2   force =     0.00043763   -0.00033341   -0.00049545
     atom   74 type  2   force =    -0.00211626    0.00068194   -0.00299875
     atom   75 type  2   force =    -0.00050756   -0.00021229   -0.00049545
     atom   76 type  2   force =     0.00006993    0.00054570   -0.00049545
     atom   77 type  2   force =     0.00164870    0.00149176   -0.00299875
     atom   78 type  2   force =     0.00046755   -0.00217370   -0.00299875
     atom   79 type  2   force =     0.00198871    0.00114060   -0.00009001
     atom   80 type  2   force =     0.00000657    0.00229257    0.00009001
     atom   81 type  2   force =    -0.00000657   -0.00229257   -0.00009001
     atom   82 type  2   force =    -0.00198214    0.00115197   -0.00009001
     atom   83 type  2   force =     0.00198214   -0.00115197    0.00009001
     atom   84 type  2   force =    -0.00198871   -0.00114060    0.00009001
     atom   85 type  2   force =    -0.00046755    0.00217370    0.00299875
     atom   86 type  2   force =     0.00050756    0.00021229    0.00049545
     atom   87 type  2   force =     0.00211626   -0.00068194    0.00299875
     atom   88 type  2   force =    -0.00164870   -0.00149176    0.00299875
     atom   89 type  2   force =    -0.00006993   -0.00054570    0.00049545
     atom   90 type  2   force =    -0.00043763    0.00033341    0.00049545
     atom   91 type  1   force =     0.00000000    0.00000000   -0.00259069
     atom   92 type  1   force =    -0.00000000   -0.00000000   -0.00095230
     atom   93 type  1   force =    -0.00000000   -0.00000000   -0.00129386
     atom   94 type  1   force =    -0.00000000   -0.00000000   -0.00056947
     atom   95 type  1   force =     0.00000000    0.00000000    0.00103503
     atom   96 type  1   force =    -0.00000000   -0.00000000    0.00213334
     atom   97 type  1   force =     0.00000000   -0.00000000   -0.00213334
     atom   98 type  1   force =    -0.00000000   -0.00000000   -0.00103503
     atom   99 type  1   force =     0.00000000   -0.00000000    0.00056947
     atom  100 type  1   force =     0.00000000    0.00000000    0.00129386
     atom  101 type  1   force =    -0.00000000    0.00000000    0.00095230
     atom  102 type  1   force =    -0.00000000    0.00000000    0.00259069
     atom  103 type  2   force =     0.00043763   -0.00033341   -0.00049545
     atom  104 type  2   force =    -0.00211626    0.00068194   -0.00299875
     atom  105 type  2   force =    -0.00050756   -0.00021229   -0.00049545
     atom  106 type  2   force =     0.00006993    0.00054570   -0.00049545
     atom  107 type  2   force =     0.00164870    0.00149176   -0.00299875
     atom  108 type  2   force =     0.00046755   -0.00217370   -0.00299875
     atom  109 type  2   force =     0.00198871    0.00114060   -0.00009001
     atom  110 type  2   force =     0.00000657    0.00229257    0.00009001
     atom  111 type  2   force =    -0.00000657   -0.00229257   -0.00009001
     atom  112 type  2   force =    -0.00198214    0.00115197   -0.00009001
     atom  113 type  2   force =     0.00198214   -0.00115197    0.00009001
     atom  114 type  2   force =    -0.00198871   -0.00114060    0.00009001
     atom  115 type  2   force =    -0.00046755    0.00217370    0.00299875
     atom  116 type  2   force =     0.00050756    0.00021229    0.00049545
     atom  117 type  2   force =     0.00211626   -0.00068194    0.00299875
     atom  118 type  2   force =    -0.00164870   -0.00149176    0.00299875
     atom  119 type  2   force =    -0.00006993   -0.00054570    0.00049545
     atom  120 type  2   force =    -0.00043763    0.00033341    0.00049545

     Total force =     0.024411     Total SCF correction =     0.000026


     Computing stress (Cartesian axis) and pressure


     negative rho (up, down):  4.797E-03 0.000E+00
          total   stress  (Ry/bohr**3)                   (kbar)     P=       11.39
   0.00014475   0.00000000   0.00000000           21.29        0.00        0.00
   0.00000000   0.00014475   0.00000000            0.00       21.29        0.00
   0.00000000   0.00000000  -0.00005730            0.00        0.00       -8.43

     Energy error            =      1.0E-03 Ry
     Gradient error          =      3.0E-03 Ry/Bohr

     number of scf cycles    =  11
     number of bfgs steps    =  10

     energy             old  =   -4910.9375486407 Ry
     energy             new  =   -4910.9385697893 Ry

     CASE: energy            _new < energy            _old

     new trust radius        =       0.0263002881 bohr
     new conv_thr            =       0.0000000003 Ry


ATOMIC_POSITIONS (angstrom)
Al              -0.0000000004        2.7741837603       24.0195629753
Al               2.4025136103        1.3870918806       22.0961384031
Al               0.0000000000       -0.0000000000       21.6500426376
Al               0.0000000004        2.7741837606       19.9365760937
Al               0.0000000000       -0.0000000000       15.0603928998
Al               0.0000000012        2.7741837614       14.0653623723
Al               2.4025136118        1.3870918797       25.2833973777
Al               0.0000000000       -0.0000000000       24.2883668502
Al               2.4025136108        1.3870918800       19.4121836563
Al               0.0000000000        0.0000000000       17.6987171124
Al              -0.0000000004        2.7741837606       17.2526213469
Al               2.4025136100        1.3870918805       15.3291967747
O                0.9291866343        1.3831499490       20.7779599044
O                1.6633487014        2.8628683238       22.9992434055
O                3.1357633175        2.6650014425       20.7779599031
O                3.1425909300        0.1131242192       20.7779599041
O                4.0501559545        1.2893392473       22.9992434040
O                1.4940361761        0.0090680704       22.9992434043
O               -1.5182777243        2.8410415188       25.1716885199
O                1.5854742606        0.1056536765       14.1770712300
O                0.8170393476        4.0556219541       25.1716885204
O                0.7012383259        1.4258878286       25.1716885200
O                1.7012752853        2.7353878111       14.1770712301
O                3.9207913348        1.3202341239       14.1770712296
O                3.3109910452       -0.0090680698       16.3495163445
O               -0.7332497054        1.4962741984       18.5707998456
O                0.7391649087        1.2984073176       16.3495163457
O                3.1573848773        2.8719363934       16.3495163449
O               -0.7400773200        4.0481514128       18.5707998469
O                1.4733269758        2.7781256907       18.5707998459
Al              -2.4025136096        6.9354594002       24.0195629753
Al               0.0000000000        5.5483675200       22.0961384043
Al              -2.4025136097        4.1612756396       21.6500426383
Al              -2.4025136096        6.9354593993       19.9365760937
Al              -2.4025136091        4.1612756386       15.0603928997
Al              -2.4025136094        6.9354593983       14.0653623723
Al               0.0000000000        5.5483675200       25.2833973817
Al              -2.4025136109        4.1612756414       24.2883668503
Al               0.0000000000        5.5483675200       19.4121836577
Al              -2.4025136103        4.1612756404       17.6987171117
Al              -2.4025136093        6.9354594001       17.2526213469
Al               0.0000000000        5.5483675200       15.3291967757
O               -1.4733269764        5.5444255891       20.7779599053
O               -0.7391649082        7.0241439628       22.9992434051
O                0.7332497059        6.8262770721       20.7779599053
O                0.7400773204        4.2743998588       20.7779599053
O                1.6476423427        5.4506148866       22.9992434051
O               -0.9084774345        4.1703437106       22.9992434051
O               -3.9207913353        7.0023171579       25.1716885200
O               -0.8170393497        4.2669293150       14.1770712293
O               -1.5854742603        8.2168975923       25.1716885199
O               -1.7012752828        5.5871634699       25.1716885204
O               -0.7012383270        6.8966634424       14.1770712293
O                1.5182777267        5.4815097626       14.1770712293
O                0.9084774348        4.1522075713       16.3495163460
O               -3.1357633158        5.6575498385       18.5707998459
O               -1.6633487002        5.4596829560       16.3495163460
O                0.7548712655        7.0332120327       16.3495163460
O               -3.1425909303        8.2094270506       18.5707998456
O               -0.9291866325        6.9394013297       18.5707998469
Al               4.8050272200        2.7741837600       24.0195629743
Al               7.2075408293        1.3870918799       22.0961384031
Al               4.8050272195       -0.0000000000       21.6500426383
Al               4.8050272200        2.7741837600       19.9365760923
Al               4.8050272183       -0.0000000001       15.0603928997
Al               4.8050272200        2.7741837600       14.0653623683
Al               7.2075408294        1.3870918817       25.2833973777
Al               4.8050272217        0.0000000001       24.2883668503
Al               7.2075408296        1.3870918807       19.4121836563
Al               4.8050272205        0.0000000000       17.6987171117
Al               4.8050272200        2.7741837600       17.2526213457
Al               7.2075408296        1.3870918798       15.3291967747
O                5.7342138525        1.3831499503       20.7779599031
O                6.4683759202        2.8628683240       22.9992434040
O                7.9407905358        2.6650014415       20.7779599041
O                7.9476181503        0.1131242194       20.7779599044
O                8.8551831726        1.2893392472       22.9992434043
O                6.2990633948        0.0090680698       22.9992434055
O                3.2867494933        2.8410415174       25.1716885207
O                6.3905014803        0.1056536777       14.1770712301
O                5.6220665697        4.0556219550       25.1716885207
O                5.5062655470        1.4258878276       25.1716885207
O                6.5063025028        2.7353878101       14.1770712296
O                8.7258185553        1.3202341221       14.1770712300
O                8.1160182639       -0.0090680704       16.3495163457
O                4.0717775141        1.4962741979       18.5707998447
O                5.5441921282        1.2984073172       16.3495163449
O                7.9624120963        2.8719363936       16.3495163445
O                4.0649498996        4.0481514112       18.5707998447
O                6.2783541964        2.7781256909       18.5707998447
Al               2.4025136100        6.9354593995       24.0195629753
Al               4.8050272204        5.5483675194       22.0961384031
Al               2.4025136102        4.1612756404       21.6500426383
Al               2.4025136092        6.9354594000       19.9365760937
Al               2.4025136107        4.1612756415       15.0603928997
Al               2.4025136082        6.9354594003       14.0653623723
Al               4.8050272188        5.5483675186       25.2833973777
Al               2.4025136093        4.1612756385       24.2883668503
Al               4.8050272196        5.5483675194       19.4121836563
Al               2.4025136098        4.1612756396       17.6987171117
Al               2.4025136097        6.9354593994       17.2526213469
Al               4.8050272204        5.5483675197       15.3291967747
O                3.3317002442        5.5444255893       20.7779599041
O                4.0658623113        7.0241439624       22.9992434043
O                5.5382769254        6.8262770716       20.7779599044
O                5.5451045400        4.2743998572       20.7779599031
O                6.4526695637        5.4506148864       22.9992434055
O                3.8965497852        4.1703437087       22.9992434040
O                0.8842358852        7.0023171561       25.1716885204
O                3.9879878724        4.2669293159       14.1770712296
O                3.2195529594        8.2168975935       25.1716885200
O                3.1037519347        5.5871634689       25.1716885199
O                4.1037888941        6.8966634414       14.1770712300
O                6.3233049443        5.4815097612       14.1770712301
O                5.7135046545        4.1522075694       16.3495163449
O                1.6692639025        5.6575498375       18.5707998469
O                3.1416785186        5.4596829562       16.3495163445
O                5.5598984874        7.0332120328       16.3495163457
O                1.6624362900        8.2094270508       18.5707998459
O                3.8758405857        6.9394013310       18.5707998456



     Writing config-only to output data dir ./tmp/al2o3.save/ :
     XML data file
     NEW-OLD atomic charge density approx. for the potential

     negative rho (up, down):  5.001E-03 0.000E+00

     total cpu time spent up to now is    19743.2 secs

     Self-consistent Calculation

     iteration #  1     ecut=    60.00 Ry     beta= 0.30
     Davidson diagonalization with overlap
     ethr =  1.00E-06,  avg # of iterations =  5.8

     negative rho (up, down):  4.931E-03 0.000E+00

     total cpu time spent up to now is    19888.1 secs

     total energy              =   -4910.93958291 Ry
     estimated scf accuracy    <       0.00067355 Ry

     iteration #  2     ecut=    60.00 Ry     beta= 0.30
     Davidson diagonalization with overlap
     ethr =  1.17E-07,  avg # of iterations =  3.2

     negative rho (up, down):  4.856E-03 0.000E+00

     total cpu time spent up to now is    19968.8 secs

     total energy              =   -4910.93960748 Ry
     estimated scf accuracy    <       0.00030706 Ry

     iteration #  3     ecut=    60.00 Ry     beta= 0.30
     Davidson diagonalization with overlap
     ethr =  5.33E-08,  avg # of iterations =  2.0

     negative rho (up, down):  4.821E-03 0.000E+00

     total cpu time spent up to now is    20048.8 secs

     total energy              =   -4910.93964387 Ry
     estimated scf accuracy    <       0.00004137 Ry

     iteration #  4     ecut=    60.00 Ry     beta= 0.30
     Davidson diagonalization with overlap
     ethr =  7.18E-09,  avg # of iterations =  4.0

     negative rho (up, down):  4.806E-03 0.000E+00

     total cpu time spent up to now is    20135.0 secs

     total energy              =   -4910.93965004 Ry
     estimated scf accuracy    <       0.00000925 Ry

     iteration #  5     ecut=    60.00 Ry     beta= 0.30
     Davidson diagonalization with overlap
     ethr =  1.61E-09,  avg # of iterations =  3.8

     negative rho (up, down):  4.803E-03 0.000E+00

     total cpu time spent up to now is    20224.0 secs

     total energy              =   -4910.93965204 Ry
     estimated scf accuracy    <       0.00000134 Ry

     iteration #  6     ecut=    60.00 Ry     beta= 0.30
     Davidson diagonalization with overlap
     ethr =  2.33E-10,  avg # of iterations =  3.5

     negative rho (up, down):  4.802E-03 0.000E+00

     total cpu time spent up to now is    20310.8 secs

     total energy              =   -4910.93965222 Ry
     estimated scf accuracy    <       0.00000016 Ry

     iteration #  7     ecut=    60.00 Ry     beta= 0.30
     Davidson diagonalization with overlap
     ethr =  2.73E-11,  avg # of iterations =  5.2

     negative rho (up, down):  4.802E-03 0.000E+00

     total cpu time spent up to now is    20415.1 secs

     total energy              =   -4910.93965221 Ry
     estimated scf accuracy    <       0.00000018 Ry

     iteration #  8     ecut=    60.00 Ry     beta= 0.30
     Davidson diagonalization with overlap
     ethr =  2.73E-11,  avg # of iterations =  4.2

     negative rho (up, down):  4.803E-03 0.000E+00

     total cpu time spent up to now is    20510.0 secs

     total energy              =   -4910.93965225 Ry
     estimated scf accuracy    <       0.00000003 Ry

     iteration #  9     ecut=    60.00 Ry     beta= 0.30
     Davidson diagonalization with overlap
     ethr =  5.66E-12,  avg # of iterations =  4.2

     negative rho (up, down):  4.803E-03 0.000E+00

     total cpu time spent up to now is    20602.4 secs

     total energy              =   -4910.93965226 Ry
     estimated scf accuracy    <          4.4E-09 Ry

     iteration # 10     ecut=    60.00 Ry     beta= 0.30
     Davidson diagonalization with overlap
     ethr =  7.65E-13,  avg # of iterations =  2.0

     negative rho (up, down):  4.803E-03 0.000E+00

     total cpu time spent up to now is    20673.6 secs

     total energy              =   -4910.93965226 Ry
     estimated scf accuracy    <          4.9E-09 Ry

     iteration # 11     ecut=    60.00 Ry     beta= 0.30
     Davidson diagonalization with overlap
     ethr =  7.65E-13,  avg # of iterations =  3.2

     negative rho (up, down):  4.804E-03 0.000E+00

     total cpu time spent up to now is    20758.7 secs

     End of self-consistent calculation

          k = 0.0000 0.0000 0.0000 (166875 PWs)   bands (ev):

   -20.8198 -20.5157 -20.1409 -19.9010 -19.9010 -19.9010 -19.8418 -19.8418
   -19.8418 -19.6600 -19.6600 -19.6600 -19.5837 -19.4643 -19.4643 -19.4643
   -19.2178 -19.2178 -19.2178 -19.2116 -19.2116 -19.2116 -18.9600 -18.8840
   -18.8840 -18.8840 -18.8040 -18.8040 -18.8040 -18.7573 -18.7573 -18.7573
   -18.7507 -18.6090 -18.6090 -18.6090 -18.5092 -18.5092 -18.5092 -18.4785
   -18.4785 -18.4785 -18.4617 -18.4617 -18.3661 -18.3661 -18.3661 -18.3482
   -18.3482 -18.3245 -18.3245 -18.3245 -18.3077 -18.3077 -18.3077 -18.2668
   -18.2668 -18.2497 -18.2497 -18.2166 -18.2166 -18.2166 -18.1344 -18.1344
   -18.1344 -18.1165 -18.1165 -18.1039 -18.1039 -18.0984 -18.0984 -18.0984
    -8.3823  -8.1818  -8.1818  -8.1818  -8.0979  -8.0979  -8.0979  -7.8360
    -7.8360  -7.8360  -7.7342  -7.6669  -7.6669  -7.6669  -7.5143  -7.4859
    -7.3857  -7.3857  -7.3857  -7.2128  -7.2128  -7.2128  -7.1962  -7.1962
    -7.0932  -7.0134  -7.0134  -7.0134  -6.8836  -6.8836  -6.8836  -6.8452
    -6.8452  -6.7005  -6.6332  -6.6332  -6.6332  -6.6290  -6.6290  -6.6290
    -6.5031  -6.5031  -6.5031  -6.4948  -6.3439  -6.3439  -6.0224  -5.9422
    -5.9422  -5.9107  -5.9107  -5.9107  -5.8052  -5.8052  -5.8052  -5.7870
    -5.7870  -5.7445  -5.7445  -5.7445  -5.6673  -5.6673  -5.6269  -5.6205
    -5.6205  -5.6205  -5.5381  -5.5381  -5.5381  -5.5066  -5.5066  -5.5066
    -5.3997  -5.3710  -5.3710  -5.3710  -5.2795  -5.2795  -5.2795  -5.2744
    -5.1683  -5.1683  -5.1683  -5.0185  -5.0185  -5.0185  -5.0037  -4.8360
    -4.8360  -4.8360  -4.7661  -4.6640  -4.6640  -4.6640  -4.5417  -4.4260
    -4.3859  -4.3859  -4.3859  -4.2579  -4.2579  -4.2579  -4.1626  -4.1626
    -4.1626  -4.0526  -4.0526  -4.0526  -4.0511  -4.0511  -4.0511  -4.0369
    -4.0369  -4.0369  -4.0300  -4.0300  -3.9506  -3.9506  -3.7913  -3.7633
    -3.7633  -3.7633  -3.7300  -3.7300  -3.7300  -3.5534  -3.5534  -3.5534
    -3.5079  -3.5079  -3.5079  -3.4553  -3.4553  -3.4553  -3.3824  -3.3824
    -3.3431  -3.3431  -3.3122  -3.3122  -3.3122  -3.2908  -3.2908  -3.2908
    -3.2761  -3.2761  -3.2761  -3.2188  -3.2188  -3.2188  -3.1816  -3.1816
    -3.1816  -3.0776  -3.0776  -3.0776  -2.9890  -2.9890  -2.9890  -2.9813
    -2.9813  -2.9813  -2.9683  -2.9683  -2.9683  -2.9642  -2.9642  -2.9442
    -2.9442  -2.9351  -2.9351  -2.9351  -2.8617  -2.8617  -2.8617  -2.8200
    -2.7603  -2.7603  -2.7603  -2.5804  -2.5804  -2.5804  -2.5552  -2.5552
    -2.5552  -2.4475  -2.4475  -2.4475  -2.4442  -2.4442  -2.3702  -2.3702
    -2.3545  -2.3545  -2.3545  -2.2293  -2.2293  -2.2057  -2.1299  -2.1299
    -2.1299  -2.0932  -2.0932  -2.0918  -2.0918  -2.0918  -2.0172  -2.0172
    -2.0172  -1.9606  -1.9606  -1.9606  -1.8872  -1.8872  -1.8743  -1.8743

          k = 0.0000 0.2887 0.0000 (166721 PWs)   bands (ev):

   -20.7506 -20.4491 -20.2382 -20.0805 -20.0144 -20.0143 -19.9663 -19.7827
   -19.7810 -19.6734 -19.6227 -19.6170 -19.5358 -19.4295 -19.4237 -19.3964
   -19.2181 -19.2087 -19.1009 -19.0982 -19.0818 -19.0649 -18.9510 -18.9407
   -18.9249 -18.8853 -18.8490 -18.8271 -18.7382 -18.7317 -18.7223 -18.7072
   -18.6810 -18.6574 -18.6335 -18.5948 -18.5883 -18.5865 -18.5596 -18.5536
   -18.5302 -18.4933 -18.4807 -18.4787 -18.4298 -18.4129 -18.4061 -18.4058
   -18.3934 -18.3528 -18.3520 -18.3290 -18.3200 -18.3187 -18.2905 -18.2710
   -18.2709 -18.2644 -18.2223 -18.1859 -18.1690 -18.1503 -18.1398 -18.1303
   -18.1104 -18.1093 -18.0947 -18.0929 -18.0901 -18.0899 -18.0893 -18.0787
    -8.3271  -8.1891  -8.0831  -8.0648  -7.9936  -7.9711  -7.9490  -7.8331
    -7.7912  -7.7089  -7.7013  -7.6520  -7.5839  -7.5838  -7.5806  -7.5644
    -7.5398  -7.5160  -7.4493  -7.3787  -7.2104  -7.2075  -7.1810  -7.1796
    -7.1402  -7.1303  -7.1241  -7.0316  -7.0047  -6.9091  -6.8804  -6.8239
    -6.8106  -6.7664  -6.7472  -6.7323  -6.7094  -6.6698  -6.6357  -6.5424
    -6.5246  -6.5234  -6.5158  -6.5148  -6.3069  -6.2281  -6.1319  -6.1291
    -6.1166  -6.0544  -6.0326  -5.9960  -5.9931  -5.9088  -5.8869  -5.8844
    -5.8803  -5.8311  -5.8149  -5.8046  -5.7901  -5.6925  -5.6765  -5.6667
    -5.6324  -5.6031  -5.5932  -5.5420  -5.5327  -5.4917  -5.4565  -5.4484
    -5.2838  -5.2213  -5.1509  -5.1370  -5.0816  -5.0750  -5.0736  -5.0465
    -5.0452  -5.0181  -4.9933  -4.9723  -4.9586  -4.8718  -4.8606  -4.7611
    -4.7299  -4.6546  -4.6338  -4.6324  -4.5753  -4.5024  -4.4876  -4.4723
    -4.4422  -4.4078  -4.3945  -4.3745  -4.2949  -4.2816  -4.2671  -4.2499
    -4.2279  -4.1913  -4.1704  -4.1589  -4.1141  -4.0652  -4.0537  -4.0235
    -3.9471  -3.9157  -3.8840  -3.8820  -3.8701  -3.8475  -3.8321  -3.8230
    -3.7673  -3.7574  -3.7260  -3.6960  -3.6803  -3.6323  -3.6247  -3.6006
    -3.5747  -3.5587  -3.5000  -3.4983  -3.4691  -3.4686  -3.4669  -3.4628
    -3.4166  -3.4093  -3.4062  -3.3655  -3.3586  -3.3330  -3.3069  -3.3022
    -3.2822  -3.2488  -3.2471  -3.2448  -3.2388  -3.2016  -3.1841  -3.1832
    -3.1827  -3.1317  -3.1119  -3.0998  -3.0833  -3.0739  -3.0630  -3.0501
    -3.0292  -3.0044  -2.9815  -2.9809  -2.9459  -2.9376  -2.9304  -2.9140
    -2.8453  -2.8224  -2.8202  -2.7741  -2.7648  -2.7508  -2.7379  -2.7326
    -2.7307  -2.7240  -2.6663  -2.6032  -2.5927  -2.5917  -2.5704  -2.5555
    -2.5233  -2.5099  -2.5081  -2.4813  -2.4579  -2.3899  -2.3886  -2.3775
    -2.3575  -2.3514  -2.3489  -2.3332  -2.3019  -2.2317  -2.1667  -2.1468
    -2.1395  -2.1241  -2.1224  -2.0919  -2.0897  -2.0803  -2.0751  -2.0274
    -2.0202  -2.0110  -1.9880  -1.9689  -1.9623  -1.9526  -1.9109  -1.8802

          k = 0.0000-0.5774 0.0000 (166636 PWs)   bands (ev):

   -20.5494 -20.5494 -20.2565 -20.2565 -20.0657 -20.0657 -19.9084 -19.9084
   -19.8086 -19.8086 -19.5519 -19.5519 -19.4105 -19.4105 -19.3715 -19.3715
   -19.1521 -19.1521 -19.0631 -19.0631 -18.9299 -18.9299 -18.9157 -18.9157
   -18.8776 -18.8776 -18.8021 -18.8021 -18.7761 -18.7761 -18.7579 -18.7579
   -18.7274 -18.7274 -18.6456 -18.6456 -18.5721 -18.5721 -18.5337 -18.5337
   -18.5243 -18.5243 -18.5147 -18.5147 -18.4951 -18.4951 -18.4870 -18.4870
   -18.4080 -18.4080 -18.3909 -18.3909 -18.3324 -18.3324 -18.3111 -18.3111
   -18.2055 -18.2055 -18.1728 -18.1728 -18.1368 -18.1368 -18.1176 -18.1176
   -18.1060 -18.1060 -18.0973 -18.0973 -18.0773 -18.0773 -18.0692 -18.0692
    -8.2099  -8.2099  -7.9005  -7.9005  -7.8497  -7.8497  -7.7826  -7.7826
    -7.7551  -7.7551  -7.6977  -7.6977  -7.6485  -7.6485  -7.4839  -7.4839
    -7.4221  -7.4221  -7.4022  -7.4022  -7.3738  -7.3738  -7.2963  -7.2963
    -7.1900  -7.1900  -7.1600  -7.1600  -7.0567  -7.0567  -7.0520  -7.0520
    -6.8612  -6.8612  -6.8325  -6.8325  -6.6604  -6.6604  -6.6535  -6.6535
    -6.3754  -6.3754  -6.3375  -6.3375  -6.3214  -6.3214  -6.2842  -6.2842
    -6.2150  -6.2150  -6.2001  -6.2001  -6.0038  -6.0038  -5.9588  -5.9588
    -5.8678  -5.8678  -5.7826  -5.7826  -5.7754  -5.7754  -5.7745  -5.7745
    -5.6876  -5.6876  -5.4760  -5.4760  -5.3139  -5.3139  -5.2878  -5.2878
    -5.1789  -5.1789  -5.1426  -5.1426  -5.0890  -5.0890  -4.9857  -4.9857
    -4.9330  -4.9330  -4.8539  -4.8539  -4.7659  -4.7659  -4.7658  -4.7658
    -4.6636  -4.6636  -4.5920  -4.5920  -4.5596  -4.5596  -4.4214  -4.4214
    -4.3657  -4.3657  -4.3374  -4.3374  -4.2935  -4.2935  -4.1471  -4.1471
    -4.1322  -4.1322  -4.0978  -4.0978  -4.0840  -4.0840  -3.9988  -3.9988
    -3.9320  -3.9320  -3.9195  -3.9195  -3.9090  -3.9090  -3.8650  -3.8650
    -3.7786  -3.7786  -3.7355  -3.7355  -3.6838  -3.6838  -3.6573  -3.6573
    -3.6207  -3.6207  -3.6018  -3.6018  -3.5204  -3.5204  -3.4873  -3.4873
    -3.4410  -3.4410  -3.3699  -3.3699  -3.3539  -3.3539  -3.2997  -3.2997
    -3.2938  -3.2938  -3.2530  -3.2530  -3.2429  -3.2429  -3.2116  -3.2116
    -3.1537  -3.1537  -3.1320  -3.1320  -3.0847  -3.0847  -3.0656  -3.0656
    -3.0221  -3.0221  -2.9574  -2.9574  -2.8957  -2.8957  -2.8781  -2.8781
    -2.8775  -2.8775  -2.8108  -2.8108  -2.7487  -2.7487  -2.7249  -2.7249
    -2.7191  -2.7191  -2.6690  -2.6690  -2.6206  -2.6206  -2.5705  -2.5705
    -2.5453  -2.5453  -2.4608  -2.4608  -2.4492  -2.4492  -2.3645  -2.3645
    -2.3297  -2.3297  -2.2989  -2.2989  -2.2933  -2.2933  -2.2599  -2.2599
    -2.1819  -2.1819  -2.1144  -2.1144  -2.1086  -2.1086  -2.0094  -2.0094
    -2.0091  -2.0091  -1.9884  -1.9884  -1.9563  -1.9563  -1.9360  -1.9360

          k = 0.2500 0.4330 0.0000 (166642 PWs)   bands (ev):

   -20.6153 -20.3586 -20.3586 -20.3194 -20.0761 -20.0761 -19.9640 -19.7528
   -19.7524 -19.7487 -19.6984 -19.5427 -19.4606 -19.4477 -19.3349 -19.3334
   -19.2077 -19.1351 -19.0330 -19.0278 -19.0171 -18.9395 -18.9369 -18.9241
   -18.8775 -18.8344 -18.8089 -18.8073 -18.7885 -18.7206 -18.7190 -18.7064
   -18.7012 -18.6630 -18.6504 -18.6465 -18.6301 -18.6258 -18.6206 -18.5404
   -18.5316 -18.5274 -18.5247 -18.5129 -18.4918 -18.4770 -18.4542 -18.4375
   -18.4272 -18.4258 -18.3880 -18.3719 -18.3678 -18.3285 -18.3214 -18.2783
   -18.2365 -18.2097 -18.1634 -18.1577 -18.1563 -18.1312 -18.1197 -18.1127
   -18.1078 -18.0998 -18.0943 -18.0870 -18.0798 -18.0750 -18.0748 -18.0706
    -8.2205  -8.1025  -8.0890  -7.9151  -7.8609  -7.8492  -7.8172  -7.7894
    -7.7352  -7.7316  -7.6549  -7.6296  -7.5989  -7.5520  -7.5342  -7.5114
    -7.4634  -7.4396  -7.4378  -7.4148  -7.3567  -7.3444  -7.3356  -7.2542
    -7.2447  -7.2212  -7.1611  -7.0946  -7.0690  -7.0638  -7.0160  -6.8853
    -6.8801  -6.8655  -6.8424  -6.8200  -6.7440  -6.6732  -6.6557  -6.6093
    -6.4929  -6.3948  -6.3920  -6.3885  -6.3517  -6.3222  -6.2897  -6.2576
    -6.2335  -6.1646  -6.1616  -6.1108  -6.0387  -6.0310  -5.9914  -5.9603
    -5.8842  -5.8626  -5.8184  -5.7874  -5.7874  -5.7746  -5.6708  -5.6270
    -5.5866  -5.5617  -5.5193  -5.4991  -5.4763  -5.4745  -5.3773  -5.3326
    -5.2810  -5.2523  -5.1894  -5.1323  -5.0932  -5.0126  -4.9827  -4.9254
    -4.8999  -4.8741  -4.8603  -4.8266  -4.7642  -4.7487  -4.6924  -4.6485
    -4.6451  -4.6185  -4.6076  -4.5579  -4.4875  -4.4687  -4.4624  -4.4051
    -4.3933  -4.3658  -4.3416  -4.2891  -4.2729  -4.2519  -4.2264  -4.2152
    -4.1194  -4.1049  -4.0910  -4.0877  -4.0611  -4.0377  -4.0109  -4.0105
    -3.9774  -3.9769  -3.9440  -3.9307  -3.9081  -3.8945  -3.8541  -3.8484
    -3.8395  -3.7549  -3.7352  -3.7333  -3.7331  -3.7016  -3.6948  -3.6840
    -3.6450  -3.6405  -3.6218  -3.5881  -3.5584  -3.5397  -3.5162  -3.4721
    -3.4627  -3.4346  -3.4224  -3.4120  -3.3846  -3.3819  -3.3276  -3.3243
    -3.3217  -3.2882  -3.2877  -3.2801  -3.2548  -3.2176  -3.1601  -3.1530
    -3.1319  -3.0990  -3.0974  -3.0856  -3.0711  -3.0611  -3.0595  -3.0167
    -3.0091  -3.0047  -2.9757  -2.9631  -2.9357  -2.9249  -2.9128  -2.8475
    -2.8432  -2.8321  -2.8141  -2.7687  -2.7587  -2.7515  -2.7358  -2.7234
    -2.7027  -2.6928  -2.6776  -2.6716  -2.6496  -2.6267  -2.5977  -2.5519
    -2.5297  -2.5137  -2.5064  -2.4875  -2.4441  -2.4038  -2.4028  -2.3603
    -2.3575  -2.3453  -2.3265  -2.3236  -2.2946  -2.2838  -2.2620  -2.2074
    -2.1856  -2.1679  -2.1556  -2.1500  -2.1186  -2.0663  -2.0411  -2.0187
    -2.0063  -2.0033  -1.9938  -1.9494  -1.9466  -1.9366  -1.9340  -1.8930

     highest occupied level (ev):    -1.8743

!    total energy              =   -4910.93965226 Ry
     total all-electron energy =    -34162.769422 Ry
     estimated scf accuracy    <          1.3E-10 Ry

     The total energy is the sum of the following terms:
     one-electron contribution =  -81354.38830557 Ry
     hartree contribution      =   40911.85669525 Ry
     xc contribution           =    -676.36906837 Ry
     ewald contribution        =   38555.92999413 Ry
     one-center paw contrib.   =   -2347.96896771 Ry

     convergence has been achieved in  11 iterations

     negative rho (up, down):  4.804E-03 0.000E+00

     Forces acting on atoms (cartesian axes, Ry/au):

     atom    1 type  1   force =    -0.00000000    0.00000000   -0.00036621
     atom    2 type  1   force =     0.00000000    0.00000000   -0.00103524
     atom    3 type  1   force =     0.00000000    0.00000000   -0.00224907
     atom    4 type  1   force =     0.00000000    0.00000000   -0.00080888
     atom    5 type  1   force =     0.00000000    0.00000000    0.00206599
     atom    6 type  1   force =    -0.00000000   -0.00000000    0.00060495
     atom    7 type  1   force =    -0.00000000   -0.00000000   -0.00060495
     atom    8 type  1   force =     0.00000000   -0.00000000   -0.00206599
     atom    9 type  1   force =     0.00000000    0.00000000    0.00080888
     atom   10 type  1   force =     0.00000000    0.00000000    0.00224907
     atom   11 type  1   force =     0.00000000    0.00000000    0.00103524
     atom   12 type  1   force =     0.00000000    0.00000000    0.00036621
     atom   13 type  2   force =     0.00047421   -0.00057697   -0.00073351
     atom   14 type  2   force =    -0.00229622    0.00007601   -0.00286051
     atom   15 type  2   force =    -0.00073678   -0.00012219   -0.00073351
     atom   16 type  2   force =     0.00026257    0.00069917   -0.00073351
     atom   17 type  2   force =     0.00121393    0.00195058   -0.00286051
     atom   18 type  2   force =     0.00108229   -0.00202659   -0.00286051
     atom   19 type  2   force =     0.00289343   -0.00021375    0.00009192
     atom   20 type  2   force =     0.00163183    0.00239891   -0.00009192
     atom   21 type  2   force =    -0.00163183   -0.00239892    0.00009192
     atom   22 type  2   force =    -0.00126161    0.00261266    0.00009192
     atom   23 type  2   force =     0.00126161   -0.00261266   -0.00009192
     atom   24 type  2   force =    -0.00289344    0.00021375   -0.00009192
     atom   25 type  2   force =    -0.00108229    0.00202659    0.00286051
     atom   26 type  2   force =     0.00073678    0.00012219    0.00073351
     atom   27 type  2   force =     0.00229622   -0.00007601    0.00286051
     atom   28 type  2   force =    -0.00121393   -0.00195058    0.00286051
     atom   29 type  2   force =    -0.00026257   -0.00069917    0.00073351
     atom   30 type  2   force =    -0.00047421    0.00057697    0.00073351
     atom   31 type  1   force =     0.00000000   -0.00000000   -0.00036621
     atom   32 type  1   force =     0.00000000    0.00000000   -0.00103524
     atom   33 type  1   force =     0.00000000    0.00000000   -0.00224907
     atom   34 type  1   force =     0.00000000   -0.00000000   -0.00080888
     atom   35 type  1   force =    -0.00000000    0.00000000    0.00206599
     atom   36 type  1   force =    -0.00000000    0.00000000    0.00060495
     atom   37 type  1   force =     0.00000000    0.00000000   -0.00060495
     atom   38 type  1   force =     0.00000000   -0.00000000   -0.00206599
     atom   39 type  1   force =     0.00000000   -0.00000000    0.00080888
     atom   40 type  1   force =    -0.00000000   -0.00000000    0.00224907
     atom   41 type  1   force =     0.00000000   -0.00000000    0.00103524
     atom   42 type  1   force =     0.00000000    0.00000000    0.00036621
     atom   43 type  2   force =     0.00047421   -0.00057697   -0.00073351
     atom   44 type  2   force =    -0.00229622    0.00007601   -0.00286051
     atom   45 type  2   force =    -0.00073678   -0.00012219   -0.00073351
     atom   46 type  2   force =     0.00026257    0.00069916   -0.00073351
     atom   47 type  2   force =     0.00121393    0.00195058   -0.00286051
     atom   48 type  2   force =     0.00108229   -0.00202659   -0.00286051
     atom   49 type  2   force =     0.00289343   -0.00021375    0.00009192
     atom   50 type  2   force =     0.00163183    0.00239892   -0.00009192
     atom   51 type  2   force =    -0.00163183   -0.00239891    0.00009192
     atom   52 type  2   force =    -0.00126161    0.00261266    0.00009192
     atom   53 type  2   force =     0.00126161   -0.00261266   -0.00009192
     atom   54 type  2   force =    -0.00289344    0.00021375   -0.00009192
     atom   55 type  2   force =    -0.00108229    0.00202659    0.00286051
     atom   56 type  2   force =     0.00073678    0.00012219    0.00073351
     atom   57 type  2   force =     0.00229622   -0.00007601    0.00286051
     atom   58 type  2   force =    -0.00121393   -0.00195058    0.00286051
     atom   59 type  2   force =    -0.00026257   -0.00069917    0.00073351
     atom   60 type  2   force =    -0.00047421    0.00057697    0.00073351
     atom   61 type  1   force =     0.00000000   -0.00000000   -0.00036621
     atom   62 type  1   force =    -0.00000000    0.00000000   -0.00103524
     atom   63 type  1   force =     0.00000000   -0.00000000   -0.00224907
     atom   64 type  1   force =     0.00000000    0.00000000   -0.00080888
     atom   65 type  1   force =     0.00000000    0.00000000    0.00206599
     atom   66 type  1   force =     0.00000000    0.00000000    0.00060495
     atom   67 type  1   force =     0.00000000   -0.00000000   -0.00060495
     atom   68 type  1   force =    -0.00000000   -0.00000000   -0.00206599
     atom   69 type  1   force =    -0.00000000    0.00000000    0.00080888
     atom   70 type  1   force =    -0.00000000    0.00000000    0.00224907
     atom   71 type  1   force =     0.00000000    0.00000000    0.00103524
     atom   72 type  1   force =    -0.00000000    0.00000000    0.00036621
     atom   73 type  2   force =     0.00047421   -0.00057697   -0.00073351
     atom   74 type  2   force =    -0.00229622    0.00007601   -0.00286051
     atom   75 type  2   force =    -0.00073678   -0.00012219   -0.00073351
     atom   76 type  2   force =     0.00026257    0.00069917   -0.00073351
     atom   77 type  2   force =     0.00121393    0.00195058   -0.00286051
     atom   78 type  2   force =     0.00108229   -0.00202659   -0.00286051
     atom   79 type  2   force =     0.00289344   -0.00021375    0.00009192
     atom   80 type  2   force =     0.00163183    0.00239891   -0.00009192
     atom   81 type  2   force =    -0.00163183   -0.00239892    0.00009192
     atom   82 type  2   force =    -0.00126161    0.00261266    0.00009192
     atom   83 type  2   force =     0.00126161   -0.00261266   -0.00009192
     atom   84 type  2   force =    -0.00289343    0.00021375   -0.00009192
     atom   85 type  2   force =    -0.00108229    0.00202659    0.00286051
     atom   86 type  2   force =     0.00073678    0.00012219    0.00073351
     atom   87 type  2   force =     0.00229622   -0.00007601    0.00286051
     atom   88 type  2   force =    -0.00121393   -0.00195058    0.00286051
     atom   89 type  2   force =    -0.00026257   -0.00069916    0.00073351
     atom   90 type  2   force =    -0.00047421    0.00057697    0.00073351
     atom   91 type  1   force =    -0.00000000   -0.00000000   -0.00036621
     atom   92 type  1   force =    -0.00000000   -0.00000000   -0.00103524
     atom   93 type  1   force =    -0.00000000    0.00000000   -0.00224907
     atom   94 type  1   force =    -0.00000000   -0.00000000   -0.00080888
     atom   95 type  1   force =     0.00000000   -0.00000000    0.00206599
     atom   96 type  1   force =     0.00000000    0.00000000    0.00060495
     atom   97 type  1   force =     0.00000000    0.00000000   -0.00060495
     atom   98 type  1   force =    -0.00000000    0.00000000   -0.00206599
     atom   99 type  1   force =    -0.00000000   -0.00000000    0.00080888
     atom  100 type  1   force =     0.00000000   -0.00000000    0.00224907
     atom  101 type  1   force =    -0.00000000   -0.00000000    0.00103524
     atom  102 type  1   force =     0.00000000   -0.00000000    0.00036621
     atom  103 type  2   force =     0.00047421   -0.00057697   -0.00073351
     atom  104 type  2   force =    -0.00229622    0.00007601   -0.00286051
     atom  105 type  2   force =    -0.00073678   -0.00012219   -0.00073351
     atom  106 type  2   force =     0.00026257    0.00069917   -0.00073351
     atom  107 type  2   force =     0.00121393    0.00195058   -0.00286051
     atom  108 type  2   force =     0.00108229   -0.00202659   -0.00286051
     atom  109 type  2   force =     0.00289344   -0.00021375    0.00009192
     atom  110 type  2   force =     0.00163183    0.00239892   -0.00009192
     atom  111 type  2   force =    -0.00163183   -0.00239891    0.00009192
     atom  112 type  2   force =    -0.00126161    0.00261266    0.00009192
     atom  113 type  2   force =     0.00126161   -0.00261266   -0.00009192
     atom  114 type  2   force =    -0.00289343    0.00021375   -0.00009192
     atom  115 type  2   force =    -0.00108229    0.00202659    0.00286051
     atom  116 type  2   force =     0.00073678    0.00012219    0.00073351
     atom  117 type  2   force =     0.00229622   -0.00007601    0.00286051
     atom  118 type  2   force =    -0.00121393   -0.00195058    0.00286051
     atom  119 type  2   force =    -0.00026257   -0.00069917    0.00073351
     atom  120 type  2   force =    -0.00047421    0.00057697    0.00073351

     Total force =     0.025377     Total SCF correction =     0.000056


     Computing stress (Cartesian axis) and pressure


     negative rho (up, down):  4.804E-03 0.000E+00
          total   stress  (Ry/bohr**3)                   (kbar)     P=       12.27
   0.00014847   0.00000000   0.00000000           21.84        0.00        0.00
   0.00000000   0.00014847   0.00000000            0.00       21.84        0.00
   0.00000000   0.00000000  -0.00004663            0.00        0.00       -6.86

     Energy error            =      1.1E-03 Ry
     Gradient error          =      2.9E-03 Ry/Bohr

     number of scf cycles    =  12
     number of bfgs steps    =  11

     energy             old  =   -4910.9385697893 Ry
     energy             new  =   -4910.9396522626 Ry

     CASE: energy            _new < energy            _old

     new trust radius        =       0.0270032793 bohr
     new conv_thr            =       0.0000000003 Ry


ATOMIC_POSITIONS (angstrom)
Al              -0.0000000004        2.7741837600       24.0085717487
Al               2.4025136107        1.3870918807       22.0906550643
Al               0.0000000000       -0.0000000000       21.6482989702
Al               0.0000000005        2.7741837611       19.9372853289
Al               0.0000000000       -0.0000000000       15.0627185153
Al               0.0000000027        2.7741837610       14.0796518911
Al               2.4025136123        1.3870918782       25.2691078589
Al               0.0000000000       -0.0000000000       24.2860412347
Al               2.4025136111        1.3870918801       19.4114744211
Al               0.0000000000        0.0000000000       17.7004607798
Al              -0.0000000003        2.7741837610       17.2581046857
Al               2.4025136097        1.3870918804       15.3401880013
O                0.9293825880        1.3831408073       20.7765594850
O                1.6624117145        2.8634954657       22.9923731416
O                3.1356574234        2.6648363131       20.7765594831
O                3.1425008702        0.1132984912       20.7765594844
O                4.0511675691        1.2898371314       22.9923731413
O                1.4939615486        0.0079430437       22.9923731410
O               -1.5169238214        2.8414803056       25.1645674941
O                1.5857712141        0.1070455805       14.1841922569
O                0.8167423950        4.0542300471       25.1645674931
O                0.7001813784        1.4268409499       25.1645674931
O                1.7023322374        2.7344346901       14.1841922559
O                3.9194374318        1.3197953389       14.1841922569
O                3.3110656725       -0.0079430444       16.3563866084
O               -0.7331438117        1.4964393284       18.5722002650
O                0.7401018966        1.2977801749       16.3563866090
O                3.1563732615        2.8714385099       16.3563866092
O               -0.7399872608        4.0479771411       18.5722002669
O                1.4731310219        2.7781348326       18.5722002656
Al              -2.4025136098        6.9354594004       24.0085717487
Al               0.0000000000        5.5483675200       22.0906550662
Al              -2.4025136094        4.1612756397       21.6482989695
Al              -2.4025136093        6.9354593991       19.9372853289
Al              -2.4025136097        4.1612756375       15.0627185171
Al              -2.4025136105        6.9354593971       14.0796518911
Al               0.0000000000        5.5483675200       25.2691078617
Al              -2.4025136103        4.1612756425       24.2860412329
Al               0.0000000000        5.5483675200       19.4114744244
Al              -2.4025136106        4.1612756403       17.7004607805
Al              -2.4025136090        6.9354593997       17.2581046857
Al               0.0000000000        5.5483675200       15.3401880017
O               -1.4731310233        5.5444164478       20.7765594862
O               -0.7401018959        7.0247711060       22.9923731408
O                0.7331438127        6.8261119424       20.7765594862
O                0.7399872605        4.2745741298       20.7765594862
O                1.6486539585        5.4511127701       22.9923731408
O               -0.9085520626        4.1692186839       22.9923731408
O               -3.9194374343        7.0027559406       25.1645674931
O               -0.8167423981        4.2683212230       14.1841922551
O               -1.5857712112        8.2155056845       25.1645674941
O               -1.7023322333        5.5881165918       25.1645674931
O               -0.7001813751        6.8957103208       14.1841922551
O                1.5169238232        5.4810709762       14.1841922551
O                0.9085520617        4.1533325973       16.3563866087
O               -3.1356574217        5.6577149686       18.5722002656
O               -1.6624117127        5.4590558142       16.3563866087
O                0.7538596509        7.0327141486       16.3563866087
O               -3.1425008703        8.2092527788       18.5722002650
O               -0.9293825858        6.9394104720       18.5722002669
Al               4.8050272200        2.7741837600       24.0085717483
Al               7.2075408290        1.3870918803       22.0906550643
Al               4.8050272194       -0.0000000003       21.6482989695
Al               4.8050272200        2.7741837600       19.9372853256
Al               4.8050272177        0.0000000010       15.0627185171
Al               4.8050272200        2.7741837600       14.0796518883
Al               7.2075408305        1.3870918829       25.2691078589
Al               4.8050272223       -0.0000000010       24.2860412329
Al               7.2075408293        1.3870918809       19.4114744211
Al               4.8050272206        0.0000000003       17.7004607805
Al               4.8050272200        2.7741837600       17.2581046838
Al               7.2075408298        1.3870918796       15.3401880013
O                5.7344098058        1.3831408080       20.7765594831
O                6.4674389327        2.8634954658       22.9923731413
O                7.9406846417        2.6648363114       20.7765594844
O                7.9475280903        0.1132984912       20.7765594850
O                8.8561947881        1.2898371312       22.9923731410
O                6.2989887675        0.0079430444       22.9923731416
O                3.2881033968        2.8414803038       25.1645674949
O                6.3907984312        0.1070455855       14.1841922559
O                5.6217696181        4.0542300470       25.1645674949
O                5.5052085951        1.4268409492       25.1645674949
O                6.5073594533        2.7344346882       14.1841922569
O                8.7244646543        1.3197953394       14.1841922569
O                8.1160928914       -0.0079430437       16.3563866090
O                4.0718834073        1.4964393276       18.5722002638
O                5.5451291159        1.2977801740       16.3563866092
O                7.9614004820        2.8714385100       16.3563866084
O                4.0650399595        4.0479771402       18.5722002638
O                6.2781582433        2.7781348322       18.5722002638
Al               2.4025136103        6.9354593996       24.0085717487
Al               4.8050272203        5.5483675190       22.0906550643
Al               2.4025136100        4.1612756406       21.6482989695
Al               2.4025136089        6.9354593999       19.9372853289
Al               2.4025136120        4.1612756415       15.0627185171
Al               2.4025136077        6.9354594018       14.0796518911
Al               4.8050272173        5.5483675190       25.2691078589
Al               2.4025136080        4.1612756385       24.2860412329
Al               4.8050272195        5.5483675189       19.4114744211
Al               2.4025136100        4.1612756394       17.7004607805
Al               2.4025136093        6.9354593993       17.2581046857
Al               4.8050272204        5.5483675200       15.3401880013
O                3.3318961981        5.5444164474       20.7765594844
O                4.0649253234        7.0247711051       22.9923731410
O                5.5381710317        6.8261119416       20.7765594850
O                5.5450144808        4.2745741289       20.7765594831
O                6.4536811780        5.4511127700       22.9923731416
O                3.8964751583        4.1692186827       22.9923731413
O                0.8855897882        7.0027559411       25.1645674931
O                3.9882848250        4.2683212229       14.1841922569
O                3.2192560059        8.2155056895       25.1645674931
O                3.1026949826        5.5881165899       25.1645674941
O                4.1048458416        6.8957103201       14.1841922569
O                6.3219510414        5.4810709744       14.1841922559
O                5.7135792826        4.1533325961       16.3563866092
O                1.6693697966        5.6577149669       18.5722002669
O                3.1426155055        5.4590558143       16.3563866084
O                5.5588868719        7.0327141488       16.3563866090
O                1.6625263498        8.2092527788       18.5722002656
O                3.8756446320        6.9394104727       18.5722002650



     Writing config-only to output data dir ./tmp/al2o3.save/ :
     XML data file
     NEW-OLD atomic charge density approx. for the potential

     negative rho (up, down):  5.012E-03 0.000E+00

     total cpu time spent up to now is    20879.4 secs

     Self-consistent Calculation

     iteration #  1     ecut=    60.00 Ry     beta= 0.30
     Davidson diagonalization with overlap
     ethr =  1.00E-06,  avg # of iterations =  6.0

     negative rho (up, down):  4.937E-03 0.000E+00

     total cpu time spent up to now is    21033.1 secs

     total energy              =   -4910.94077380 Ry
     estimated scf accuracy    <       0.00099674 Ry

     iteration #  2     ecut=    60.00 Ry     beta= 0.30
     Davidson diagonalization with overlap
     ethr =  1.73E-07,  avg # of iterations =  2.0

     negative rho (up, down):  4.826E-03 0.000E+00

     total cpu time spent up to now is    21102.3 secs

     total energy              =   -4910.94070561 Ry
     estimated scf accuracy    <       0.00042784 Ry

     iteration #  3     ecut=    60.00 Ry     beta= 0.30
     Davidson diagonalization with overlap
     ethr =  7.43E-08,  avg # of iterations =  2.2

     negative rho (up, down):  4.824E-03 0.000E+00

     total cpu time spent up to now is    21191.2 secs

     total energy              =   -4910.94078347 Ry
     estimated scf accuracy    <       0.00004149 Ry

     iteration #  4     ecut=    60.00 Ry     beta= 0.30
     Davidson diagonalization with overlap
     ethr =  7.20E-09,  avg # of iterations =  4.5

     negative rho (up, down):  4.810E-03 0.000E+00

     total cpu time spent up to now is    21268.6 secs

     total energy              =   -4910.94078277 Ry
     estimated scf accuracy    <       0.00001971 Ry

     iteration #  5     ecut=    60.00 Ry     beta= 0.30
     Davidson diagonalization with overlap
     ethr =  3.42E-09,  avg # of iterations =  3.2

     negative rho (up, down):  4.808E-03 0.000E+00

     total cpu time spent up to now is    21367.9 secs

     total energy              =   -4910.94078505 Ry
     estimated scf accuracy    <       0.00001461 Ry

     iteration #  6     ecut=    60.00 Ry     beta= 0.30
     Davidson diagonalization with overlap
     ethr =  2.54E-09,  avg # of iterations =  3.8

     negative rho (up, down):  4.805E-03 0.000E+00

     total cpu time spent up to now is    21463.5 secs

     total energy              =   -4910.94078958 Ry
     estimated scf accuracy    <       0.00000486 Ry

     iteration #  7     ecut=    60.00 Ry     beta= 0.30
     Davidson diagonalization with overlap
     ethr =  8.45E-10,  avg # of iterations =  2.0

     negative rho (up, down):  4.805E-03 0.000E+00

     total cpu time spent up to now is    21535.6 secs

     total energy              =   -4910.94078935 Ry
     estimated scf accuracy    <       0.00000112 Ry

     iteration #  8     ecut=    60.00 Ry     beta= 0.30
     Davidson diagonalization with overlap
     ethr =  1.95E-10,  avg # of iterations =  3.0

     negative rho (up, down):  4.806E-03 0.000E+00

     total cpu time spent up to now is    21625.3 secs

     total energy              =   -4910.94078965 Ry
     estimated scf accuracy    <       0.00000002 Ry

     iteration #  9     ecut=    60.00 Ry     beta= 0.30
     Davidson diagonalization with overlap
     ethr =  3.95E-12,  avg # of iterations =  6.0

     negative rho (up, down):  4.806E-03 0.000E+00

     total cpu time spent up to now is    21770.8 secs

     total energy              =   -4910.94078967 Ry
     estimated scf accuracy    <       0.00000005 Ry

     iteration # 10     ecut=    60.00 Ry     beta= 0.30
     Davidson diagonalization with overlap
     ethr =  3.95E-12,  avg # of iterations =  3.0

     negative rho (up, down):  4.807E-03 0.000E+00

     total cpu time spent up to now is    21860.4 secs

     total energy              =   -4910.94078966 Ry
     estimated scf accuracy    <          9.0E-09 Ry

     iteration # 11     ecut=    60.00 Ry     beta= 0.30
     Davidson diagonalization with overlap
     ethr =  1.56E-12,  avg # of iterations =  3.5

     negative rho (up, down):  4.807E-03 0.000E+00

     total cpu time spent up to now is    21960.9 secs

     total energy              =   -4910.94078966 Ry
     estimated scf accuracy    <          2.8E-09 Ry

     iteration # 12     ecut=    60.00 Ry     beta= 0.30
     Davidson diagonalization with overlap
     ethr =  4.90E-13,  avg # of iterations =  2.0

     negative rho (up, down):  4.807E-03 0.000E+00

     total cpu time spent up to now is    22034.4 secs

     total energy              =   -4910.94078966 Ry
     estimated scf accuracy    <          6.0E-10 Ry

     iteration # 13     ecut=    60.00 Ry     beta= 0.30
     Davidson diagonalization with overlap
     ethr =  1.05E-13,  avg # of iterations =  3.5

     negative rho (up, down):  4.807E-03 0.000E+00

     total cpu time spent up to now is    22125.6 secs

     End of self-consistent calculation

          k = 0.0000 0.0000 0.0000 (166875 PWs)   bands (ev):

   -20.8606 -20.5521 -20.1694 -19.9405 -19.9405 -19.9405 -19.8809 -19.8809
   -19.8809 -19.6958 -19.6958 -19.6958 -19.6123 -19.4984 -19.4984 -19.4984
   -19.2447 -19.2447 -19.2447 -19.2403 -19.2403 -19.2403 -18.9879 -18.9139
   -18.9139 -18.9139 -18.8327 -18.8327 -18.8327 -18.7927 -18.7927 -18.7927
   -18.7784 -18.6417 -18.6417 -18.6417 -18.5359 -18.5359 -18.5359 -18.5055
   -18.5055 -18.5055 -18.4972 -18.4972 -18.3932 -18.3932 -18.3932 -18.3833
   -18.3833 -18.3543 -18.3543 -18.3543 -18.3370 -18.3370 -18.3370 -18.2929
   -18.2929 -18.2744 -18.2744 -18.2475 -18.2475 -18.2475 -18.1657 -18.1657
   -18.1657 -18.1490 -18.1490 -18.1372 -18.1372 -18.1305 -18.1305 -18.1305
    -8.4121  -8.2180  -8.2180  -8.2180  -8.1367  -8.1367  -8.1367  -7.8700
    -7.8700  -7.8700  -7.7721  -7.6938  -7.6938  -7.6938  -7.5530  -7.5154
    -7.4186  -7.4186  -7.4186  -7.2405  -7.2405  -7.2405  -7.2340  -7.2340
    -7.1298  -7.0424  -7.0424  -7.0424  -6.9160  -6.9160  -6.9160  -6.8780
    -6.8780  -6.7328  -6.6618  -6.6618  -6.6618  -6.6594  -6.6594  -6.6594
    -6.5375  -6.5375  -6.5375  -6.5159  -6.3689  -6.3689  -6.0460  -5.9810
    -5.9810  -5.9490  -5.9490  -5.9490  -5.8343  -5.8343  -5.8343  -5.8174
    -5.8174  -5.7726  -5.7726  -5.7726  -5.7034  -5.7034  -5.6608  -5.6608
    -5.6608  -5.6551  -5.5607  -5.5607  -5.5607  -5.5446  -5.5446  -5.5446
    -5.4190  -5.4042  -5.4042  -5.4042  -5.3157  -5.3157  -5.3157  -5.3029
    -5.1944  -5.1944  -5.1944  -5.0393  -5.0393  -5.0393  -5.0340  -4.8593
    -4.8593  -4.8593  -4.7957  -4.6868  -4.6868  -4.6868  -4.5755  -4.4583
    -4.4147  -4.4147  -4.4147  -4.2846  -4.2846  -4.2846  -4.1993  -4.1993
    -4.1993  -4.0867  -4.0867  -4.0867  -4.0802  -4.0802  -4.0802  -4.0644
    -4.0644  -4.0644  -4.0558  -4.0558  -3.9789  -3.9789  -3.8150  -3.7877
    -3.7877  -3.7877  -3.7509  -3.7509  -3.7509  -3.5818  -3.5818  -3.5818
    -3.5300  -3.5300  -3.5300  -3.4844  -3.4844  -3.4844  -3.4043  -3.4043
    -3.3687  -3.3687  -3.3371  -3.3371  -3.3371  -3.3172  -3.3172  -3.3172
    -3.3060  -3.3060  -3.3060  -3.2477  -3.2477  -3.2477  -3.2154  -3.2154
    -3.2154  -3.1020  -3.1020  -3.1020  -3.0236  -3.0236  -3.0236  -3.0120
    -3.0120  -3.0120  -3.0014  -3.0014  -3.0014  -2.9869  -2.9869  -2.9657
    -2.9657  -2.9657  -2.9653  -2.9653  -2.8892  -2.8892  -2.8892  -2.8411
    -2.7922  -2.7922  -2.7922  -2.6074  -2.6074  -2.6074  -2.5806  -2.5806
    -2.5806  -2.4758  -2.4758  -2.4747  -2.4747  -2.4747  -2.4035  -2.4035
    -2.3824  -2.3824  -2.3824  -2.2598  -2.2598  -2.2261  -2.1566  -2.1566
    -2.1566  -2.1228  -2.1228  -2.1184  -2.1184  -2.1184  -2.0447  -2.0447
    -2.0447  -1.9875  -1.9875  -1.9875  -1.9209  -1.9209  -1.9063  -1.9063

          k = 0.0000 0.2887 0.0000 (166721 PWs)   bands (ev):

   -20.7912 -20.4854 -20.2783 -20.1091 -20.0541 -20.0541 -20.0027 -19.8198
   -19.8180 -19.7039 -19.6585 -19.6528 -19.5645 -19.4624 -19.4565 -19.4308
   -19.2495 -19.2398 -19.1323 -19.1276 -19.1102 -19.0965 -18.9813 -18.9717
   -18.9529 -18.9142 -18.8813 -18.8599 -18.7679 -18.7671 -18.7542 -18.7401
   -18.7097 -18.6874 -18.6619 -18.6216 -18.6195 -18.6136 -18.5948 -18.5822
   -18.5661 -18.5211 -18.5080 -18.5052 -18.4635 -18.4420 -18.4340 -18.4328
   -18.4274 -18.3802 -18.3789 -18.3578 -18.3491 -18.3450 -18.3175 -18.3009
   -18.2971 -18.2946 -18.2521 -18.2159 -18.1995 -18.1815 -18.1711 -18.1618
   -18.1414 -18.1410 -18.1264 -18.1247 -18.1228 -18.1217 -18.1213 -18.1109
    -8.3572  -8.2250  -8.1189  -8.1011  -8.0321  -8.0093  -7.9873  -7.8731
    -7.8249  -7.7429  -7.7355  -7.6856  -7.6169  -7.6145  -7.6108  -7.5939
    -7.5694  -7.5468  -7.4797  -7.4170  -7.2433  -7.2389  -7.2133  -7.2095
    -7.1683  -7.1576  -7.1575  -7.0588  -7.0320  -6.9413  -6.9155  -6.8515
    -6.8401  -6.8010  -6.7799  -6.7650  -6.7425  -6.7043  -6.6662  -6.5776
    -6.5522  -6.5490  -6.5432  -6.5421  -6.3380  -6.2545  -6.1621  -6.1563
    -6.1481  -6.0894  -6.0608  -6.0344  -6.0298  -5.9460  -5.9231  -5.9215
    -5.9156  -5.8700  -5.8449  -5.8382  -5.8182  -5.7237  -5.7063  -5.6992
    -5.6677  -5.6336  -5.6270  -5.5683  -5.5672  -5.5207  -5.4916  -5.4742
    -5.3156  -5.2524  -5.1780  -5.1668  -5.1104  -5.1066  -5.0962  -5.0780
    -5.0724  -5.0405  -5.0171  -4.9959  -4.9864  -4.8985  -4.8869  -4.7919
    -4.7534  -4.6796  -4.6598  -4.6583  -4.6076  -4.5338  -4.5151  -4.4981
    -4.4671  -4.4384  -4.4208  -4.4040  -4.3203  -4.3114  -4.2973  -4.2784
    -4.2626  -4.2248  -4.2015  -4.1923  -4.1438  -4.0912  -4.0832  -4.0573
    -3.9755  -3.9459  -3.9107  -3.9106  -3.8943  -3.8780  -3.8571  -3.8515
    -3.7894  -3.7805  -3.7443  -3.7192  -3.7102  -3.6575  -3.6472  -3.6270
    -3.6028  -3.5862  -3.5308  -3.5273  -3.4990  -3.4938  -3.4918  -3.4887
    -3.4478  -3.4388  -3.4381  -3.3888  -3.3887  -3.3619  -3.3333  -3.3285
    -3.3116  -3.2749  -3.2745  -3.2724  -3.2666  -3.2308  -3.2148  -3.2096
    -3.2078  -3.1602  -3.1428  -3.1291  -3.1063  -3.1033  -3.0894  -3.0757
    -3.0528  -3.0316  -3.0121  -3.0042  -2.9784  -2.9669  -2.9577  -2.9456
    -2.8739  -2.8514  -2.8510  -2.8048  -2.7934  -2.7815  -2.7675  -2.7632
    -2.7572  -2.7544  -2.6975  -2.6285  -2.6243  -2.6220  -2.5971  -2.5817
    -2.5499  -2.5395  -2.5381  -2.5094  -2.4897  -2.4178  -2.4169  -2.4049
    -2.3870  -2.3797  -2.3770  -2.3623  -2.3306  -2.2626  -2.1943  -2.1761
    -2.1666  -2.1512  -2.1488  -2.1187  -2.1169  -2.1106  -2.1023  -2.0524
    -2.0479  -2.0384  -2.0158  -1.9965  -1.9900  -1.9786  -1.9435  -1.9121

          k = 0.0000-0.5774 0.0000 (166636 PWs)   bands (ev):

   -20.5899 -20.5899 -20.2928 -20.2928 -20.1055 -20.1055 -19.9372 -19.9372
   -19.8450 -19.8450 -19.5835 -19.5835 -19.4397 -19.4397 -19.4078 -19.4078
   -19.1859 -19.1859 -19.0949 -19.0949 -18.9635 -18.9635 -18.9479 -18.9479
   -18.9089 -18.9089 -18.8330 -18.8330 -18.8046 -18.8046 -18.7849 -18.7849
   -18.7602 -18.7602 -18.6814 -18.6814 -18.6006 -18.6006 -18.5623 -18.5623
   -18.5522 -18.5522 -18.5428 -18.5428 -18.5281 -18.5281 -18.5142 -18.5142
   -18.4344 -18.4344 -18.4196 -18.4196 -18.3615 -18.3615 -18.3381 -18.3381
   -18.2348 -18.2348 -18.2034 -18.2034 -18.1674 -18.1674 -18.1488 -18.1488
   -18.1377 -18.1377 -18.1292 -18.1292 -18.1091 -18.1091 -18.1008 -18.1008
    -8.2422  -8.2422  -7.9379  -7.9379  -7.8833  -7.8833  -7.8203  -7.8203
    -7.7942  -7.7942  -7.7340  -7.7340  -7.6816  -7.6816  -7.5196  -7.5196
    -7.4514  -7.4514  -7.4330  -7.4330  -7.4060  -7.4060  -7.3266  -7.3266
    -7.2200  -7.2200  -7.1927  -7.1927  -7.0859  -7.0859  -7.0804  -7.0804
    -6.8864  -6.8864  -6.8576  -6.8576  -6.6941  -6.6941  -6.6877  -6.6877
    -6.4024  -6.4024  -6.3718  -6.3718  -6.3510  -6.3510  -6.3146  -6.3146
    -6.2455  -6.2455  -6.2387  -6.2387  -6.0415  -6.0415  -5.9932  -5.9932
    -5.8970  -5.8970  -5.8190  -5.8190  -5.8091  -5.8091  -5.8024  -5.8024
    -5.7183  -5.7183  -5.5071  -5.5071  -5.3442  -5.3442  -5.3187  -5.3187
    -5.2077  -5.2077  -5.1731  -5.1731  -5.1187  -5.1187  -5.0080  -5.0080
    -4.9588  -4.9588  -4.8845  -4.8845  -4.7942  -4.7942  -4.7914  -4.7914
    -4.6899  -4.6899  -4.6170  -4.6170  -4.5898  -4.5898  -4.4489  -4.4489
    -4.3944  -4.3944  -4.3651  -4.3651  -4.3244  -4.3244  -4.1733  -4.1733
    -4.1670  -4.1670  -4.1220  -4.1220  -4.1071  -4.1071  -4.0319  -4.0319
    -3.9578  -3.9578  -3.9462  -3.9462  -3.9391  -3.9391  -3.8946  -3.8946
    -3.8106  -3.8106  -3.7566  -3.7566  -3.7039  -3.7039  -3.6852  -3.6852
    -3.6478  -3.6478  -3.6324  -3.6324  -3.5473  -3.5473  -3.5123  -3.5123
    -3.4710  -3.4710  -3.4006  -3.4006  -3.3823  -3.3823  -3.3277  -3.3277
    -3.3234  -3.3234  -3.2799  -3.2799  -3.2742  -3.2742  -3.2410  -3.2410
    -3.1797  -3.1797  -3.1614  -3.1614  -3.1107  -3.1107  -3.0923  -3.0923
    -3.0510  -3.0510  -2.9901  -2.9901  -2.9238  -2.9238  -2.9083  -2.9083
    -2.9039  -2.9039  -2.8420  -2.8420  -2.7773  -2.7773  -2.7532  -2.7532
    -2.7474  -2.7474  -2.6976  -2.6976  -2.6499  -2.6499  -2.5969  -2.5969
    -2.5736  -2.5736  -2.4901  -2.4901  -2.4792  -2.4792  -2.3920  -2.3920
    -2.3574  -2.3574  -2.3293  -2.3293  -2.3210  -2.3210  -2.2895  -2.2895
    -2.2061  -2.2061  -2.1417  -2.1417  -2.1358  -2.1358  -2.0373  -2.0373
    -2.0317  -2.0317  -2.0191  -2.0191  -1.9853  -1.9853  -1.9664  -1.9664

          k = 0.2500 0.4330 0.0000 (166642 PWs)   bands (ev):

   -20.6558 -20.3988 -20.3988 -20.3556 -20.1123 -20.1123 -19.9927 -19.7880
   -19.7820 -19.7816 -19.7373 -19.5787 -19.4975 -19.4766 -19.3662 -19.3647
   -19.2400 -19.1639 -19.0668 -19.0615 -19.0470 -18.9738 -18.9673 -18.9576
   -18.9067 -18.8687 -18.8411 -18.8359 -18.8222 -18.7505 -18.7491 -18.7348
   -18.7325 -18.6983 -18.6831 -18.6757 -18.6630 -18.6564 -18.6488 -18.5685
   -18.5585 -18.5577 -18.5542 -18.5440 -18.5184 -18.5040 -18.4817 -18.4669
   -18.4562 -18.4520 -18.4148 -18.3997 -18.3965 -18.3554 -18.3500 -18.3083
   -18.2657 -18.2390 -18.1933 -18.1885 -18.1876 -18.1616 -18.1511 -18.1442
   -18.1387 -18.1306 -18.1253 -18.1185 -18.1119 -18.1071 -18.1069 -18.1026
    -8.2511  -8.1363  -8.1232  -7.9544  -7.8974  -7.8854  -7.8553  -7.8248
    -7.7729  -7.7687  -7.6898  -7.6683  -7.6325  -7.5869  -7.5636  -7.5484
    -7.4922  -7.4738  -7.4665  -7.4481  -7.3874  -7.3771  -7.3658  -7.2846
    -7.2786  -7.2513  -7.1907  -7.1198  -7.0966  -7.0959  -7.0439  -6.9177
    -6.9068  -6.8900  -6.8726  -6.8458  -6.7772  -6.7063  -6.6888  -6.6431
    -6.5204  -6.4277  -6.4249  -6.4165  -6.3771  -6.3565  -6.3208  -6.2888
    -6.2630  -6.2006  -6.1930  -6.1472  -6.0687  -6.0679  -6.0276  -5.9948
    -5.9151  -5.8985  -5.8521  -5.8192  -5.8176  -5.8105  -5.7043  -5.6600
    -5.6169  -5.5938  -5.5505  -5.5266  -5.5068  -5.5054  -5.4087  -5.3591
    -5.3115  -5.2818  -5.2189  -5.1643  -5.1152  -5.0409  -5.0120  -4.9554
    -4.9243  -4.8999  -4.8887  -4.8503  -4.7896  -4.7741  -4.7212  -4.6744
    -4.6719  -4.6480  -4.6344  -4.5868  -4.5175  -4.4966  -4.4912  -4.4318
    -4.4248  -4.3899  -4.3734  -4.3173  -4.3027  -4.2831  -4.2568  -4.2366
    -4.1482  -4.1290  -4.1228  -4.1153  -4.0867  -4.0664  -4.0431  -4.0365
    -4.0069  -3.9996  -3.9726  -3.9572  -3.9375  -3.9252  -3.8820  -3.8816
    -3.8624  -3.7869  -3.7621  -3.7614  -3.7589  -3.7292  -3.7204  -3.7132
    -3.6726  -3.6668  -3.6514  -3.6056  -3.5817  -3.5694  -3.5460  -3.5027
    -3.4895  -3.4653  -3.4455  -3.4445  -3.4124  -3.4088  -3.3578  -3.3552
    -3.3479  -3.3205  -3.3143  -3.3066  -3.2835  -3.2437  -3.1830  -3.1792
    -3.1634  -3.1300  -3.1286  -3.1155  -3.1028  -3.0869  -3.0851  -3.0439
    -3.0338  -3.0319  -3.0037  -2.9912  -2.9648  -2.9562  -2.9426  -2.8771
    -2.8721  -2.8599  -2.8472  -2.7964  -2.7871  -2.7811  -2.7640  -2.7517
    -2.7306  -2.7208  -2.7094  -2.6997  -2.6798  -2.6539  -2.6286  -2.5804
    -2.5574  -2.5411  -2.5371  -2.5154  -2.4729  -2.4339  -2.4303  -2.3894
    -2.3880  -2.3734  -2.3550  -2.3531  -2.3205  -2.3122  -2.2920  -2.2333
    -2.2123  -2.1925  -2.1804  -2.1773  -2.1463  -2.0924  -2.0647  -2.0412
    -2.0356  -2.0303  -2.0233  -1.9792  -1.9765  -1.9656  -1.9647  -1.9245

     highest occupied level (ev):    -1.9063

!    total energy              =   -4910.94078967 Ry
     total all-electron energy =    -34162.770559 Ry
     estimated scf accuracy    <          4.7E-11 Ry

     The total energy is the sum of the following terms:
     one-electron contribution =  -81477.76567142 Ry
     hartree contribution      =   40972.96882254 Ry
     xc contribution           =    -676.45216509 Ry
     ewald contribution        =   38618.28545009 Ry
     one-center paw contrib.   =   -2347.97722580 Ry

     convergence has been achieved in  13 iterations

     negative rho (up, down):  4.807E-03 0.000E+00

     Forces acting on atoms (cartesian axes, Ry/au):

     atom    1 type  1   force =     0.00000000    0.00000000    0.00171764
     atom    2 type  1   force =     0.00000000    0.00000000   -0.00086967
     atom    3 type  1   force =     0.00000000    0.00000000   -0.00289413
     atom    4 type  1   force =    -0.00000000   -0.00000000   -0.00071738
     atom    5 type  1   force =     0.00000000    0.00000000    0.00277245
     atom    6 type  1   force =    -0.00000000    0.00000000   -0.00087105
     atom    7 type  1   force =     0.00000000    0.00000000    0.00087105
     atom    8 type  1   force =     0.00000000   -0.00000000   -0.00277245
     atom    9 type  1   force =    -0.00000000   -0.00000000    0.00071738
     atom   10 type  1   force =     0.00000000   -0.00000000    0.00289413
     atom   11 type  1   force =     0.00000000    0.00000000    0.00086967
     atom   12 type  1   force =     0.00000000    0.00000000   -0.00171764
     atom   13 type  2   force =     0.00035851   -0.00064149   -0.00110660
     atom   14 type  2   force =    -0.00167819   -0.00039518   -0.00192297
     atom   15 type  2   force =    -0.00073480    0.00001027   -0.00110660
     atom   16 type  2   force =     0.00037629    0.00063122   -0.00110660
     atom   17 type  2   force =     0.00049686    0.00165094   -0.00192296
     atom   18 type  2   force =     0.00118133   -0.00125576   -0.00192296
     atom   19 type  2   force =     0.00237280   -0.00123332   -0.00020663
     atom   20 type  2   force =     0.00225448    0.00143825    0.00020663
     atom   21 type  2   force =    -0.00225449   -0.00143825   -0.00020663
     atom   22 type  2   force =    -0.00011832    0.00267157   -0.00020663
     atom   23 type  2   force =     0.00011832   -0.00267157    0.00020663
     atom   24 type  2   force =    -0.00237280    0.00123332    0.00020663
     atom   25 type  2   force =    -0.00118133    0.00125576    0.00192297
     atom   26 type  2   force =     0.00073480   -0.00001027    0.00110660
     atom   27 type  2   force =     0.00167819    0.00039518    0.00192296
     atom   28 type  2   force =    -0.00049686   -0.00165094    0.00192296
     atom   29 type  2   force =    -0.00037629   -0.00063122    0.00110660
     atom   30 type  2   force =    -0.00035851    0.00064149    0.00110660
     atom   31 type  1   force =     0.00000000   -0.00000000    0.00171764
     atom   32 type  1   force =     0.00000000    0.00000000   -0.00086967
     atom   33 type  1   force =    -0.00000000   -0.00000000   -0.00289413
     atom   34 type  1   force =    -0.00000000    0.00000000   -0.00071738
     atom   35 type  1   force =     0.00000000    0.00000000    0.00277245
     atom   36 type  1   force =     0.00000000   -0.00000000   -0.00087105
     atom   37 type  1   force =     0.00000000    0.00000000    0.00087105
     atom   38 type  1   force =    -0.00000000   -0.00000000   -0.00277245
     atom   39 type  1   force =     0.00000000   -0.00000000    0.00071738
     atom   40 type  1   force =     0.00000000    0.00000000    0.00289413
     atom   41 type  1   force =     0.00000000   -0.00000000    0.00086967
     atom   42 type  1   force =     0.00000000   -0.00000000   -0.00171764
     atom   43 type  2   force =     0.00035851   -0.00064149   -0.00110660
     atom   44 type  2   force =    -0.00167819   -0.00039518   -0.00192296
     atom   45 type  2   force =    -0.00073480    0.00001027   -0.00110660
     atom   46 type  2   force =     0.00037629    0.00063122   -0.00110660
     atom   47 type  2   force =     0.00049686    0.00165094   -0.00192296
     atom   48 type  2   force =     0.00118133   -0.00125576   -0.00192296
     atom   49 type  2   force =     0.00237280   -0.00123331   -0.00020663
     atom   50 type  2   force =     0.00225449    0.00143825    0.00020663
     atom   51 type  2   force =    -0.00225449   -0.00143825   -0.00020663
     atom   52 type  2   force =    -0.00011832    0.00267157   -0.00020663
     atom   53 type  2   force =     0.00011832   -0.00267157    0.00020663
     atom   54 type  2   force =    -0.00237280    0.00123332    0.00020663
     atom   55 type  2   force =    -0.00118133    0.00125576    0.00192296
     atom   56 type  2   force =     0.00073480   -0.00001027    0.00110660
     atom   57 type  2   force =     0.00167819    0.00039518    0.00192296
     atom   58 type  2   force =    -0.00049686   -0.00165094    0.00192296
     atom   59 type  2   force =    -0.00037629   -0.00063122    0.00110660
     atom   60 type  2   force =    -0.00035851    0.00064149    0.00110660
     atom   61 type  1   force =     0.00000000    0.00000000    0.00171764
     atom   62 type  1   force =    -0.00000000    0.00000000   -0.00086967
     atom   63 type  1   force =     0.00000000    0.00000000   -0.00289413
     atom   64 type  1   force =     0.00000000    0.00000000   -0.00071738
     atom   65 type  1   force =     0.00000000   -0.00000000    0.00277245
     atom   66 type  1   force =     0.00000000   -0.00000000   -0.00087105
     atom   67 type  1   force =    -0.00000000    0.00000000    0.00087105
     atom   68 type  1   force =    -0.00000000    0.00000000   -0.00277245
     atom   69 type  1   force =     0.00000000   -0.00000000    0.00071738
     atom   70 type  1   force =    -0.00000000   -0.00000000    0.00289413
     atom   71 type  1   force =     0.00000000   -0.00000000    0.00086967
     atom   72 type  1   force =    -0.00000000    0.00000000   -0.00171764
     atom   73 type  2   force =     0.00035851   -0.00064149   -0.00110660
     atom   74 type  2   force =    -0.00167819   -0.00039518   -0.00192296
     atom   75 type  2   force =    -0.00073480    0.00001027   -0.00110660
     atom   76 type  2   force =     0.00037629    0.00063122   -0.00110660
     atom   77 type  2   force =     0.00049686    0.00165094   -0.00192296
     atom   78 type  2   force =     0.00118133   -0.00125576   -0.00192297
     atom   79 type  2   force =     0.00237280   -0.00123332   -0.00020663
     atom   80 type  2   force =     0.00225449    0.00143825    0.00020663
     atom   81 type  2   force =    -0.00225449   -0.00143825   -0.00020663
     atom   82 type  2   force =    -0.00011832    0.00267157   -0.00020663
     atom   83 type  2   force =     0.00011832   -0.00267157    0.00020663
     atom   84 type  2   force =    -0.00237280    0.00123331    0.00020663
     atom   85 type  2   force =    -0.00118133    0.00125576    0.00192296
     atom   86 type  2   force =     0.00073480   -0.00001027    0.00110660
     atom   87 type  2   force =     0.00167819    0.00039518    0.00192296
     atom   88 type  2   force =    -0.00049686   -0.00165094    0.00192297
     atom   89 type  2   force =    -0.00037629   -0.00063122    0.00110660
     atom   90 type  2   force =    -0.00035851    0.00064149    0.00110660
     atom   91 type  1   force =    -0.00000000   -0.00000000    0.00171764
     atom   92 type  1   force =    -0.00000000   -0.00000000   -0.00086967
     atom   93 type  1   force =     0.00000000   -0.00000000   -0.00289413
     atom   94 type  1   force =     0.00000000    0.00000000   -0.00071738
     atom   95 type  1   force =    -0.00000000   -0.00000000    0.00277245
     atom   96 type  1   force =    -0.00000000   -0.00000000   -0.00087105
     atom   97 type  1   force =     0.00000000   -0.00000000    0.00087105
     atom   98 type  1   force =     0.00000000    0.00000000   -0.00277245
     atom   99 type  1   force =     0.00000000    0.00000000    0.00071738
     atom  100 type  1   force =    -0.00000000    0.00000000    0.00289413
     atom  101 type  1   force =    -0.00000000   -0.00000000    0.00086967
     atom  102 type  1   force =    -0.00000000   -0.00000000   -0.00171764
     atom  103 type  2   force =     0.00035851   -0.00064149   -0.00110660
     atom  104 type  2   force =    -0.00167819   -0.00039518   -0.00192296
     atom  105 type  2   force =    -0.00073480    0.00001027   -0.00110660
     atom  106 type  2   force =     0.00037629    0.00063122   -0.00110660
     atom  107 type  2   force =     0.00049686    0.00165094   -0.00192297
     atom  108 type  2   force =     0.00118133   -0.00125576   -0.00192296
     atom  109 type  2   force =     0.00237280   -0.00123332   -0.00020663
     atom  110 type  2   force =     0.00225449    0.00143825    0.00020663
     atom  111 type  2   force =    -0.00225448   -0.00143825   -0.00020663
     atom  112 type  2   force =    -0.00011832    0.00267157   -0.00020663
     atom  113 type  2   force =     0.00011832   -0.00267157    0.00020663
     atom  114 type  2   force =    -0.00237280    0.00123332    0.00020663
     atom  115 type  2   force =    -0.00118133    0.00125576    0.00192296
     atom  116 type  2   force =     0.00073480   -0.00001027    0.00110660
     atom  117 type  2   force =     0.00167819    0.00039518    0.00192297
     atom  118 type  2   force =    -0.00049686   -0.00165094    0.00192296
     atom  119 type  2   force =    -0.00037629   -0.00063122    0.00110660
     atom  120 type  2   force =    -0.00035851    0.00064149    0.00110660

     Total force =     0.023312     Total SCF correction =     0.000022


     Computing stress (Cartesian axis) and pressure


     negative rho (up, down):  4.807E-03 0.000E+00
          total   stress  (Ry/bohr**3)                   (kbar)     P=       13.12
   0.00015128   0.00000000   0.00000000           22.25        0.00        0.00
   0.00000000   0.00015128   0.00000000            0.00       22.25        0.00
   0.00000000   0.00000000  -0.00003489            0.00        0.00       -5.13

     Energy error            =      1.1E-03 Ry
     Gradient error          =      2.9E-03 Ry/Bohr

     number of scf cycles    =  13
     number of bfgs steps    =  12

     energy             old  =   -4910.9396522626 Ry
     energy             new  =   -4910.9407896732 Ry

     CASE: energy            _new < energy            _old

     new trust radius        =       0.0168507939 bohr
     new conv_thr            =       0.0000000003 Ry


ATOMIC_POSITIONS (angstrom)
Al              -0.0000000003        2.7741837599       23.9996546926
Al               2.4025136112        1.3870918808       22.0857284035
Al               0.0000000000       -0.0000000000       21.6446576361
Al               0.0000000004        2.7741837609       19.9373158513
Al               0.0000000000       -0.0000000000       15.0662813103
Al               0.0000000035        2.7741837637       14.0880105701
Al               2.4025136150        1.3870918788       25.2607491799
Al               0.0000000000       -0.0000000000       24.2824784397
Al               2.4025136110        1.3870918801       19.4114438987
Al               0.0000000000        0.0000000000       17.7041021139
Al              -0.0000000001        2.7741837615       17.2630313465
Al               2.4025136097        1.3870918802       15.3491050574
O                0.9298016628        1.3827528175       20.7744667695
O                1.6604843931        2.8640718502       22.9852549756
O                3.1351118765        2.6646673788       20.7744667673
O                3.1426273421        0.1138554160       20.7744667687
O                4.0526303930        1.2912180483       22.9852549761
O                1.4944260454        0.0059857415       22.9852549757
O               -1.5146465555        2.8408494474       25.1586623919
O                1.5874561864        0.1087023202       14.1900973598
O                0.8150574222        4.0525733069       25.1586623901
O                0.6995890859        1.4291285485       25.1586623902
O                1.7029245311        2.7321470909       14.1900973581
O                3.9171601662        1.3204261981       14.1900973599
O                3.3106011754       -0.0059857429       16.3635047744
O               -0.7325982652        1.4966082629       18.5742929805
O                0.7420292185        1.2972037899       16.3635047743
O                3.1549104365        2.8700575931       16.3635047756
O               -0.7401137328        4.0474202165       18.5742929827
O                1.4727119468        2.7785228228       18.5742929813
Al              -2.4025136099        6.9354594004       23.9996546926
Al               0.0000000000        5.5483675200       22.0857284059
Al              -2.4025136096        4.1612756396       21.6446576346
Al              -2.4025136094        6.9354593992       19.9373158513
Al              -2.4025136096        4.1612756374       15.0662813129
Al              -2.4025136085        6.9354593951       14.0880105701
Al               0.0000000000        5.5483675200       25.2607491816
Al              -2.4025136104        4.1612756426       24.2824784371
Al               0.0000000000        5.5483675200       19.4114439025
Al              -2.4025136104        4.1612756404       17.7041021154
Al              -2.4025136087        6.9354593993       17.2630313465
Al               0.0000000000        5.5483675200       15.3491050566
O               -1.4727119485        5.5440284581       20.7744667708
O               -0.7420292175        7.0253474912       22.9852549744
O                0.7325982664        6.8259430079       20.7744667708
O                0.7401137321        4.2751310540       20.7744667708
O                1.6501167835        5.4524936869       22.9852549744
O               -0.9080875661        4.1672613818       22.9852549744
O               -3.9171601695        7.0021250816       25.1586623902
O               -0.8150574256        4.2699779624       14.1900973574
O               -1.5874561834        8.2138489435       25.1586623919
O               -1.7029245259        5.5904041912       25.1586623901
O               -0.6995890829        6.8934227220       14.1900973574
O                1.5146465585        5.4817018355       14.1900973574
O                0.9080875646        4.1552898984       16.3635047739
O               -3.1351118748        5.6578839031       18.5742929813
O               -1.6604843916        5.4584794300       16.3635047739
O                0.7523968270        7.0313332317       16.3635047739
O               -3.1426273420        8.2086958545       18.5742929805
O               -0.9298016607        6.9397984623       18.5742929827
Al               4.8050272200        2.7741837600       23.9996546934
Al               7.2075408287        1.3870918807       22.0857284035
Al               4.8050272195       -0.0000000001       21.6446576346
Al               4.8050272200        2.7741837600       19.9373158475
Al               4.8050272176        0.0000000010       15.0662813129
Al               4.8050272200        2.7741837600       14.0880105684
Al               7.2075408285        1.3870918849       25.2607491799
Al               4.8050272224       -0.0000000010       24.2824784371
Al               7.2075408294        1.3870918808       19.4114438987
Al               4.8050272205        0.0000000001       17.7041021154
Al               4.8050272200        2.7741837600       17.2630313441
Al               7.2075408299        1.3870918796       15.3491050574
O                5.7348288807        1.3827528177       20.7744667673
O                6.4655116116        2.8640718500       22.9852549761
O                7.9401390948        2.6646673769       20.7744667687
O                7.9476545620        0.1138554155       20.7744667695
O                8.8576576131        1.2912180483       22.9852549757
O                6.2994532646        0.0059857429       22.9852549756
O                3.2903806615        2.8408494445       25.1586623926
O                6.3924834034        0.1087023265       14.1900973581
O                5.6200846456        4.0525733076       25.1586623926
O                5.5046163029        1.4291285480       25.1586623926
O                6.5079517459        2.7321470888       14.1900973599
O                8.7221873895        1.3204261984       14.1900973598
O                8.1156283946       -0.0059857415       16.3635047743
O                4.0724289536        1.4966082621       18.5742929792
O                5.5470564375        1.2972037888       16.3635047756
O                7.9599376577        2.8700575930       16.3635047744
O                4.0649134879        4.0474202160       18.5742929792
O                6.2777391685        2.7785228219       18.5742929792
Al               2.4025136103        6.9354593998       23.9996546926
Al               4.8050272201        5.5483675185       22.0857284035
Al               2.4025136101        4.1612756405       21.6446576346
Al               2.4025136090        6.9354593999       19.9373158513
Al               2.4025136120        4.1612756416       15.0662813129
Al               2.4025136050        6.9354594012       14.0880105701
Al               4.8050272165        5.5483675163       25.2607491799
Al               2.4025136080        4.1612756384       24.2824784371
Al               4.8050272196        5.5483675191       19.4114438987
Al               2.4025136099        4.1612756395       17.7041021154
Al               2.4025136088        6.9354593992       17.2630313465
Al               4.8050272203        5.5483675201       15.3491050574
O                3.3323152732        5.5440284572       20.7744667687
O                4.0629980015        7.0253474901       22.9852549757
O                5.5376254852        6.8259430071       20.7744667695
O                5.5451409528        4.2751310535       20.7744667673
O                6.4551440023        5.4524936870       22.9852549756
O                3.8969396554        4.1672613816       22.9852549761
O                0.8878670538        7.0021250819       25.1586623901
O                3.9899697978        4.2699779631       14.1900973599
O                3.2175710336        8.2138489498       25.1586623902
O                3.1021026889        5.5904041891       25.1586623919
O                4.1054381341        6.8934227215       14.1900973598
O                6.3196737755        5.4817018326       14.1900973581
O                5.7131147861        4.1552898982       16.3635047756
O                1.6699153435        5.6578839012       18.5742929827
O                3.1445428269        5.4584794298       16.3635047744
O                5.5574240469        7.0313332317       16.3635047743
O                1.6623998779        8.2086958540       18.5742929813
O                3.8752255572        6.9397984625       18.5742929805



     Writing config-only to output data dir ./tmp/al2o3.save/ :
     XML data file
     NEW-OLD atomic charge density approx. for the potential

     negative rho (up, down):  4.922E-03 0.000E+00

     total cpu time spent up to now is    22246.2 secs

     Self-consistent Calculation

     iteration #  1     ecut=    60.00 Ry     beta= 0.30
     Davidson diagonalization with overlap
     ethr =  1.00E-06,  avg # of iterations =  5.8

     negative rho (up, down):  4.884E-03 0.000E+00

     total cpu time spent up to now is    22395.6 secs

     total energy              =   -4910.94163734 Ry
     estimated scf accuracy    <       0.00081666 Ry

     iteration #  2     ecut=    60.00 Ry     beta= 0.30
     Davidson diagonalization with overlap
     ethr =  1.42E-07,  avg # of iterations =  2.0

     negative rho (up, down):  4.822E-03 0.000E+00

     total cpu time spent up to now is    22469.7 secs

     total energy              =   -4910.94155995 Ry
     estimated scf accuracy    <       0.00037015 Ry

     iteration #  3     ecut=    60.00 Ry     beta= 0.30
     Davidson diagonalization with overlap
     ethr =  6.43E-08,  avg # of iterations =  2.0

     negative rho (up, down):  4.823E-03 0.000E+00

     total cpu time spent up to now is    22558.1 secs

     total energy              =   -4910.94164507 Ry
     estimated scf accuracy    <       0.00005938 Ry

     iteration #  4     ecut=    60.00 Ry     beta= 0.30
     Davidson diagonalization with overlap
     ethr =  1.03E-08,  avg # of iterations =  3.5

     negative rho (up, down):  4.815E-03 0.000E+00

     total cpu time spent up to now is    22630.7 secs

     total energy              =   -4910.94163359 Ry
     estimated scf accuracy    <       0.00002505 Ry

     iteration #  5     ecut=    60.00 Ry     beta= 0.30
     Davidson diagonalization with overlap
     ethr =  4.35E-09,  avg # of iterations =  5.8

     negative rho (up, down):  4.816E-03 0.000E+00

     total cpu time spent up to now is    22739.5 secs

     total energy              =   -4910.94163218 Ry
     estimated scf accuracy    <       0.00005075 Ry

     iteration #  6     ecut=    60.00 Ry     beta= 0.30
     Davidson diagonalization with overlap
     ethr =  4.35E-09,  avg # of iterations =  4.2

     negative rho (up, down):  4.815E-03 0.000E+00

     total cpu time spent up to now is    22835.0 secs

     total energy              =   -4910.94164737 Ry
     estimated scf accuracy    <       0.00000347 Ry

     iteration #  7     ecut=    60.00 Ry     beta= 0.30
     Davidson diagonalization with overlap
     ethr =  6.02E-10,  avg # of iterations =  2.0

     negative rho (up, down):  4.815E-03 0.000E+00

     total cpu time spent up to now is    22909.5 secs

     total energy              =   -4910.94164676 Ry
     estimated scf accuracy    <       0.00000222 Ry

     iteration #  8     ecut=    60.00 Ry     beta= 0.30
     Davidson diagonalization with overlap
     ethr =  3.85E-10,  avg # of iterations =  2.2

     negative rho (up, down):  4.815E-03 0.000E+00

     total cpu time spent up to now is    22992.0 secs

     total energy              =   -4910.94164694 Ry
     estimated scf accuracy    <       0.00000024 Ry

     iteration #  9     ecut=    60.00 Ry     beta= 0.30
     Davidson diagonalization with overlap
     ethr =  4.16E-11,  avg # of iterations =  4.2

     negative rho (up, down):  4.815E-03 0.000E+00

     total cpu time spent up to now is    23088.0 secs

     total energy              =   -4910.94164702 Ry
     estimated scf accuracy    <       0.00000002 Ry

     iteration # 10     ecut=    60.00 Ry     beta= 0.30
     Davidson diagonalization with overlap
     ethr =  2.71E-12,  avg # of iterations =  4.2

     negative rho (up, down):  4.816E-03 0.000E+00

     total cpu time spent up to now is    23188.9 secs

     total energy              =   -4910.94164703 Ry
     estimated scf accuracy    <          8.4E-09 Ry

     iteration # 11     ecut=    60.00 Ry     beta= 0.30
     Davidson diagonalization with overlap
     ethr =  1.46E-12,  avg # of iterations =  2.0

     negative rho (up, down):  4.816E-03 0.000E+00

     total cpu time spent up to now is    23264.3 secs

     total energy              =   -4910.94164702 Ry
     estimated scf accuracy    <          3.9E-09 Ry

     iteration # 12     ecut=    60.00 Ry     beta= 0.30
     Davidson diagonalization with overlap
     ethr =  6.81E-13,  avg # of iterations =  4.0

     negative rho (up, down):  4.817E-03 0.000E+00

     total cpu time spent up to now is    23352.9 secs

     End of self-consistent calculation

          k = 0.0000 0.0000 0.0000 (166875 PWs)   bands (ev):

   -20.8793 -20.5638 -20.1783 -19.9593 -19.9593 -19.9593 -19.8962 -19.8962
   -19.8962 -19.7065 -19.7065 -19.7065 -19.6229 -19.5113 -19.5113 -19.5113
   -19.2536 -19.2536 -19.2536 -19.2488 -19.2488 -19.2488 -18.9968 -18.9258
   -18.9258 -18.9258 -18.8432 -18.8432 -18.8432 -18.8068 -18.8068 -18.8068
   -18.7858 -18.6528 -18.6528 -18.6528 -18.5438 -18.5438 -18.5438 -18.5128
   -18.5128 -18.5128 -18.5120 -18.5120 -18.4025 -18.4025 -18.4025 -18.3967
   -18.3967 -18.3637 -18.3637 -18.3637 -18.3456 -18.3456 -18.3456 -18.3008
   -18.3008 -18.2824 -18.2824 -18.2572 -18.2572 -18.2572 -18.1753 -18.1753
   -18.1753 -18.1587 -18.1587 -18.1475 -18.1475 -18.1404 -18.1404 -18.1404
    -8.4211  -8.2342  -8.2342  -8.2342  -8.1523  -8.1523  -8.1523  -7.8807
    -7.8807  -7.8807  -7.7879  -7.7016  -7.7016  -7.7015  -7.5659  -7.5259
    -7.4303  -7.4303  -7.4303  -7.2502  -7.2502  -7.2484  -7.2484  -7.2484
    -7.1403  -7.0524  -7.0524  -7.0524  -6.9288  -6.9288  -6.9288  -6.8894
    -6.8894  -6.7472  -6.6733  -6.6733  -6.6733  -6.6672  -6.6672  -6.6672
    -6.5497  -6.5497  -6.5497  -6.5222  -6.3768  -6.3768  -6.0564  -5.9969
    -5.9969  -5.9653  -5.9653  -5.9653  -5.8449  -5.8449  -5.8449  -5.8287
    -5.8287  -5.7813  -5.7813  -5.7813  -5.7156  -5.7156  -5.6753  -5.6753
    -5.6753  -5.6653  -5.5679  -5.5679  -5.5679  -5.5584  -5.5584  -5.5584
    -5.4177  -5.4165  -5.4165  -5.4165  -5.3281  -5.3281  -5.3281  -5.3082
    -5.2017  -5.2017  -5.2017  -5.0456  -5.0456  -5.0456  -5.0435  -4.8662
    -4.8662  -4.8662  -4.8065  -4.6922  -4.6922  -4.6922  -4.5899  -4.4702
    -4.4223  -4.4223  -4.4223  -4.2911  -4.2911  -4.2911  -4.2136  -4.2136
    -4.2136  -4.0991  -4.0991  -4.0991  -4.0910  -4.0910  -4.0910  -4.0719
    -4.0719  -4.0719  -4.0620  -4.0620  -3.9876  -3.9876  -3.8211  -3.7960
    -3.7960  -3.7960  -3.7561  -3.7561  -3.7561  -3.5913  -3.5913  -3.5913
    -3.5339  -3.5339  -3.5339  -3.4921  -3.4921  -3.4921  -3.4079  -3.4079
    -3.3746  -3.3746  -3.3449  -3.3449  -3.3449  -3.3256  -3.3256  -3.3256
    -3.3150  -3.3150  -3.3150  -3.2553  -3.2553  -3.2553  -3.2262  -3.2262
    -3.2262  -3.1073  -3.1073  -3.1073  -3.0366  -3.0366  -3.0366  -3.0208
    -3.0208  -3.0208  -3.0106  -3.0106  -3.0106  -2.9937  -2.9937  -2.9784
    -2.9784  -2.9784  -2.9706  -2.9706  -2.9001  -2.9001  -2.9001  -2.8469
    -2.8025  -2.8025  -2.8025  -2.6146  -2.6146  -2.6146  -2.5890  -2.5890
    -2.5890  -2.4872  -2.4872  -2.4825  -2.4825  -2.4825  -2.4152  -2.4152
    -2.3912  -2.3912  -2.3912  -2.2700  -2.2700  -2.2287  -2.1646  -2.1646
    -2.1646  -2.1334  -2.1334  -2.1265  -2.1265  -2.1265  -2.0535  -2.0535
    -2.0535  -1.9956  -1.9956  -1.9956  -1.9321  -1.9321  -1.9166  -1.9166

          k = 0.0000 0.2887 0.0000 (166721 PWs)   bands (ev):

   -20.8099 -20.4971 -20.2965 -20.1179 -20.0722 -20.0721 -20.0143 -19.8324
   -19.8306 -19.7137 -19.6717 -19.6658 -19.5751 -19.4750 -19.4691 -19.4458
   -19.2600 -19.2500 -19.1432 -19.1377 -19.1197 -19.1072 -18.9932 -18.9840
   -18.9619 -18.9242 -18.8938 -18.8724 -18.7833 -18.7758 -18.7647 -18.7508
   -18.7201 -18.6977 -18.6713 -18.6298 -18.6297 -18.6221 -18.6089 -18.5910
   -18.5812 -18.5291 -18.5155 -18.5131 -18.4752 -18.4504 -18.4436 -18.4418
   -18.4396 -18.3896 -18.3870 -18.3660 -18.3574 -18.3530 -18.3268 -18.3106
   -18.3060 -18.3043 -18.2615 -18.2249 -18.2089 -18.1913 -18.1810 -18.1719
   -18.1509 -18.1506 -18.1361 -18.1346 -18.1329 -18.1317 -18.1312 -18.1210
    -8.3663  -8.2401  -8.1343  -8.1168  -8.0483  -8.0250  -8.0031  -7.8911
    -7.8354  -7.7537  -7.7464  -7.6972  -7.6300  -7.6241  -7.6193  -7.6029
    -7.5784  -7.5575  -7.4902  -7.4321  -7.2547  -7.2492  -7.2238  -7.2185
    -7.1781  -7.1696  -7.1667  -7.0681  -7.0403  -6.9538  -6.9290  -6.8605
    -6.8503  -6.8152  -6.7921  -6.7765  -6.7533  -6.7164  -6.6767  -6.5905
    -6.5604  -6.5590  -6.5510  -6.5504  -6.3510  -6.2627  -6.1724  -6.1655
    -6.1600  -6.1014  -6.0702  -6.0502  -6.0438  -5.9599  -5.9379  -5.9348
    -5.9300  -5.8839  -5.8549  -5.8507  -5.8276  -5.7351  -5.7169  -5.7106
    -5.6800  -5.6441  -5.6399  -5.5794  -5.5767  -5.5311  -5.5036  -5.4831
    -5.3265  -5.2641  -5.1865  -5.1763  -5.1183  -5.1170  -5.0978  -5.0880
    -5.0811  -5.0467  -5.0234  -5.0029  -4.9917  -4.9085  -4.8957  -4.8008
    -4.7593  -4.6867  -4.6679  -4.6653  -4.6194  -4.5457  -4.5238  -4.5037
    -4.4731  -4.4492  -4.4282  -4.4149  -4.3267  -4.3215  -4.3082  -4.2866
    -4.2756  -4.2380  -4.2122  -4.2039  -4.1528  -4.0982  -4.0936  -4.0698
    -3.9854  -3.9556  -3.9200  -3.9187  -3.8998  -3.8865  -3.8650  -3.8621
    -3.7942  -3.7872  -3.7490  -3.7246  -3.7188  -3.6636  -3.6526  -3.6351
    -3.6112  -3.5931  -3.5407  -3.5367  -3.5097  -3.5017  -3.4957  -3.4950
    -3.4589  -3.4501  -3.4461  -3.3975  -3.3940  -3.3699  -3.3431  -3.3329
    -3.3212  -3.2838  -3.2814  -3.2778  -3.2739  -3.2394  -3.2270  -3.2154
    -3.2136  -3.1692  -3.1533  -3.1375  -3.1127  -3.1123  -3.0966  -3.0828
    -3.0603  -3.0402  -3.0228  -3.0103  -2.9900  -2.9767  -2.9650  -2.9556
    -2.8827  -2.8612  -2.8605  -2.8162  -2.8033  -2.7917  -2.7755  -2.7736
    -2.7658  -2.7657  -2.7075  -2.6363  -2.6342  -2.6315  -2.6035  -2.5894
    -2.5587  -2.5506  -2.5469  -2.5189  -2.5001  -2.4266  -2.4263  -2.4138
    -2.3961  -2.3892  -2.3861  -2.3721  -2.3392  -2.2731  -2.2026  -2.1865
    -2.1752  -2.1595  -2.1571  -2.1265  -2.1251  -2.1207  -2.1106  -2.0589
    -2.0568  -2.0470  -2.0242  -2.0049  -1.9985  -1.9849  -1.9541  -1.9223

          k = 0.0000-0.5774 0.0000 (166636 PWs)   bands (ev):

   -20.6084 -20.6084 -20.3044 -20.3044 -20.1236 -20.1236 -19.9461 -19.9461
   -19.8567 -19.8567 -19.5935 -19.5935 -19.4508 -19.4508 -19.4238 -19.4238
   -19.1996 -19.1996 -19.1061 -19.1061 -18.9769 -18.9769 -18.9592 -18.9592
   -18.9199 -18.9199 -18.8436 -18.8436 -18.8139 -18.8139 -18.7928 -18.7928
   -18.7716 -18.7716 -18.6962 -18.6962 -18.6089 -18.6089 -18.5722 -18.5722
   -18.5602 -18.5602 -18.5523 -18.5523 -18.5392 -18.5392 -18.5222 -18.5222
   -18.4423 -18.4423 -18.4300 -18.4300 -18.3699 -18.3699 -18.3474 -18.3474
   -18.2437 -18.2437 -18.2129 -18.2129 -18.1768 -18.1768 -18.1588 -18.1588
   -18.1477 -18.1477 -18.1392 -18.1392 -18.1189 -18.1189 -18.1107 -18.1107
    -8.2536  -8.2536  -7.9539  -7.9539  -7.8959  -7.8959  -7.8368  -7.8368
    -7.8102  -7.8102  -7.7482  -7.7482  -7.6923  -7.6923  -7.5333  -7.5333
    -7.4603  -7.4603  -7.4436  -7.4436  -7.4166  -7.4166  -7.3357  -7.3357
    -7.2293  -7.2293  -7.2046  -7.2046  -7.0957  -7.0957  -7.0889  -7.0889
    -6.8944  -6.8944  -6.8648  -6.8648  -6.7060  -6.7060  -6.7007  -6.7007
    -6.4112  -6.4112  -6.3867  -6.3867  -6.3597  -6.3597  -6.3254  -6.3254
    -6.2579  -6.2579  -6.2532  -6.2532  -6.0550  -6.0550  -6.0047  -6.0047
    -5.9072  -5.9072  -5.8329  -5.8329  -5.8210  -5.8210  -5.8113  -5.8113
    -5.7294  -5.7294  -5.5184  -5.5184  -5.3540  -5.3540  -5.3293  -5.3293
    -5.2171  -5.2171  -5.1839  -5.1839  -5.1276  -5.1276  -5.0148  -5.0148
    -4.9667  -4.9667  -4.8941  -4.8941  -4.8046  -4.8046  -4.8001  -4.8001
    -4.6977  -4.6977  -4.6228  -4.6228  -4.5984  -4.5984  -4.4576  -4.4576
    -4.4018  -4.4018  -4.3709  -4.3709  -4.3355  -4.3355  -4.1810  -4.1810
    -4.1801  -4.1801  -4.1277  -4.1277  -4.1121  -4.1121  -4.0444  -4.0444
    -3.9681  -3.9681  -3.9542  -3.9542  -3.9474  -3.9474  -3.9051  -3.9051
    -3.8226  -3.8226  -3.7620  -3.7620  -3.7067  -3.7067  -3.6947  -3.6947
    -3.6559  -3.6559  -3.6439  -3.6439  -3.5551  -3.5551  -3.5176  -3.5176
    -3.4799  -3.4799  -3.4115  -3.4115  -3.3907  -3.3907  -3.3352  -3.3352
    -3.3332  -3.3332  -3.2878  -3.2878  -3.2848  -3.2848  -3.2500  -3.2500
    -3.1870  -3.1870  -3.1699  -3.1699  -3.1177  -3.1177  -3.0996  -3.0996
    -3.0588  -3.0588  -3.0014  -3.0014  -2.9323  -2.9323  -2.9170  -2.9170
    -2.9102  -2.9102  -2.8520  -2.8520  -2.7857  -2.7857  -2.7634  -2.7634
    -2.7571  -2.7571  -2.7065  -2.7065  -2.6596  -2.6596  -2.6042  -2.6042
    -2.5816  -2.5816  -2.4992  -2.4992  -2.4894  -2.4894  -2.4019  -2.4019
    -2.3668  -2.3668  -2.3405  -2.3405  -2.3302  -2.3302  -2.2999  -2.2999
    -2.2130  -2.2130  -2.1500  -2.1500  -2.1438  -2.1438  -2.0462  -2.0462
    -2.0358  -2.0358  -2.0291  -2.0291  -1.9942  -1.9942  -1.9760  -1.9760

          k = 0.2500 0.4330 0.0000 (166642 PWs)   bands (ev):

   -20.6744 -20.4171 -20.4171 -20.3673 -20.1240 -20.1239 -20.0016 -19.8067
   -19.7911 -19.7906 -19.7529 -19.5888 -19.5114 -19.4874 -19.3791 -19.3775
   -19.2527 -19.1750 -19.0803 -19.0747 -19.0575 -18.9863 -18.9762 -18.9695
   -18.9166 -18.8817 -18.8540 -18.8439 -18.8355 -18.7617 -18.7600 -18.7444
   -18.7442 -18.7125 -18.6941 -18.6854 -18.6745 -18.6656 -18.6569 -18.5781
   -18.5689 -18.5662 -18.5619 -18.5535 -18.5261 -18.5121 -18.4901 -18.4766
   -18.4658 -18.4598 -18.4219 -18.4093 -18.4066 -18.3647 -18.3602 -18.3178
   -18.2742 -18.2475 -18.2025 -18.1994 -18.1969 -18.1709 -18.1610 -18.1542
   -18.1482 -18.1400 -18.1348 -18.1286 -18.1220 -18.1173 -18.1169 -18.1127
    -8.2607  -8.1493  -8.1362  -7.9723  -7.9129  -7.9002  -7.8715  -7.8397
    -7.7872  -7.7834  -7.7019  -7.6835  -7.6433  -7.6001  -7.5745  -7.5605
    -7.5013  -7.4857  -7.4758  -7.4604  -7.3977  -7.3891  -7.3748  -7.2936
    -7.2912  -7.2604  -7.1994  -7.1268  -7.1081  -7.1055  -7.0519  -6.9299
    -6.9154  -6.8974  -6.8826  -6.8534  -6.7887  -6.7186  -6.7007  -6.6552
    -6.5302  -6.4427  -6.4362  -6.4246  -6.3854  -6.3695  -6.3309  -6.3011
    -6.2754  -6.2130  -6.2036  -6.1601  -6.0819  -6.0787  -6.0415  -6.0067
    -5.9254  -5.9118  -5.8646  -5.8311  -5.8281  -5.8237  -5.7173  -5.6723
    -5.6258  -5.6037  -5.5610  -5.5356  -5.5183  -5.5156  -5.4189  -5.3679
    -5.3226  -5.2921  -5.2292  -5.1759  -5.1224  -5.0504  -5.0221  -4.9649
    -4.9322  -4.9062  -4.8978  -4.8578  -4.7952  -4.7811  -4.7286  -4.6806
    -4.6798  -4.6583  -4.6422  -4.5959  -4.5294  -4.5024  -4.5003  -4.4391
    -4.4348  -4.3966  -4.3844  -4.3263  -4.3132  -4.2942  -4.2674  -4.2411
    -4.1580  -4.1352  -4.1336  -4.1234  -4.0920  -4.0739  -4.0560  -4.0442
    -4.0161  -4.0059  -3.9801  -3.9647  -3.9491  -3.9361  -3.8943  -3.8897
    -3.8682  -3.7981  -3.7716  -3.7705  -3.7650  -3.7376  -3.7272  -3.7213
    -3.6806  -3.6752  -3.6602  -3.6105  -3.5876  -3.5789  -3.5550  -3.5138
    -3.4975  -3.4759  -3.4560  -3.4502  -3.4231  -3.4154  -3.3658  -3.3657
    -3.3550  -3.3298  -3.3210  -3.3135  -3.2932  -3.2512  -3.1879  -3.1867
    -3.1744  -3.1398  -3.1395  -3.1257  -3.1137  -3.0940  -3.0929  -3.0525
    -3.0404  -3.0388  -3.0117  -2.9993  -2.9730  -2.9655  -2.9512  -2.8852
    -2.8798  -2.8677  -2.8604  -2.8035  -2.7966  -2.7898  -2.7718  -2.7605
    -2.7406  -2.7292  -2.7207  -2.7072  -2.6884  -2.6620  -2.6389  -2.5887
    -2.5660  -2.5500  -2.5462  -2.5234  -2.4830  -2.4452  -2.4385  -2.3997
    -2.3992  -2.3836  -2.3654  -2.3636  -2.3288  -2.3221  -2.3024  -2.2418
    -2.2210  -2.1997  -2.1875  -2.1854  -2.1544  -2.0999  -2.0702  -2.0456
    -2.0449  -2.0377  -2.0333  -1.9884  -1.9857  -1.9750  -1.9743  -1.9344

     highest occupied level (ev):    -1.9166

!    total energy              =   -4910.94164702 Ry
     total all-electron energy =    -34162.771416 Ry
     estimated scf accuracy    <          2.1E-10 Ry

     The total energy is the sum of the following terms:
     one-electron contribution =  -81586.83167382 Ry
     hartree contribution      =   41027.33211155 Ry
     xc contribution           =    -676.50769948 Ry
     ewald contribution        =   38673.04819522 Ry
     one-center paw contrib.   =   -2347.98258049 Ry

     convergence has been achieved in  12 iterations

     negative rho (up, down):  4.817E-03 0.000E+00

     Forces acting on atoms (cartesian axes, Ry/au):

     atom    1 type  1   force =     0.00000000   -0.00000000    0.00251012
     atom    2 type  1   force =    -0.00000000   -0.00000000   -0.00034825
     atom    3 type  1   force =     0.00000000    0.00000000   -0.00273387
     atom    4 type  1   force =    -0.00000000   -0.00000000   -0.00035639
     atom    5 type  1   force =     0.00000000   -0.00000000    0.00288091
     atom    6 type  1   force =    -0.00000000   -0.00000000   -0.00146072
     atom    7 type  1   force =    -0.00000000   -0.00000000    0.00146072
     atom    8 type  1   force =     0.00000000    0.00000000   -0.00288091
     atom    9 type  1   force =    -0.00000000   -0.00000000    0.00035639
     atom   10 type  1   force =     0.00000000    0.00000000    0.00273387
     atom   11 type  1   force =     0.00000000   -0.00000000    0.00034825
     atom   12 type  1   force =     0.00000000   -0.00000000   -0.00251012
     atom   13 type  2   force =     0.00017650   -0.00050296   -0.00127094
     atom   14 type  2   force =    -0.00059098   -0.00043937   -0.00065089
     atom   15 type  2   force =    -0.00052382    0.00009863   -0.00127094
     atom   16 type  2   force =     0.00034732    0.00040433   -0.00127094
     atom   17 type  2   force =    -0.00008502    0.00073149   -0.00065089
     atom   18 type  2   force =     0.00067600   -0.00029212   -0.00065089
     atom   19 type  2   force =     0.00067187   -0.00106110   -0.00064687
     atom   20 type  2   force =     0.00125488    0.00005130    0.00064687
     atom   21 type  2   force =    -0.00125487   -0.00005131   -0.00064687
     atom   22 type  2   force =     0.00058301    0.00111241   -0.00064687
     atom   23 type  2   force =    -0.00058301   -0.00111241    0.00064687
     atom   24 type  2   force =    -0.00067187    0.00106110    0.00064687
     atom   25 type  2   force =    -0.00067600    0.00029212    0.00065089
     atom   26 type  2   force =     0.00052382   -0.00009863    0.00127094
     atom   27 type  2   force =     0.00059098    0.00043937    0.00065089
     atom   28 type  2   force =     0.00008502   -0.00073149    0.00065089
     atom   29 type  2   force =    -0.00034732   -0.00040433    0.00127094
     atom   30 type  2   force =    -0.00017650    0.00050296    0.00127094
     atom   31 type  1   force =    -0.00000000   -0.00000000    0.00251012
     atom   32 type  1   force =     0.00000000   -0.00000000   -0.00034825
     atom   33 type  1   force =    -0.00000000    0.00000000   -0.00273387
     atom   34 type  1   force =    -0.00000000    0.00000000   -0.00035639
     atom   35 type  1   force =    -0.00000000    0.00000000    0.00288091
     atom   36 type  1   force =    -0.00000000    0.00000000   -0.00146072
     atom   37 type  1   force =     0.00000000    0.00000000    0.00146072
     atom   38 type  1   force =     0.00000000   -0.00000000   -0.00288091
     atom   39 type  1   force =     0.00000000    0.00000000    0.00035639
     atom   40 type  1   force =     0.00000000   -0.00000000    0.00273387
     atom   41 type  1   force =    -0.00000000    0.00000000    0.00034825
     atom   42 type  1   force =     0.00000000    0.00000000   -0.00251012
     atom   43 type  2   force =     0.00017650   -0.00050296   -0.00127094
     atom   44 type  2   force =    -0.00059098   -0.00043937   -0.00065089
     atom   45 type  2   force =    -0.00052382    0.00009863   -0.00127094
     atom   46 type  2   force =     0.00034732    0.00040433   -0.00127094
     atom   47 type  2   force =    -0.00008502    0.00073149   -0.00065089
     atom   48 type  2   force =     0.00067600   -0.00029212   -0.00065089
     atom   49 type  2   force =     0.00067187   -0.00106110   -0.00064687
     atom   50 type  2   force =     0.00125487    0.00005131    0.00064687
     atom   51 type  2   force =    -0.00125487   -0.00005130   -0.00064687
     atom   52 type  2   force =     0.00058301    0.00111241   -0.00064687
     atom   53 type  2   force =    -0.00058300   -0.00111241    0.00064687
     atom   54 type  2   force =    -0.00067187    0.00106110    0.00064687
     atom   55 type  2   force =    -0.00067600    0.00029212    0.00065089
     atom   56 type  2   force =     0.00052382   -0.00009863    0.00127094
     atom   57 type  2   force =     0.00059098    0.00043937    0.00065089
     atom   58 type  2   force =     0.00008502   -0.00073149    0.00065089
     atom   59 type  2   force =    -0.00034732   -0.00040433    0.00127094
     atom   60 type  2   force =    -0.00017650    0.00050296    0.00127094
     atom   61 type  1   force =     0.00000000   -0.00000000    0.00251012
     atom   62 type  1   force =     0.00000000   -0.00000000   -0.00034825
     atom   63 type  1   force =     0.00000000    0.00000000   -0.00273387
     atom   64 type  1   force =     0.00000000   -0.00000000   -0.00035639
     atom   65 type  1   force =     0.00000000   -0.00000000    0.00288091
     atom   66 type  1   force =     0.00000000    0.00000000   -0.00146072
     atom   67 type  1   force =     0.00000000   -0.00000000    0.00146072
     atom   68 type  1   force =    -0.00000000    0.00000000   -0.00288091
     atom   69 type  1   force =     0.00000000   -0.00000000    0.00035639
     atom   70 type  1   force =    -0.00000000   -0.00000000    0.00273387
     atom   71 type  1   force =     0.00000000    0.00000000    0.00034825
     atom   72 type  1   force =     0.00000000    0.00000000   -0.00251012
     atom   73 type  2   force =     0.00017650   -0.00050296   -0.00127094
     atom   74 type  2   force =    -0.00059098   -0.00043937   -0.00065089
     atom   75 type  2   force =    -0.00052382    0.00009863   -0.00127094
     atom   76 type  2   force =     0.00034732    0.00040433   -0.00127094
     atom   77 type  2   force =    -0.00008502    0.00073149   -0.00065089
     atom   78 type  2   force =     0.00067600   -0.00029212   -0.00065089
     atom   79 type  2   force =     0.00067187   -0.00106110   -0.00064687
     atom   80 type  2   force =     0.00125487    0.00005130    0.00064687
     atom   81 type  2   force =    -0.00125487   -0.00005131   -0.00064687
     atom   82 type  2   force =     0.00058300    0.00111241   -0.00064687
     atom   83 type  2   force =    -0.00058301   -0.00111241    0.00064687
     atom   84 type  2   force =    -0.00067187    0.00106110    0.00064687
     atom   85 type  2   force =    -0.00067600    0.00029212    0.00065089
     atom   86 type  2   force =     0.00052382   -0.00009863    0.00127094
     atom   87 type  2   force =     0.00059098    0.00043937    0.00065089
     atom   88 type  2   force =     0.00008502   -0.00073149    0.00065089
     atom   89 type  2   force =    -0.00034732   -0.00040433    0.00127094
     atom   90 type  2   force =    -0.00017650    0.00050296    0.00127094
     atom   91 type  1   force =    -0.00000000    0.00000000    0.00251012
     atom   92 type  1   force =    -0.00000000    0.00000000   -0.00034825
     atom   93 type  1   force =     0.00000000   -0.00000000   -0.00273387
     atom   94 type  1   force =     0.00000000    0.00000000   -0.00035639
     atom   95 type  1   force =    -0.00000000   -0.00000000    0.00288091
     atom   96 type  1   force =     0.00000000    0.00000000   -0.00146072
     atom   97 type  1   force =     0.00000000    0.00000000    0.00146072
     atom   98 type  1   force =     0.00000000    0.00000000   -0.00288091
     atom   99 type  1   force =     0.00000000    0.00000000    0.00035639
     atom  100 type  1   force =    -0.00000000    0.00000000    0.00273387
     atom  101 type  1   force =     0.00000000    0.00000000    0.00034825
     atom  102 type  1   force =    -0.00000000    0.00000000   -0.00251012
     atom  103 type  2   force =     0.00017650   -0.00050296   -0.00127094
     atom  104 type  2   force =    -0.00059098   -0.00043937   -0.00065089
     atom  105 type  2   force =    -0.00052382    0.00009863   -0.00127094
     atom  106 type  2   force =     0.00034732    0.00040433   -0.00127094
     atom  107 type  2   force =    -0.00008502    0.00073149   -0.00065089
     atom  108 type  2   force =     0.00067600   -0.00029212   -0.00065089
     atom  109 type  2   force =     0.00067187   -0.00106110   -0.00064687
     atom  110 type  2   force =     0.00125487    0.00005131    0.00064687
     atom  111 type  2   force =    -0.00125488   -0.00005130   -0.00064687
     atom  112 type  2   force =     0.00058301    0.00111241   -0.00064687
     atom  113 type  2   force =    -0.00058301   -0.00111241    0.00064687
     atom  114 type  2   force =    -0.00067187    0.00106110    0.00064687
     atom  115 type  2   force =    -0.00067600    0.00029212    0.00065089
     atom  116 type  2   force =     0.00052382   -0.00009863    0.00127094
     atom  117 type  2   force =     0.00059098    0.00043937    0.00065089
     atom  118 type  2   force =     0.00008502   -0.00073149    0.00065089
     atom  119 type  2   force =    -0.00034732   -0.00040433    0.00127094
     atom  120 type  2   force =    -0.00017650    0.00050296    0.00127094

     Total force =     0.017673     Total SCF correction =     0.000064


     Computing stress (Cartesian axis) and pressure


     negative rho (up, down):  4.817E-03 0.000E+00
          total   stress  (Ry/bohr**3)                   (kbar)     P=       13.69
   0.00015250   0.00000000   0.00000000           22.43        0.00        0.00
   0.00000000   0.00015250  -0.00000000            0.00       22.43       -0.00
   0.00000000  -0.00000000  -0.00002580            0.00       -0.00       -3.80

     Energy error            =      8.6E-04 Ry
     Gradient error          =      2.9E-03 Ry/Bohr

     number of scf cycles    =  14
     number of bfgs steps    =  13

     energy             old  =   -4910.9407896732 Ry
     energy             new  =   -4910.9416470173 Ry

     CASE: energy            _new < energy            _old

     new trust radius        =       0.0088377311 bohr
     new conv_thr            =       0.0000000003 Ry


ATOMIC_POSITIONS (angstrom)
Al              -0.0000000001        2.7741837597       23.9959704469
Al               2.4025136111        1.3870918805       22.0831588191
Al               0.0000000000       -0.0000000000       21.6406642602
Al               0.0000000001        2.7741837606       19.9369550366
Al               0.0000000000       -0.0000000000       15.0700384180
Al               0.0000000034        2.7741837623       14.0888893657
Al               2.4025136137        1.3870918782       25.2598703843
Al               0.0000000000       -0.0000000000       24.2787213320
Al               2.4025136106        1.3870918802       19.4118047134
Al               0.0000000000        0.0000000000       17.7080954898
Al               0.0000000001        2.7741837612       17.2656009309
Al               2.4025136097        1.3870918800       15.3527893031
O                0.9301944495        1.3822070354       20.7723935217
O                1.6588875695        2.8643525474       22.9808682768
O                3.1344428215        2.6646001061       20.7723935196
O                3.1429036101        0.1144684707       20.7723935206
O                4.0536718952        1.2924605897       22.9808682770
O                1.4949813670        0.0044625028       22.9808682772
O               -1.5130945387        2.8397976966       25.1554244867
O                1.5891430383        0.1095205302       14.1933352654
O                0.8133705707        4.0517550962       25.1554244847
O                0.6997239212        1.4309985101       25.1554244846
O                1.7027896965        2.7302771295       14.1933352633
O                3.9156081492        1.3214779490       14.1933352653
O                3.3100458546       -0.0044625044       16.3678914732
O               -0.7319292108        1.4966755352       18.5763662283
O                0.7436260427        1.2969230931       16.3678914728
O                3.1538689333        2.8688150506       16.3678914741
O               -0.7403900005        4.0468071615       18.5763662304
O                1.4723191599        2.7790686053       18.5763662294
Al              -2.4025136102        6.9354594003       23.9959704469
Al               0.0000000000        5.5483675200       22.0831588212
Al              -2.4025136098        4.1612756397       21.6406642582
Al              -2.4025136096        6.9354593996       19.9369550366
Al              -2.4025136100        4.1612756378       15.0700384207
Al              -2.4025136097        6.9354593959       14.0888893657
Al               0.0000000000        5.5483675200       25.2598703855
Al              -2.4025136100        4.1612756422       24.2787213293
Al               0.0000000000        5.5483675200       19.4118047168
Al              -2.4025136102        4.1612756403       17.7080954918
Al              -2.4025136090        6.9354593993       17.2656009309
Al               0.0000000000        5.5483675200       15.3527893020
O               -1.4723191617        5.5434826758       20.7723935226
O               -0.7436260424        7.0256281882       22.9808682759
O                0.7319292117        6.8258757356       20.7723935226
O                0.7403900000        4.2757441086       20.7723935226
O                1.6511582867        5.4537362294       22.9808682759
O               -0.9075322443        4.1657381424       22.9808682759
O               -3.9156081529        7.0010733300       25.1554244846
O               -0.8133705742        4.2707961744       14.1933352632
O               -1.5891430347        8.2130307330       25.1554244867
O               -1.7027896915        5.5922741528       25.1554244847
O               -0.6997239162        6.8915527599       14.1933352632
O                1.5130945405        5.4827535856       14.1933352632
O                0.9075322433        4.1568131364       16.3678914730
O               -3.1344428198        5.6579511754       18.5763662294
O               -1.6588875681        5.4581987333       16.3678914730
O                0.7513553248        7.0300906903       16.3678914730
O               -3.1429036098        8.2080828003       18.5763662283
O               -0.9301944480        6.9403442446       18.5763662304
Al               4.8050272200        2.7741837600       23.9959704480
Al               7.2075408290        1.3870918807       22.0831588191
Al               4.8050272196        0.0000000000       21.6406642582
Al               4.8050272200        2.7741837600       19.9369550332
Al               4.8050272181        0.0000000011       15.0700384207
Al               4.8050272200        2.7741837600       14.0888893645
Al               7.2075408297        1.3870918841       25.2598703843
Al               4.8050272219       -0.0000000011       24.2787213293
Al               7.2075408296        1.3870918804       19.4118047134
Al               4.8050272204       -0.0000000000       17.7080954918
Al               4.8050272200        2.7741837600       17.2656009288
Al               7.2075408302        1.3870918797       15.3527893031
O                5.7352216680        1.3822070354       20.7723935196
O                6.4639147881        2.8643525467       22.9808682770
O                7.9394700398        2.6646001046       20.7723935206
O                7.9479308298        0.1144684697       20.7723935217
O                8.8586991158        1.2924605903       22.9808682772
O                6.3000085854        0.0044625044       22.9808682768
O                3.2919326795        2.8397976944       25.1554244868
O                6.3941702547        0.1095205370       14.1933352633
O                5.6183977942        4.0517550956       25.1554244868
O                5.5047511362        1.4309985101       25.1554244868
O                6.5078169115        2.7302771272       14.1933352653
O                8.7206353729        1.3214779500       14.1933352654
O                8.1150730730       -0.0044625028       16.3678914728
O                4.0730980083        1.4966755344       18.5763662274
O                5.5486532624        1.2969230918       16.3678914741
O                7.9588961549        2.8688150519       16.3678914732
O                4.0646372200        4.0468071614       18.5763662274
O                6.2773463817        2.7790686042       18.5763662274
Al               2.4025136103        6.9354594000       23.9959704469
Al               4.8050272199        5.5483675188       22.0831588191
Al               2.4025136102        4.1612756403       21.6406642582
Al               2.4025136094        6.9354593998       19.9369550366
Al               2.4025136119        4.1612756411       15.0700384207
Al               2.4025136063        6.9354594018       14.0888893657
Al               4.8050272166        5.5483675177       25.2598703843
Al               2.4025136081        4.1612756389       24.2787213293
Al               4.8050272199        5.5483675194       19.4118047134
Al               2.4025136098        4.1612756397       17.7080954918
Al               2.4025136089        6.9354593995       17.2656009309
Al               4.8050272201        5.5483675203       15.3527893031
O                3.3327080601        5.5434826747       20.7723935206
O                4.0614011773        7.0256281869       22.9808682772
O                5.5369564308        6.8258757348       20.7723935217
O                5.5454172205        4.2757441085       20.7723935196
O                6.4561855051        5.4537362281       22.9808682768
O                3.8974949767        4.1657381436       22.9808682770
O                0.8894190708        7.0010733310       25.1554244847
O                3.9916566493        4.2707961738       14.1933352653
O                3.2158841817        8.2130307398       25.1554244846
O                3.1022375235        5.5922741505       25.1554244867
O                4.1053032988        6.8915527599       14.1933352654
O                6.3181217587        5.4827535834       14.1933352633
O                5.7125594643        4.1568131376       16.3678914741
O                1.6705843985        5.6579511739       18.5763662304
O                3.1461396505        5.4581987326       16.3678914732
O                5.5563825442        7.0300906897       16.3678914728
O                1.6621236099        8.2080827993       18.5763662294
O                3.8748327705        6.9403442446       18.5763662283



     Writing config-only to output data dir ./tmp/al2o3.save/ :
     XML data file
     NEW-OLD atomic charge density approx. for the potential

     negative rho (up, down):  4.837E-03 0.000E+00

     total cpu time spent up to now is    23473.5 secs

     Self-consistent Calculation

     iteration #  1     ecut=    60.00 Ry     beta= 0.30
     Davidson diagonalization with overlap
     ethr =  1.00E-06,  avg # of iterations =  4.0

     Threshold (ethr) on eigenvalues was too large:
     Diagonalizing with lowered threshold

     Davidson diagonalization with overlap
     ethr =  5.29E-08,  avg # of iterations =  4.0

     negative rho (up, down):  4.833E-03 0.000E+00

     total cpu time spent up to now is    23697.8 secs

     total energy              =   -4910.94211348 Ry
     estimated scf accuracy    <       0.00044365 Ry

     iteration #  2     ecut=    60.00 Ry     beta= 0.30
     Davidson diagonalization with overlap
     ethr =  7.70E-08,  avg # of iterations =  2.0

     negative rho (up, down):  4.829E-03 0.000E+00

     total cpu time spent up to now is    23769.2 secs

     total energy              =   -4910.94209965 Ry
     estimated scf accuracy    <       0.00011345 Ry

     iteration #  3     ecut=    60.00 Ry     beta= 0.30
     Davidson diagonalization with overlap
     ethr =  1.97E-08,  avg # of iterations =  2.0

     negative rho (up, down):  4.827E-03 0.000E+00

     total cpu time spent up to now is    23856.2 secs

     total energy              =   -4910.94211409 Ry
     estimated scf accuracy    <       0.00001399 Ry

     iteration #  4     ecut=    60.00 Ry     beta= 0.30
     Davidson diagonalization with overlap
     ethr =  2.43E-09,  avg # of iterations =  3.8

     negative rho (up, down):  4.827E-03 0.000E+00

     total cpu time spent up to now is    23943.0 secs

     total energy              =   -4910.94211661 Ry
     estimated scf accuracy    <       0.00000249 Ry

     iteration #  5     ecut=    60.00 Ry     beta= 0.30
     Davidson diagonalization with overlap
     ethr =  4.32E-10,  avg # of iterations =  2.2

     negative rho (up, down):  4.826E-03 0.000E+00

     total cpu time spent up to now is    24024.7 secs

     total energy              =   -4910.94211695 Ry
     estimated scf accuracy    <       0.00000068 Ry

     iteration #  6     ecut=    60.00 Ry     beta= 0.30
     Davidson diagonalization with overlap
     ethr =  1.18E-10,  avg # of iterations =  4.2

     negative rho (up, down):  4.827E-03 0.000E+00

     total cpu time spent up to now is    24116.5 secs

     total energy              =   -4910.94211695 Ry
     estimated scf accuracy    <       0.00000018 Ry

     iteration #  7     ecut=    60.00 Ry     beta= 0.30
     Davidson diagonalization with overlap
     ethr =  3.08E-11,  avg # of iterations =  5.2

     negative rho (up, down):  4.827E-03 0.000E+00

     total cpu time spent up to now is    24229.5 secs

     total energy              =   -4910.94211694 Ry
     estimated scf accuracy    <       0.00000036 Ry

     iteration #  8     ecut=    60.00 Ry     beta= 0.30
     Davidson diagonalization with overlap
     ethr =  3.08E-11,  avg # of iterations =  4.2

     negative rho (up, down):  4.827E-03 0.000E+00

     total cpu time spent up to now is    24322.4 secs

     total energy              =   -4910.94211701 Ry
     estimated scf accuracy    <          2.3E-09 Ry

     iteration #  9     ecut=    60.00 Ry     beta= 0.30
     Davidson diagonalization with overlap
     ethr =  3.95E-13,  avg # of iterations =  6.8

     negative rho (up, down):  4.828E-03 0.000E+00

     total cpu time spent up to now is    24476.1 secs

     total energy              =   -4910.94211701 Ry
     estimated scf accuracy    <       0.00000003 Ry

     iteration # 10     ecut=    60.00 Ry     beta= 0.30
     Davidson diagonalization with overlap
     ethr =  3.95E-13,  avg # of iterations =  5.2

     negative rho (up, down):  4.828E-03 0.000E+00

     total cpu time spent up to now is    24591.9 secs

     total energy              =   -4910.94211701 Ry
     estimated scf accuracy    <          1.9E-09 Ry

     iteration # 11     ecut=    60.00 Ry     beta= 0.30
     Davidson diagonalization with overlap
     ethr =  3.23E-13,  avg # of iterations =  3.2

     negative rho (up, down):  4.828E-03 0.000E+00

     total cpu time spent up to now is    24677.9 secs

     End of self-consistent calculation

          k = 0.0000 0.0000 0.0000 (166875 PWs)   bands (ev):

   -20.8742 -20.5523 -20.1693 -19.9551 -19.9551 -19.9551 -19.8879 -19.8879
   -19.8879 -19.6942 -19.6942 -19.6942 -19.6153 -19.5027 -19.5027 -19.5027
   -19.2453 -19.2453 -19.2453 -19.2392 -19.2392 -19.2392 -18.9872 -18.9190
   -18.9190 -18.9190 -18.8356 -18.8356 -18.8356 -18.7995 -18.7995 -18.7995
   -18.7744 -18.6426 -18.6426 -18.6426 -18.5343 -18.5343 -18.5343 -18.5054
   -18.5054 -18.5023 -18.5023 -18.5023 -18.3949 -18.3949 -18.3949 -18.3884
   -18.3884 -18.3535 -18.3535 -18.3535 -18.3350 -18.3350 -18.3350 -18.2911
   -18.2911 -18.2740 -18.2740 -18.2465 -18.2465 -18.2465 -18.1646 -18.1646
   -18.1646 -18.1477 -18.1477 -18.1365 -18.1365 -18.1294 -18.1294 -18.1294
    -8.4103  -8.2291  -8.2291  -8.2291  -8.1439  -8.1439  -8.1439  -7.8692
    -7.8692  -7.8692  -7.7810  -7.6918  -7.6918  -7.6918  -7.5548  -7.5171
    -7.4211  -7.4211  -7.4211  -7.2439  -7.2439  -7.2382  -7.2382  -7.2382
    -7.1276  -7.0439  -7.0439  -7.0439  -6.9216  -6.9216  -6.9216  -6.8799
    -6.8799  -6.7414  -6.6640  -6.6640  -6.6640  -6.6578  -6.6578  -6.6578
    -6.5400  -6.5400  -6.5400  -6.5152  -6.3689  -6.3689  -6.0515  -5.9891
    -5.9891  -5.9577  -5.9577  -5.9577  -5.8376  -5.8376  -5.8376  -5.8209
    -5.8209  -5.7721  -5.7721  -5.7721  -5.7046  -5.7046  -5.6638  -5.6638
    -5.6638  -5.6570  -5.5603  -5.5603  -5.5603  -5.5478  -5.5478  -5.5478
    -5.4080  -5.4080  -5.4080  -5.4027  -5.3175  -5.3175  -5.3175  -5.2945
    -5.1919  -5.1919  -5.1919  -5.0383  -5.0383  -5.0383  -5.0329  -4.8579
    -4.8579  -4.8579  -4.7982  -4.6826  -4.6826  -4.6826  -4.5825  -4.4614
    -4.4109  -4.4109  -4.4109  -4.2796  -4.2796  -4.2796  -4.2056  -4.2056
    -4.2056  -4.0900  -4.0900  -4.0900  -4.0834  -4.0834  -4.0834  -4.0614
    -4.0614  -4.0614  -4.0511  -4.0511  -3.9774  -3.9774  -3.8107  -3.7883
    -3.7883  -3.7883  -3.7476  -3.7476  -3.7476  -3.5821  -3.5821  -3.5821
    -3.5230  -3.5230  -3.5230  -3.4807  -3.4807  -3.4807  -3.3956  -3.3956
    -3.3630  -3.3630  -3.3367  -3.3367  -3.3367  -3.3175  -3.3175  -3.3175
    -3.3043  -3.3043  -3.3043  -3.2444  -3.2444  -3.2444  -3.2152  -3.2152
    -3.2152  -3.0962  -3.0962  -3.0962  -3.0274  -3.0274  -3.0274  -3.0097
    -3.0097  -3.0097  -2.9976  -2.9976  -2.9976  -2.9861  -2.9861  -2.9718
    -2.9718  -2.9718  -2.9620  -2.9620  -2.8933  -2.8933  -2.8933  -2.8378
    -2.7919  -2.7919  -2.7919  -2.6032  -2.6032  -2.6032  -2.5805  -2.5805
    -2.5805  -2.4791  -2.4791  -2.4717  -2.4717  -2.4717  -2.4057  -2.4057
    -2.3813  -2.3813  -2.3813  -2.2603  -2.2603  -2.2160  -2.1545  -2.1545
    -2.1545  -2.1253  -2.1253  -2.1165  -2.1165  -2.1165  -2.0439  -2.0439
    -2.0439  -1.9854  -1.9854  -1.9854  -1.9214  -1.9214  -1.9059  -1.9059

          k = 0.0000 0.2887 0.0000 (166721 PWs)   bands (ev):

   -20.8048 -20.4856 -20.2912 -20.1090 -20.0668 -20.0668 -20.0028 -19.8217
   -19.8197 -19.7042 -19.6628 -19.6568 -19.5676 -19.4673 -19.4614 -19.4401
   -19.2504 -19.2404 -19.1338 -19.1292 -19.1111 -19.0979 -18.9864 -18.9772
   -18.9523 -18.9159 -18.8865 -18.8647 -18.7770 -18.7652 -18.7544 -18.7403
   -18.7124 -18.6892 -18.6622 -18.6206 -18.6198 -18.6132 -18.6017 -18.5814
   -18.5746 -18.5187 -18.5051 -18.5037 -18.4653 -18.4395 -18.4357 -18.4338
   -18.4300 -18.3819 -18.3774 -18.3550 -18.3464 -18.3434 -18.3193 -18.3005
   -18.2983 -18.2943 -18.2513 -18.2141 -18.1982 -18.1809 -18.1704 -18.1614
   -18.1402 -18.1397 -18.1252 -18.1238 -18.1221 -18.1208 -18.1203 -18.1103
    -8.3557  -8.2335  -8.1285  -8.1108  -8.0410  -8.0172  -7.9951  -7.8856
    -7.8240  -7.7425  -7.7352  -7.6874  -7.6199  -7.6139  -7.6107  -7.5927
    -7.5682  -7.5492  -7.4814  -7.4240  -7.2453  -7.2394  -7.2138  -7.2080
    -7.1702  -7.1606  -7.1583  -7.0601  -7.0311  -6.9464  -6.9209  -6.8517
    -6.8416  -6.8083  -6.7838  -6.7675  -6.7429  -6.7063  -6.6678  -6.5814
    -6.5533  -6.5507  -6.5409  -6.5408  -6.3446  -6.2542  -6.1636  -6.1574
    -6.1523  -6.0913  -6.0615  -6.0425  -6.0345  -5.9500  -5.9284  -5.9259
    -5.9224  -5.8725  -5.8463  -5.8422  -5.8193  -5.7266  -5.7083  -5.7017
    -5.6698  -5.6351  -5.6317  -5.5699  -5.5678  -5.5228  -5.4932  -5.4751
    -5.3174  -5.2558  -5.1775  -5.1665  -5.1073  -5.1068  -5.0842  -5.0777
    -5.0723  -5.0379  -5.0137  -4.9943  -4.9786  -4.9019  -4.8878  -4.7892
    -4.7497  -4.6773  -4.6583  -4.6563  -4.6112  -4.5366  -4.5163  -4.4919
    -4.4622  -4.4398  -4.4186  -4.4064  -4.3163  -4.3129  -4.2994  -4.2760
    -4.2670  -4.2301  -4.2028  -4.1946  -4.1425  -4.0885  -4.0854  -4.0616
    -3.9774  -3.9455  -3.9112  -3.9089  -3.8890  -3.8746  -3.8570  -3.8551
    -3.7841  -3.7788  -3.7416  -3.7143  -3.7077  -3.6530  -3.6428  -3.6262
    -3.6013  -3.5809  -3.5306  -3.5274  -3.5012  -3.4917  -3.4839  -3.4830
    -3.4501  -3.4402  -3.4356  -3.3866  -3.3835  -3.3592  -3.3330  -3.3219
    -3.3114  -3.2731  -3.2702  -3.2675  -3.2626  -3.2288  -3.2195  -3.2042
    -3.2022  -3.1599  -3.1439  -3.1269  -3.1044  -3.1024  -3.0862  -3.0731
    -3.0527  -3.0313  -3.0131  -3.0015  -2.9806  -2.9677  -2.9543  -2.9449
    -2.8729  -2.8515  -2.8506  -2.8078  -2.7944  -2.7818  -2.7639  -2.7637
    -2.7573  -2.7570  -2.6973  -2.6287  -2.6225  -2.6218  -2.5916  -2.5796
    -2.5500  -2.5416  -2.5370  -2.5099  -2.4898  -2.4168  -2.4167  -2.4044
    -2.3858  -2.3799  -2.3765  -2.3624  -2.3294  -2.2632  -2.1926  -2.1784
    -2.1654  -2.1496  -2.1474  -2.1161  -2.1148  -2.1111  -2.1006  -2.0483
    -2.0472  -2.0371  -2.0139  -1.9947  -1.9883  -1.9734  -1.9434  -1.9117

          k = 0.0000-0.5774 0.0000 (166636 PWs)   bands (ev):

   -20.6032 -20.6032 -20.2929 -20.2929 -20.1182 -20.1182 -19.9370 -19.9370
   -19.8452 -19.8452 -19.5835 -19.5835 -19.4436 -19.4436 -19.4181 -19.4181
   -19.1927 -19.1927 -19.0969 -19.0969 -18.9695 -18.9695 -18.9500 -18.9500
   -18.9111 -18.9111 -18.8343 -18.8343 -18.8053 -18.8053 -18.7834 -18.7834
   -18.7621 -18.7621 -18.6893 -18.6893 -18.5985 -18.5985 -18.5639 -18.5639
   -18.5498 -18.5498 -18.5440 -18.5440 -18.5291 -18.5291 -18.5124 -18.5124
   -18.4328 -18.4328 -18.4225 -18.4225 -18.3590 -18.3590 -18.3398 -18.3398
   -18.2334 -18.2334 -18.2023 -18.2023 -18.1662 -18.1662 -18.1484 -18.1484
   -18.1371 -18.1371 -18.1284 -18.1284 -18.1080 -18.1080 -18.1002 -18.1002
    -8.2443  -8.2443  -7.9476  -7.9476  -7.8876  -7.8876  -7.8306  -7.8306
    -7.8023  -7.8023  -7.7400  -7.7400  -7.6816  -7.6816  -7.5249  -7.5249
    -7.4501  -7.4501  -7.4347  -7.4347  -7.4063  -7.4063  -7.3249  -7.3249
    -7.2193  -7.2193  -7.1959  -7.1959  -7.0868  -7.0868  -7.0794  -7.0794
    -6.8864  -6.8864  -6.8556  -6.8556  -6.6969  -6.6969  -6.6922  -6.6922
    -6.4026  -6.4026  -6.3804  -6.3804  -6.3497  -6.3497  -6.3173  -6.3173
    -6.2516  -6.2516  -6.2435  -6.2435  -6.0446  -6.0446  -5.9944  -5.9944
    -5.8988  -5.8988  -5.8240  -5.8240  -5.8114  -5.8114  -5.8018  -5.8018
    -5.7204  -5.7204  -5.5098  -5.5098  -5.3442  -5.3442  -5.3200  -5.3200
    -5.2082  -5.2082  -5.1753  -5.1753  -5.1174  -5.1174  -5.0067  -5.0067
    -4.9575  -4.9575  -4.8839  -4.8839  -4.7971  -4.7971  -4.7923  -4.7923
    -4.6881  -4.6881  -4.6119  -4.6119  -4.5875  -4.5875  -4.4484  -4.4484
    -4.3906  -4.3906  -4.3580  -4.3580  -4.3272  -4.3272  -4.1739  -4.1739
    -4.1695  -4.1695  -4.1171  -4.1171  -4.1016  -4.1016  -4.0365  -4.0365
    -3.9605  -3.9605  -3.9437  -3.9437  -3.9379  -3.9379  -3.8969  -3.8969
    -3.8135  -3.8135  -3.7533  -3.7533  -3.6959  -3.6959  -3.6867  -3.6867
    -3.6465  -3.6465  -3.6364  -3.6364  -3.5451  -3.5451  -3.5058  -3.5058
    -3.4691  -3.4691  -3.4031  -3.4031  -3.3803  -3.3803  -3.3245  -3.3245
    -3.3242  -3.3242  -3.2780  -3.2780  -3.2751  -3.2751  -3.2397  -3.2397
    -3.1772  -3.1772  -3.1596  -3.1596  -3.1079  -3.1079  -3.0887  -3.0887
    -3.0477  -3.0477  -2.9915  -2.9915  -2.9227  -2.9227  -2.9054  -2.9054
    -2.8991  -2.8991  -2.8416  -2.8416  -2.7753  -2.7753  -2.7554  -2.7554
    -2.7482  -2.7482  -2.6966  -2.6966  -2.6499  -2.6499  -2.5938  -2.5938
    -2.5706  -2.5706  -2.4894  -2.4894  -2.4802  -2.4802  -2.3933  -2.3933
    -2.3578  -2.3578  -2.3315  -2.3315  -2.3217  -2.3217  -2.2909  -2.2909
    -2.2033  -2.2033  -2.1399  -2.1399  -2.1334  -2.1334  -2.0363  -2.0363
    -2.0239  -2.0239  -2.0189  -2.0189  -1.9839  -1.9839  -1.9655  -1.9655

          k = 0.2500 0.4330 0.0000 (166642 PWs)   bands (ev):

   -20.6693 -20.4119 -20.4119 -20.3558 -20.1124 -20.1123 -19.9925 -19.8026
   -19.7817 -19.7813 -19.7451 -19.5756 -19.5026 -19.4800 -19.3726 -19.3711
   -19.2450 -19.1676 -19.0731 -19.0673 -19.0497 -18.9773 -18.9654 -18.9601
   -18.9075 -18.8732 -18.8458 -18.8346 -18.8279 -18.7543 -18.7520 -18.7363
   -18.7360 -18.7053 -18.6842 -18.6758 -18.6650 -18.6552 -18.6462 -18.5700
   -18.5588 -18.5564 -18.5520 -18.5425 -18.5166 -18.5027 -18.4806 -18.4673
   -18.4564 -18.4503 -18.4114 -18.4017 -18.3989 -18.3572 -18.3527 -18.3075
   -18.2635 -18.2365 -18.1921 -18.1893 -18.1865 -18.1603 -18.1504 -18.1435
   -18.1375 -18.1294 -18.1242 -18.1182 -18.1113 -18.1066 -18.1060 -18.1021
    -8.2503  -8.1414  -8.1278  -7.9671  -7.9062  -7.8929  -7.8647  -7.8333
    -7.7781  -7.7750  -7.6918  -7.6749  -7.6322  -7.5915  -7.5654  -7.5505
    -7.4920  -7.4761  -7.4668  -7.4519  -7.3886  -7.3806  -7.3641  -7.2830
    -7.2827  -7.2500  -7.1888  -7.1174  -7.1003  -7.0967  -7.0419  -6.9213
    -6.9069  -6.8890  -6.8733  -6.8441  -6.7791  -6.7104  -6.6918  -6.6462
    -6.5227  -6.4360  -6.4283  -6.4143  -6.3776  -6.3613  -6.3210  -6.2940
    -6.2693  -6.2027  -6.1941  -6.1498  -6.0729  -6.0699  -6.0325  -5.9961
    -5.9152  -5.9024  -5.8558  -5.8231  -5.8191  -5.8145  -5.7094  -5.6636
    -5.6147  -5.5931  -5.5514  -5.5265  -5.5094  -5.5067  -5.4091  -5.3595
    -5.3147  -5.2833  -5.2202  -5.1668  -5.1150  -5.0418  -5.0131  -4.9548
    -4.9239  -4.8953  -4.8883  -4.8498  -4.7841  -4.7712  -4.7174  -4.6706
    -4.6692  -4.6500  -4.6323  -4.5860  -4.5229  -4.4911  -4.4895  -4.4293
    -4.4244  -4.3878  -4.3751  -4.3174  -4.3046  -4.2853  -4.2589  -4.2310
    -4.1495  -4.1255  -4.1244  -4.1134  -4.0801  -4.0622  -4.0477  -4.0350
    -4.0063  -3.9976  -3.9689  -3.9548  -3.9415  -3.9279  -3.8867  -3.8791
    -3.8591  -3.7889  -3.7641  -3.7611  -3.7541  -3.7283  -3.7173  -3.7100
    -3.6702  -3.6670  -3.6493  -3.6040  -3.5777  -3.5688  -3.5443  -3.5057
    -3.4881  -3.4672  -3.4461  -3.4395  -3.4141  -3.4052  -3.3563  -3.3540
    -3.3449  -3.3177  -3.3104  -3.3022  -3.2838  -3.2415  -3.1773  -3.1767
    -3.1654  -3.1310  -3.1294  -3.1167  -3.1039  -3.0842  -3.0838  -3.0436
    -3.0305  -3.0278  -3.0014  -2.9892  -2.9620  -2.9544  -2.9404  -2.8737
    -2.8686  -2.8573  -2.8531  -2.7919  -2.7875  -2.7791  -2.7611  -2.7506
    -2.7322  -2.7192  -2.7114  -2.6956  -2.6774  -2.6520  -2.6289  -2.5785
    -2.5566  -2.5410  -2.5349  -2.5131  -2.4744  -2.4366  -2.4296  -2.3907
    -2.3906  -2.3752  -2.3569  -2.3546  -2.3198  -2.3133  -2.2928  -2.2330
    -2.2124  -2.1901  -2.1775  -2.1751  -2.1439  -2.0894  -2.0588  -2.0347
    -2.0337  -2.0270  -2.0238  -1.9779  -1.9751  -1.9650  -1.9638  -1.9237

     highest occupied level (ev):    -1.9059

!    total energy              =   -4910.94211701 Ry
     total all-electron energy =    -34162.771886 Ry
     estimated scf accuracy    <          8.5E-11 Ry

     The total energy is the sum of the following terms:
     one-electron contribution =  -81647.64079175 Ry
     hartree contribution      =   41057.94818554 Ry
     xc contribution           =    -676.53038910 Ry
     ewald contribution        =   38703.26492170 Ry
     one-center paw contrib.   =   -2347.98404340 Ry

     convergence has been achieved in  11 iterations

     negative rho (up, down):  4.828E-03 0.000E+00

     Forces acting on atoms (cartesian axes, Ry/au):

     atom    1 type  1   force =     0.00000000    0.00000000    0.00194048
     atom    2 type  1   force =    -0.00000000    0.00000000    0.00019690
     atom    3 type  1   force =     0.00000000    0.00000000   -0.00194461
     atom    4 type  1   force =    -0.00000000   -0.00000000   -0.00003089
     atom    5 type  1   force =     0.00000000    0.00000000    0.00253424
     atom    6 type  1   force =    -0.00000000    0.00000000   -0.00110634
     atom    7 type  1   force =     0.00000000    0.00000000    0.00110634
     atom    8 type  1   force =    -0.00000000   -0.00000000   -0.00253424
     atom    9 type  1   force =    -0.00000000    0.00000000    0.00003089
     atom   10 type  1   force =     0.00000000    0.00000000    0.00194461
     atom   11 type  1   force =    -0.00000000   -0.00000000   -0.00019690
     atom   12 type  1   force =     0.00000000   -0.00000000   -0.00194048
     atom   13 type  2   force =     0.00006084   -0.00028700   -0.00101029
     atom   14 type  2   force =     0.00021666   -0.00018911    0.00012130
     atom   15 type  2   force =    -0.00027897    0.00009081   -0.00101029
     atom   16 type  2   force =     0.00021813    0.00019619   -0.00101029
     atom   17 type  2   force =    -0.00027210   -0.00009308    0.00012130
     atom   18 type  2   force =     0.00005544    0.00028219    0.00012130
     atom   19 type  2   force =    -0.00082375   -0.00015328   -0.00080019
     atom   20 type  2   force =    -0.00027913   -0.00079002    0.00080019
     atom   21 type  2   force =     0.00027913    0.00079003   -0.00080019
     atom   22 type  2   force =     0.00054462   -0.00063674   -0.00080019
     atom   23 type  2   force =    -0.00054462    0.00063674    0.00080019
     atom   24 type  2   force =     0.00082375    0.00015328    0.00080019
     atom   25 type  2   force =    -0.00005544   -0.00028219   -0.00012130
     atom   26 type  2   force =     0.00027897   -0.00009081    0.00101029
     atom   27 type  2   force =    -0.00021666    0.00018911   -0.00012130
     atom   28 type  2   force =     0.00027210    0.00009308   -0.00012130
     atom   29 type  2   force =    -0.00021813   -0.00019619    0.00101029
     atom   30 type  2   force =    -0.00006084    0.00028700    0.00101029
     atom   31 type  1   force =     0.00000000   -0.00000000    0.00194048
     atom   32 type  1   force =     0.00000000    0.00000000    0.00019690
     atom   33 type  1   force =    -0.00000000    0.00000000   -0.00194461
     atom   34 type  1   force =     0.00000000    0.00000000   -0.00003089
     atom   35 type  1   force =     0.00000000    0.00000000    0.00253424
     atom   36 type  1   force =     0.00000000    0.00000000   -0.00110634
     atom   37 type  1   force =     0.00000000    0.00000000    0.00110634
     atom   38 type  1   force =    -0.00000000   -0.00000000   -0.00253424
     atom   39 type  1   force =     0.00000000    0.00000000    0.00003089
     atom   40 type  1   force =     0.00000000   -0.00000000    0.00194461
     atom   41 type  1   force =    -0.00000000    0.00000000   -0.00019690
     atom   42 type  1   force =     0.00000000   -0.00000000   -0.00194048
     atom   43 type  2   force =     0.00006084   -0.00028700   -0.00101029
     atom   44 type  2   force =     0.00021666   -0.00018911    0.00012130
     atom   45 type  2   force =    -0.00027897    0.00009081   -0.00101029
     atom   46 type  2   force =     0.00021813    0.00019619   -0.00101029
     atom   47 type  2   force =    -0.00027210   -0.00009308    0.00012130
     atom   48 type  2   force =     0.00005544    0.00028219    0.00012130
     atom   49 type  2   force =    -0.00082374   -0.00015328   -0.00080019
     atom   50 type  2   force =    -0.00027913   -0.00079003    0.00080019
     atom   51 type  2   force =     0.00027913    0.00079003   -0.00080019
     atom   52 type  2   force =     0.00054462   -0.00063674   -0.00080019
     atom   53 type  2   force =    -0.00054462    0.00063674    0.00080019
     atom   54 type  2   force =     0.00082375    0.00015328    0.00080019
     atom   55 type  2   force =    -0.00005544   -0.00028219   -0.00012130
     atom   56 type  2   force =     0.00027897   -0.00009081    0.00101029
     atom   57 type  2   force =    -0.00021666    0.00018911   -0.00012130
     atom   58 type  2   force =     0.00027210    0.00009308   -0.00012130
     atom   59 type  2   force =    -0.00021813   -0.00019619    0.00101029
     atom   60 type  2   force =    -0.00006084    0.00028700    0.00101029
     atom   61 type  1   force =     0.00000000    0.00000000    0.00194048
     atom   62 type  1   force =     0.00000000   -0.00000000    0.00019690
     atom   63 type  1   force =     0.00000000    0.00000000   -0.00194461
     atom   64 type  1   force =     0.00000000   -0.00000000   -0.00003089
     atom   65 type  1   force =     0.00000000   -0.00000000    0.00253424
     atom   66 type  1   force =     0.00000000    0.00000000   -0.00110634
     atom   67 type  1   force =    -0.00000000   -0.00000000    0.00110634
     atom   68 type  1   force =    -0.00000000    0.00000000   -0.00253424
     atom   69 type  1   force =    -0.00000000   -0.00000000    0.00003089
     atom   70 type  1   force =    -0.00000000   -0.00000000    0.00194461
     atom   71 type  1   force =     0.00000000   -0.00000000   -0.00019690
     atom   72 type  1   force =    -0.00000000    0.00000000   -0.00194048
     atom   73 type  2   force =     0.00006084   -0.00028700   -0.00101029
     atom   74 type  2   force =     0.00021666   -0.00018911    0.00012130
     atom   75 type  2   force =    -0.00027897    0.00009081   -0.00101029
     atom   76 type  2   force =     0.00021813    0.00019619   -0.00101029
     atom   77 type  2   force =    -0.00027210   -0.00009308    0.00012130
     atom   78 type  2   force =     0.00005544    0.00028219    0.00012130
     atom   79 type  2   force =    -0.00082375   -0.00015328   -0.00080019
     atom   80 type  2   force =    -0.00027913   -0.00079003    0.00080019
     atom   81 type  2   force =     0.00027913    0.00079003   -0.00080019
     atom   82 type  2   force =     0.00054462   -0.00063674   -0.00080019
     atom   83 type  2   force =    -0.00054462    0.00063674    0.00080019
     atom   84 type  2   force =     0.00082374    0.00015328    0.00080019
     atom   85 type  2   force =    -0.00005544   -0.00028219   -0.00012130
     atom   86 type  2   force =     0.00027897   -0.00009081    0.00101029
     atom   87 type  2   force =    -0.00021666    0.00018911   -0.00012130
     atom   88 type  2   force =     0.00027210    0.00009308   -0.00012130
     atom   89 type  2   force =    -0.00021813   -0.00019619    0.00101029
     atom   90 type  2   force =    -0.00006084    0.00028700    0.00101029
     atom   91 type  1   force =    -0.00000000    0.00000000    0.00194048
     atom   92 type  1   force =     0.00000000    0.00000000    0.00019690
     atom   93 type  1   force =     0.00000000   -0.00000000   -0.00194461
     atom   94 type  1   force =     0.00000000   -0.00000000   -0.00003089
     atom   95 type  1   force =    -0.00000000   -0.00000000    0.00253424
     atom   96 type  1   force =    -0.00000000   -0.00000000   -0.00110634
     atom   97 type  1   force =     0.00000000   -0.00000000    0.00110634
     atom   98 type  1   force =     0.00000000    0.00000000   -0.00253424
     atom   99 type  1   force =     0.00000000    0.00000000    0.00003089
     atom  100 type  1   force =    -0.00000000    0.00000000    0.00194461
     atom  101 type  1   force =     0.00000000   -0.00000000   -0.00019690
     atom  102 type  1   force =    -0.00000000   -0.00000000   -0.00194048
     atom  103 type  2   force =     0.00006084   -0.00028700   -0.00101029
     atom  104 type  2   force =     0.00021666   -0.00018911    0.00012130
     atom  105 type  2   force =    -0.00027897    0.00009081   -0.00101029
     atom  106 type  2   force =     0.00021813    0.00019619   -0.00101029
     atom  107 type  2   force =    -0.00027210   -0.00009308    0.00012130
     atom  108 type  2   force =     0.00005544    0.00028219    0.00012130
     atom  109 type  2   force =    -0.00082375   -0.00015328   -0.00080019
     atom  110 type  2   force =    -0.00027913   -0.00079003    0.00080019
     atom  111 type  2   force =     0.00027913    0.00079002   -0.00080019
     atom  112 type  2   force =     0.00054462   -0.00063674   -0.00080019
     atom  113 type  2   force =    -0.00054462    0.00063674    0.00080019
     atom  114 type  2   force =     0.00082375    0.00015328    0.00080019
     atom  115 type  2   force =    -0.00005544   -0.00028219   -0.00012130
     atom  116 type  2   force =     0.00027897   -0.00009081    0.00101029
     atom  117 type  2   force =    -0.00021666    0.00018911   -0.00012130
     atom  118 type  2   force =     0.00027210    0.00009308   -0.00012130
     atom  119 type  2   force =    -0.00021813   -0.00019619    0.00101029
     atom  120 type  2   force =    -0.00006084    0.00028700    0.00101029

     Total force =     0.013527     Total SCF correction =     0.000031


     Computing stress (Cartesian axis) and pressure


     negative rho (up, down):  4.828E-03 0.000E+00
          total   stress  (Ry/bohr**3)                   (kbar)     P=       13.91
   0.00015254   0.00000000   0.00000000           22.44        0.00        0.00
   0.00000000   0.00015254   0.00000000            0.00       22.44        0.00
   0.00000000   0.00000000  -0.00002142            0.00        0.00       -3.15

     Energy error            =      4.7E-04 Ry
     Gradient error          =      2.5E-03 Ry/Bohr

     number of scf cycles    =  15
     number of bfgs steps    =  14

     energy             old  =   -4910.9416470173 Ry
     energy             new  =   -4910.9421170057 Ry

     CASE: energy            _new < energy            _old

     new trust radius        =       0.0074351106 bohr
     new conv_thr            =       0.0000000003 Ry


ATOMIC_POSITIONS (angstrom)
Al               0.0000000002        2.7741837600       23.9953235263
Al               2.4025136110        1.3870918804       22.0821173287
Al               0.0000000000       -0.0000000000       21.6369755803
Al              -0.0000000001        2.7741837604       19.9366284912
Al               0.0000000000       -0.0000000000       15.0739729091
Al               0.0000000026        2.7741837630       14.0871608628
Al               2.4025136139        1.3870918792       25.2615988872
Al              -0.0000000000       -0.0000000000       24.2747868409
Al               2.4025136103        1.3870918803       19.4121312588
Al               0.0000000000        0.0000000000       17.7117841697
Al               0.0000000001        2.7741837610       17.2666424213
Al               2.4025136101        1.3870918799       15.3534362237
O                0.9304908963        1.3816744793       20.7705325365
O                1.6580418981        2.8644464837       22.9785181751
O                3.1338333907        2.6646096527       20.7705325348
O                3.1432165934        0.1149914794       20.7705325354
O                4.0541760820        1.2931459939       22.9785181756
O                1.4953228510        0.0036831624       22.9785181761
O               -1.5127380726        2.8390847039       25.1533882869
O                1.5899387396        0.1094727443       14.1953714644
O                0.8125748693        4.0518028828       25.1533882852
O                0.7001631556        1.4316637148       25.1533882856
O                1.7023504599        2.7296119245       14.1953714631
O                3.9152516829        1.3221909399       14.1953714648
O                3.3097043701       -0.0036831634       16.3702415749
O               -0.7313197802        1.4966659876       18.5782272135
O                0.7444717133        1.2968291567       16.3702415739
O                3.1533647472        2.8681296460       16.3702415751
O               -0.7407029835        4.0462841523       18.5782272152
O                1.4720227127        2.7796011612       18.5782272146
Al              -2.4025136100        6.9354593998       23.9953235263
Al               0.0000000000        5.5483675200       22.0821173306
Al              -2.4025136100        4.1612756397       21.6369755785
Al              -2.4025136096        6.9354593999       19.9366284912
Al              -2.4025136099        4.1612756385       15.0739729111
Al              -2.4025136087        6.9354593962       14.0871608628
Al               0.0000000000        5.5483675200       25.2615988882
Al              -2.4025136101        4.1612756415       24.2747868389
Al               0.0000000000        5.5483675200       19.4121312613
Al              -2.4025136100        4.1612756403       17.7117841715
Al              -2.4025136092        6.9354593994       17.2666424213
Al               0.0000000000        5.5483675200       15.3534362226
O               -1.4720227144        5.5429501197       20.7705325371
O               -0.7444717133        7.0257221238       22.9785181749
O                0.7313197809        6.8258852829       20.7705325371
O                0.7407029835        4.2762671175       20.7705325371
O                1.6516624728        5.4544216340       22.9785181749
O               -0.9071907595        4.1649588021       22.9785181749
O               -3.9152516860        7.0003603396       25.1533882856
O               -0.8125748720        4.2707483867       14.1953714634
O               -1.5899387376        8.2130785206       25.1533882869
O               -1.7023504564        5.5929393571       25.1533882852
O               -0.7001631527        6.8908875555       14.1953714634
O                1.5127380748        5.4834665778       14.1953714634
O                0.9071907592        4.1575924771       16.3702415744
O               -3.1338333893        5.6579416282       18.5782272146
O               -1.6580418972        5.4581047968       16.3702415744
O                0.7508511380        7.0294052861       16.3702415744
O               -3.1432165935        8.2075597917       18.5782272135
O               -0.9304908958        6.9408768004       18.5782272152
Al               4.8050272200        2.7741837600       23.9953235274
Al               7.2075408292        1.3870918806       22.0821173287
Al               4.8050272198        0.0000000002       21.6369755785
Al               4.8050272200        2.7741837600       19.9366284887
Al               4.8050272187        0.0000000007       15.0739729111
Al               4.8050272200        2.7741837600       14.0871608618
Al               7.2075408287        1.3870918838       25.2615988872
Al               4.8050272213       -0.0000000007       24.2747868389
Al               7.2075408296        1.3870918801       19.4121312588
Al               4.8050272202       -0.0000000002       17.7117841715
Al               4.8050272200        2.7741837600       17.2666424194
Al               7.2075408300        1.3870918802       15.3534362237
O                5.7355181158        1.3816744796       20.7705325348
O                6.4630691172        2.8644464832       22.9785181756
O                7.9388606093        2.6646096518       20.7705325354
O                7.9482438135        0.1149914783       20.7705325365
O                8.8592033023        1.2931459944       22.9785181761
O                6.3003500699        0.0036831634       22.9785181751
O                3.2922891452        2.8390847022       25.1533882866
O                6.3949659576        0.1094727494       14.1953714631
O                5.6176020920        4.0518028833       25.1533882866
O                5.5051903727        1.4316637145       25.1533882866
O                6.5073776764        2.7296119229       14.1953714648
O                8.7202789060        1.3221909404       14.1953714644
O                8.1147315890       -0.0036831624       16.3702415739
O                4.0737074391        1.4966659871       18.5782272129
O                5.5494989333        1.2968291562       16.3702415751
O                7.9583919680        2.8681296471       16.3702415749
O                4.0643242365        4.0462841525       18.5782272129
O                6.2770499344        2.7796011603       18.5782272129
Al               2.4025136099        6.9354594001       23.9953235263
Al               4.8050272199        5.5483675190       22.0821173287
Al               2.4025136102        4.1612756401       21.6369755785
Al               2.4025136097        6.9354593997       19.9366284912
Al               2.4025136113        4.1612756408       15.0739729111
Al               2.4025136061        6.9354594008       14.0871608628
Al               4.8050272174        5.5483675170       25.2615988872
Al               2.4025136087        4.1612756392       24.2747868389
Al               4.8050272201        5.5483675196       19.4121312588
Al               2.4025136098        4.1612756399       17.7117841715
Al               2.4025136090        6.9354593996       17.2666424213
Al               4.8050272198        5.5483675200       15.3534362237
O                3.3330045073        5.5429501188       20.7705325354
O                4.0605555067        7.0257221233       22.9785181761
O                5.5363470002        6.8258852824       20.7705325365
O                5.5457302035        4.2762671177       20.7705325348
O                6.4566896920        5.4544216329       22.9785181751
O                3.8978364608        4.1649588029       22.9785181756
O                0.8897755371        7.0003603401       25.1533882852
O                3.9924523507        4.2707483872       14.1953714648
O                3.2150884804        8.2130785257       25.1533882856
O                3.1026767601        5.5929393555       25.1533882869
O                4.1048640644        6.8908875552       14.1953714644
O                6.3177652926        5.4834665761       14.1953714631
O                5.7122179795        4.1575924779       16.3702415751
O                1.6711938293        5.6579416273       18.5782272152
O                3.1469853219        5.4581047963       16.3702415749
O                5.5558783577        7.0294052856       16.3702415739
O                1.6618106266        8.2075597906       18.5782272146
O                3.8745363237        6.9408768007       18.5782272135



     Writing config-only to output data dir ./tmp/al2o3.save/ :
     XML data file
     NEW-OLD atomic charge density approx. for the potential

     negative rho (up, down):  4.817E-03 0.000E+00

     total cpu time spent up to now is    24798.6 secs

     Self-consistent Calculation

     iteration #  1     ecut=    60.00 Ry     beta= 0.30
     Davidson diagonalization with overlap
     ethr =  1.00E-06,  avg # of iterations =  3.2

     Threshold (ethr) on eigenvalues was too large:
     Diagonalizing with lowered threshold

     Davidson diagonalization with overlap
     ethr =  1.94E-08,  avg # of iterations =  5.0

     negative rho (up, down):  4.822E-03 0.000E+00

     total cpu time spent up to now is    25029.7 secs

     total energy              =   -4910.94239910 Ry
     estimated scf accuracy    <       0.00018574 Ry

     iteration #  2     ecut=    60.00 Ry     beta= 0.30
     Davidson diagonalization with overlap
     ethr =  3.22E-08,  avg # of iterations =  2.0

     negative rho (up, down):  4.828E-03 0.000E+00

     total cpu time spent up to now is    25103.8 secs

     total energy              =   -4910.94239958 Ry
     estimated scf accuracy    <       0.00004198 Ry

     iteration #  3     ecut=    60.00 Ry     beta= 0.30
     Davidson diagonalization with overlap
     ethr =  7.29E-09,  avg # of iterations =  2.5

     negative rho (up, down):  4.832E-03 0.000E+00

     total cpu time spent up to now is    25192.3 secs

     total energy              =   -4910.94240414 Ry
     estimated scf accuracy    <       0.00000657 Ry

     iteration #  4     ecut=    60.00 Ry     beta= 0.30
     Davidson diagonalization with overlap
     ethr =  1.14E-09,  avg # of iterations =  3.0

     negative rho (up, down):  4.833E-03 0.000E+00

     total cpu time spent up to now is    25277.5 secs

     total energy              =   -4910.94240518 Ry
     estimated scf accuracy    <       0.00000080 Ry

     iteration #  5     ecut=    60.00 Ry     beta= 0.30
     Davidson diagonalization with overlap
     ethr =  1.39E-10,  avg # of iterations =  3.2

     negative rho (up, down):  4.834E-03 0.000E+00

     total cpu time spent up to now is    25357.3 secs

     total energy              =   -4910.94240530 Ry
     estimated scf accuracy    <       0.00000022 Ry

     iteration #  6     ecut=    60.00 Ry     beta= 0.30
     Davidson diagonalization with overlap
     ethr =  3.84E-11,  avg # of iterations =  4.0

     negative rho (up, down):  4.835E-03 0.000E+00

     total cpu time spent up to now is    25450.2 secs

     total energy              =   -4910.94240532 Ry
     estimated scf accuracy    <       0.00000006 Ry

     iteration #  7     ecut=    60.00 Ry     beta= 0.30
     Davidson diagonalization with overlap
     ethr =  9.69E-12,  avg # of iterations =  5.2

     negative rho (up, down):  4.835E-03 0.000E+00

     total cpu time spent up to now is    25564.5 secs

     total energy              =   -4910.94240531 Ry
     estimated scf accuracy    <       0.00000012 Ry

     iteration #  8     ecut=    60.00 Ry     beta= 0.30
     Davidson diagonalization with overlap
     ethr =  9.69E-12,  avg # of iterations =  4.2

     negative rho (up, down):  4.835E-03 0.000E+00

     total cpu time spent up to now is    25666.4 secs

     total energy              =   -4910.94240535 Ry
     estimated scf accuracy    <          1.4E-09 Ry

     iteration #  9     ecut=    60.00 Ry     beta= 0.30
     Davidson diagonalization with overlap
     ethr =  2.42E-13,  avg # of iterations =  5.8

     negative rho (up, down):  4.835E-03 0.000E+00

     total cpu time spent up to now is    25792.1 secs

     total energy              =   -4910.94240534 Ry
     estimated scf accuracy    <          4.3E-09 Ry

     iteration # 10     ecut=    60.00 Ry     beta= 0.30
     Davidson diagonalization with overlap
     ethr =  2.42E-13,  avg # of iterations =  3.8

     negative rho (up, down):  4.835E-03 0.000E+00

     total cpu time spent up to now is    25890.4 secs

     End of self-consistent calculation

          k = 0.0000 0.0000 0.0000 (166875 PWs)   bands (ev):

   -20.8631 -20.5359 -20.1572 -19.9450 -19.9450 -19.9450 -19.8744 -19.8744
   -19.8744 -19.6775 -19.6775 -19.6775 -19.6032 -19.4887 -19.4887 -19.4887
   -19.2330 -19.2330 -19.2330 -19.2267 -19.2267 -19.2267 -18.9731 -18.9074
   -18.9074 -18.9074 -18.8239 -18.8239 -18.8239 -18.7875 -18.7875 -18.7875
   -18.7593 -18.6279 -18.6279 -18.6279 -18.5214 -18.5214 -18.5214 -18.4942
   -18.4942 -18.4882 -18.4882 -18.4882 -18.3835 -18.3835 -18.3835 -18.3755
   -18.3755 -18.3386 -18.3386 -18.3386 -18.3205 -18.3205 -18.3205 -18.2777
   -18.2777 -18.2621 -18.2621 -18.2312 -18.2312 -18.2312 -18.1493 -18.1493
   -18.1493 -18.1319 -18.1319 -18.1207 -18.1207 -18.1141 -18.1141 -18.1141
    -8.3957  -8.2190  -8.2190  -8.2190  -8.1296  -8.1296  -8.1296  -7.8532
    -7.8532  -7.8532  -7.7691  -7.6786  -7.6786  -7.6786  -7.5397  -7.5033
    -7.4075  -7.4075  -7.4075  -7.2321  -7.2321  -7.2245  -7.2245  -7.2245
    -7.1114  -7.0310  -7.0310  -7.0310  -6.9097  -6.9097  -6.9097  -6.8659
    -6.8659  -6.7298  -6.6501  -6.6501  -6.6501  -6.6447  -6.6447  -6.6447
    -6.5254  -6.5254  -6.5254  -6.5056  -6.3579  -6.3579  -6.0408  -5.9758
    -5.9758  -5.9440  -5.9440  -5.9440  -5.8264  -5.8264  -5.8264  -5.8082
    -5.8082  -5.7595  -5.7595  -5.7595  -5.6884  -5.6884  -5.6462  -5.6462
    -5.6462  -5.6437  -5.5491  -5.5491  -5.5491  -5.5315  -5.5315  -5.5315
    -5.3953  -5.3953  -5.3953  -5.3881  -5.3022  -5.3022  -5.3022  -5.2784
    -5.1786  -5.1786  -5.1786  -5.0276  -5.0276  -5.0276  -5.0180  -4.8463
    -4.8463  -4.8463  -4.7851  -4.6704  -4.6704  -4.6704  -4.5681  -4.4474
    -4.3962  -4.3962  -4.3962  -4.2651  -4.2651  -4.2651  -4.1924  -4.1924
    -4.1924  -4.0759  -4.0759  -4.0759  -4.0719  -4.0719  -4.0719  -4.0473
    -4.0473  -4.0473  -4.0377  -4.0377  -3.9629  -3.9629  -3.7971  -3.7774
    -3.7774  -3.7774  -3.7364  -3.7364  -3.7364  -3.5687  -3.5687  -3.5687
    -3.5098  -3.5098  -3.5098  -3.4658  -3.4658  -3.4658  -3.3806  -3.3806
    -3.3483  -3.3483  -3.3254  -3.3254  -3.3254  -3.3059  -3.3059  -3.3059
    -3.2901  -3.2901  -3.2901  -3.2304  -3.2304  -3.2304  -3.1998  -3.1998
    -3.1998  -3.0826  -3.0826  -3.0826  -3.0129  -3.0129  -3.0129  -2.9943
    -2.9943  -2.9943  -2.9801  -2.9801  -2.9801  -2.9757  -2.9757  -2.9593
    -2.9593  -2.9593  -2.9506  -2.9506  -2.8812  -2.8812  -2.8812  -2.8248
    -2.7767  -2.7767  -2.7767  -2.5880  -2.5880  -2.5880  -2.5679  -2.5679
    -2.5679  -2.4669  -2.4669  -2.4568  -2.4568  -2.4568  -2.3914  -2.3914
    -2.3671  -2.3671  -2.3671  -2.2464  -2.2464  -2.2007  -2.1405  -2.1405
    -2.1405  -2.1131  -2.1131  -2.1023  -2.1023  -2.1023  -2.0299  -2.0299
    -2.0299  -1.9709  -1.9709  -1.9709  -1.9056  -1.9056  -1.8903  -1.8903

          k = 0.0000 0.2887 0.0000 (166721 PWs)   bands (ev):

   -20.7937 -20.4692 -20.2801 -20.0967 -20.0558 -20.0557 -19.9865 -19.8062
   -19.8042 -19.6912 -19.6492 -19.6431 -19.5555 -19.4549 -19.4489 -19.4292
   -19.2364 -19.2265 -19.1198 -19.1166 -19.0985 -19.0843 -18.9751 -18.9660
   -18.9382 -18.9038 -18.8747 -18.8525 -18.7657 -18.7507 -18.7397 -18.7253
   -18.7007 -18.6766 -18.6488 -18.6081 -18.6055 -18.6008 -18.5898 -18.5680
   -18.5632 -18.5044 -18.4909 -18.4908 -18.4509 -18.4247 -18.4239 -18.4222
   -18.4159 -18.3706 -18.3640 -18.3403 -18.3317 -18.3302 -18.3080 -18.2870
   -18.2858 -18.2795 -18.2365 -18.1991 -18.1830 -18.1658 -18.1553 -18.1463
   -18.1250 -18.1243 -18.1098 -18.1086 -18.1066 -18.1055 -18.1050 -18.0949
    -8.3411  -8.2218  -8.1176  -8.0995  -8.0280  -8.0038  -7.9813  -7.8744
    -7.8081  -7.7268  -7.7194  -7.6730  -7.6051  -7.5996  -7.5984  -7.5786
    -7.5541  -7.5368  -7.4686  -7.4108  -7.2315  -7.2256  -7.1998  -7.1936
    -7.1584  -7.1469  -7.1460  -7.0483  -7.0186  -6.9343  -6.9078  -6.8391
    -6.8287  -6.7963  -6.7707  -6.7538  -6.7280  -6.6912  -6.6547  -6.5674
    -6.5437  -6.5375  -6.5277  -6.5269  -6.3334  -6.2425  -6.1509  -6.1452
    -6.1402  -6.0763  -6.0488  -6.0289  -6.0191  -5.9346  -5.9130  -5.9112
    -5.9094  -5.8551  -5.8339  -5.8291  -5.8074  -5.7132  -5.6947  -5.6886
    -5.6549  -5.6216  -5.6189  -5.5554  -5.5548  -5.5099  -5.4776  -5.4625
    -5.3040  -5.2422  -5.1648  -5.1526  -5.0926  -5.0922  -5.0698  -5.0635
    -5.0594  -5.0258  -5.0011  -4.9820  -4.9631  -4.8913  -4.8761  -4.7736
    -4.7371  -4.6646  -4.6457  -4.6442  -4.5987  -4.5231  -4.5054  -4.4774
    -4.4483  -4.4254  -4.4057  -4.3928  -4.3029  -4.3006  -4.2856  -4.2619
    -4.2535  -4.2170  -4.1886  -4.1807  -4.1283  -4.0761  -4.0732  -4.0491
    -3.9656  -3.9310  -3.8985  -3.8954  -3.8756  -3.8590  -3.8456  -3.8443
    -3.7718  -3.7676  -3.7317  -3.7015  -3.6929  -3.6398  -3.6303  -3.6137
    -3.5878  -3.5649  -3.5165  -3.5144  -3.4885  -3.4782  -3.4700  -3.4673
    -3.4373  -3.4251  -3.4216  -3.3720  -3.3703  -3.3449  -3.3189  -3.3088
    -3.2972  -3.2583  -3.2562  -3.2544  -3.2479  -3.2141  -3.2073  -3.1904
    -3.1880  -3.1469  -3.1297  -3.1127  -3.0936  -3.0890  -3.0723  -3.0601
    -3.0419  -3.0187  -2.9986  -2.9898  -2.9657  -2.9548  -2.9400  -2.9298
    -2.8590  -2.8380  -2.8357  -2.7940  -2.7807  -2.7671  -2.7492  -2.7483
    -2.7441  -2.7438  -2.6830  -2.6164  -2.6085  -2.6077  -2.5764  -2.5664
    -2.5371  -2.5276  -2.5229  -2.4967  -2.4748  -2.4023  -2.4023  -2.3905
    -2.3714  -2.3659  -2.3625  -2.3480  -2.3161  -2.2484  -2.1789  -2.1660
    -2.1515  -2.1354  -2.1335  -2.1017  -2.1004  -2.0965  -2.0861  -2.0339
    -2.0330  -2.0228  -1.9993  -1.9802  -1.9737  -1.9583  -1.9278  -1.8962

          k = 0.0000-0.5774 0.0000 (166636 PWs)   bands (ev):

   -20.5921 -20.5921 -20.2766 -20.2766 -20.1071 -20.1071 -19.9246 -19.9246
   -19.8290 -19.8290 -19.5700 -19.5700 -19.4318 -19.4318 -19.4072 -19.4072
   -19.1806 -19.1806 -19.0826 -19.0826 -18.9571 -18.9571 -18.9362 -18.9362
   -18.8978 -18.8978 -18.8204 -18.8204 -18.7932 -18.7932 -18.7706 -18.7706
   -18.7480 -18.7480 -18.6776 -18.6776 -18.5843 -18.5843 -18.5514 -18.5514
   -18.5358 -18.5358 -18.5320 -18.5320 -18.5143 -18.5143 -18.4987 -18.4987
   -18.4198 -18.4198 -18.4111 -18.4111 -18.3442 -18.3442 -18.3286 -18.3286
   -18.2187 -18.2187 -18.1873 -18.1873 -18.1512 -18.1512 -18.1335 -18.1335
   -18.1219 -18.1219 -18.1130 -18.1130 -18.0926 -18.0926 -18.0852 -18.0852
    -8.2307  -8.2307  -7.9360  -7.9360  -7.8748  -7.8748  -7.8187  -7.8187
    -7.7887  -7.7887  -7.7267  -7.7267  -7.6665  -7.6665  -7.5115  -7.5115
    -7.4363  -7.4363  -7.4213  -7.4213  -7.3916  -7.3916  -7.3102  -7.3102
    -7.2054  -7.2054  -7.1828  -7.1828  -7.0738  -7.0738  -7.0663  -7.0663
    -6.8750  -6.8750  -6.8430  -6.8430  -6.6834  -6.6834  -6.6785  -6.6785
    -6.3901  -6.3901  -6.3684  -6.3684  -6.3362  -6.3362  -6.3051  -6.3051
    -6.2399  -6.2399  -6.2285  -6.2285  -6.0285  -6.0285  -5.9799  -5.9799
    -5.8860  -5.8860  -5.8097  -5.8097  -5.7971  -5.7971  -5.7879  -5.7879
    -5.7059  -5.7059  -5.4965  -5.4965  -5.3305  -5.3305  -5.3064  -5.3064
    -5.1957  -5.1957  -5.1624  -5.1624  -5.1034  -5.1034  -4.9952  -4.9952
    -4.9445  -4.9445  -4.8697  -4.8697  -4.7853  -4.7853  -4.7807  -4.7807
    -4.6748  -4.6748  -4.5981  -4.5981  -4.5730  -4.5730  -4.4352  -4.4352
    -4.3758  -4.3758  -4.3424  -4.3424  -4.3149  -4.3149  -4.1621  -4.1621
    -4.1556  -4.1556  -4.1038  -4.1038  -4.0887  -4.0887  -4.0240  -4.0240
    -3.9476  -3.9476  -3.9294  -3.9294  -3.9251  -3.9251  -3.8849  -3.8849
    -3.7983  -3.7983  -3.7421  -3.7421  -3.6836  -3.6836  -3.6749  -3.6749
    -3.6335  -3.6335  -3.6250  -3.6250  -3.5315  -3.5315  -3.4916  -3.4916
    -3.4542  -3.4542  -3.3905  -3.3905  -3.3661  -3.3661  -3.3112  -3.3112
    -3.3106  -3.3106  -3.2649  -3.2649  -3.2606  -3.2606  -3.2252  -3.2252
    -3.1638  -3.1638  -3.1459  -3.1459  -3.0951  -3.0951  -3.0746  -3.0746
    -3.0329  -3.0329  -2.9763  -2.9763  -2.9092  -2.9092  -2.8896  -2.8896
    -2.8852  -2.8852  -2.8266  -2.8266  -2.7610  -2.7610  -2.7431  -2.7431
    -2.7345  -2.7345  -2.6830  -2.6830  -2.6354  -2.6354  -2.5801  -2.5801
    -2.5556  -2.5556  -2.4762  -2.4762  -2.4668  -2.4668  -2.3797  -2.3797
    -2.3438  -2.3438  -2.3173  -2.3173  -2.3092  -2.3092  -2.2766  -2.2766
    -2.1901  -2.1901  -2.1254  -2.1254  -2.1190  -2.1190  -2.0219  -2.0219
    -2.0091  -2.0091  -2.0037  -2.0037  -1.9691  -1.9691  -1.9504  -1.9504

          k = 0.2500 0.4330 0.0000 (166642 PWs)   bands (ev):

   -20.6582 -20.4008 -20.4008 -20.3394 -20.0961 -20.0960 -19.9802 -19.7926
   -19.7691 -19.7687 -19.7321 -19.5583 -19.4888 -19.4681 -19.3614 -19.3598
   -19.2318 -19.1552 -19.0609 -19.0548 -19.0385 -18.9634 -18.9508 -18.9460
   -18.8936 -18.8599 -18.8327 -18.8221 -18.8155 -18.7423 -18.7399 -18.7241
   -18.7238 -18.6933 -18.6696 -18.6618 -18.6511 -18.6411 -18.6317 -18.5581
   -18.5441 -18.5432 -18.5386 -18.5274 -18.5037 -18.4900 -18.4676 -18.4539
   -18.4430 -18.4374 -18.3973 -18.3904 -18.3873 -18.3461 -18.3414 -18.2925
   -18.2491 -18.2214 -18.1773 -18.1740 -18.1717 -18.1454 -18.1351 -18.1282
   -18.1223 -18.1143 -18.1092 -18.1032 -18.0960 -18.0914 -18.0906 -18.0868
    -8.2358  -8.1289  -8.1146  -7.9560  -7.8940  -7.8807  -7.8524  -7.8221
    -7.7637  -7.7611  -7.6769  -7.6611  -7.6165  -7.5781  -7.5515  -7.5362
    -7.4788  -7.4619  -7.4543  -7.4386  -7.3755  -7.3673  -7.3495  -7.2693
    -7.2688  -7.2358  -7.1743  -7.1050  -7.0880  -7.0842  -7.0283  -6.9079
    -6.8947  -6.8773  -6.8596  -6.8313  -6.7648  -6.6975  -6.6784  -6.6325
    -6.5113  -6.4240  -6.4158  -6.4003  -6.3665  -6.3486  -6.3070  -6.2823
    -6.2581  -6.1876  -6.1800  -6.1343  -6.0583  -6.0571  -6.0178  -5.9803
    -5.9004  -5.8876  -5.8417  -5.8104  -5.8057  -5.8000  -5.6968  -5.6499
    -5.5996  -5.5785  -5.5375  -5.5130  -5.4960  -5.4934  -5.3952  -5.3470
    -5.3028  -5.2701  -5.2068  -5.1530  -5.1037  -5.0293  -4.9997  -4.9403
    -4.9117  -4.8818  -4.8751  -4.8385  -4.7703  -4.7578  -4.7032  -4.6582
    -4.6546  -4.6374  -4.6190  -4.5720  -4.5119  -4.4783  -4.4738  -4.4167
    -4.4098  -4.3765  -4.3615  -4.3051  -4.2915  -4.2713  -4.2463  -4.2189
    -4.1371  -4.1131  -4.1110  -4.1001  -4.0655  -4.0468  -4.0330  -4.0225
    -3.9926  -3.9868  -3.9544  -3.9415  -3.9283  -3.9157  -3.8746  -3.8651
    -3.8472  -3.7754  -3.7528  -3.7470  -3.7406  -3.7155  -3.7045  -3.6951
    -3.6558  -3.6557  -3.6346  -3.5951  -3.5649  -3.5541  -3.5292  -3.4935
    -3.4753  -3.4544  -3.4309  -3.4264  -3.4007  -3.3919  -3.3418  -3.3389
    -3.3318  -3.3014  -3.2969  -3.2877  -3.2700  -3.2284  -3.1645  -3.1631
    -3.1518  -3.1186  -3.1146  -3.1031  -3.0895  -3.0721  -3.0702  -3.0308
    -3.0174  -3.0144  -2.9873  -2.9754  -2.9474  -2.9395  -2.9258  -2.8585
    -2.8541  -2.8436  -2.8407  -2.7768  -2.7737  -2.7643  -2.7470  -2.7364
    -2.7187  -2.7048  -2.6965  -2.6802  -2.6628  -2.6378  -2.6139  -2.5651
    -2.5438  -2.5280  -2.5192  -2.4994  -2.4614  -2.4231  -2.4173  -2.3770
    -2.3765  -2.3616  -2.3431  -2.3402  -2.3066  -2.2999  -2.2782  -2.2202
    -2.1998  -2.1764  -2.1637  -2.1610  -2.1295  -2.0748  -2.0441  -2.0200
    -2.0187  -2.0123  -2.0094  -1.9629  -1.9600  -1.9502  -1.9487  -1.9083

     highest occupied level (ev):    -1.8903

!    total energy              =   -4910.94240536 Ry
     total all-electron energy =    -34162.772175 Ry
     estimated scf accuracy    <          1.5E-10 Ry

     The total energy is the sum of the following terms:
     one-electron contribution =  -81682.50439420 Ry
     hartree contribution      =   41075.67497808 Ry
     xc contribution           =    -676.54473811 Ry
     ewald contribution        =   38720.41591147 Ry
     one-center paw contrib.   =   -2347.98416261 Ry

     convergence has been achieved in  10 iterations

     negative rho (up, down):  4.835E-03 0.000E+00

     Forces acting on atoms (cartesian axes, Ry/au):

     atom    1 type  1   force =     0.00000000   -0.00000000    0.00098307
     atom    2 type  1   force =    -0.00000000   -0.00000000    0.00053696
     atom    3 type  1   force =     0.00000000    0.00000000   -0.00103032
     atom    4 type  1   force =    -0.00000000    0.00000000    0.00012575
     atom    5 type  1   force =     0.00000000   -0.00000000    0.00194658
     atom    6 type  1   force =    -0.00000000   -0.00000000   -0.00049563
     atom    7 type  1   force =    -0.00000000   -0.00000000    0.00049563
     atom    8 type  1   force =     0.00000000    0.00000000   -0.00194658
     atom    9 type  1   force =     0.00000000    0.00000000   -0.00012575
     atom   10 type  1   force =     0.00000000   -0.00000000    0.00103032
     atom   11 type  1   force =    -0.00000000   -0.00000000   -0.00053696
     atom   12 type  1   force =    -0.00000000   -0.00000000   -0.00098307
     atom   13 type  2   force =     0.00001679   -0.00008128   -0.00048997
     atom   14 type  2   force =     0.00054236    0.00005318    0.00031968
     atom   15 type  2   force =    -0.00007878    0.00002610   -0.00048997
     atom   16 type  2   force =     0.00006199    0.00005518   -0.00048997
     atom   17 type  2   force =    -0.00022513   -0.00049628    0.00031968
     atom   18 type  2   force =    -0.00031723    0.00044311    0.00031968
     atom   19 type  2   force =    -0.00148209    0.00063379   -0.00066706
     atom   20 type  2   force =    -0.00128993   -0.00096663    0.00066706
     atom   21 type  2   force =     0.00128993    0.00096663   -0.00066706
     atom   22 type  2   force =     0.00019216   -0.00160042   -0.00066706
     atom   23 type  2   force =    -0.00019216    0.00160042    0.00066706
     atom   24 type  2   force =     0.00148209   -0.00063379    0.00066706
     atom   25 type  2   force =     0.00031723   -0.00044311   -0.00031968
     atom   26 type  2   force =     0.00007878   -0.00002610    0.00048997
     atom   27 type  2   force =    -0.00054236   -0.00005318   -0.00031968
     atom   28 type  2   force =     0.00022513    0.00049628   -0.00031968
     atom   29 type  2   force =    -0.00006199   -0.00005518    0.00048997
     atom   30 type  2   force =    -0.00001679    0.00008128    0.00048997
     atom   31 type  1   force =    -0.00000000    0.00000000    0.00098307
     atom   32 type  1   force =    -0.00000000   -0.00000000    0.00053696
     atom   33 type  1   force =     0.00000000    0.00000000   -0.00103032
     atom   34 type  1   force =     0.00000000   -0.00000000    0.00012575
     atom   35 type  1   force =    -0.00000000    0.00000000    0.00194658
     atom   36 type  1   force =    -0.00000000    0.00000000   -0.00049563
     atom   37 type  1   force =     0.00000000    0.00000000    0.00049563
     atom   38 type  1   force =     0.00000000   -0.00000000   -0.00194658
     atom   39 type  1   force =     0.00000000   -0.00000000   -0.00012575
     atom   40 type  1   force =    -0.00000000   -0.00000000    0.00103032
     atom   41 type  1   force =    -0.00000000    0.00000000   -0.00053696
     atom   42 type  1   force =     0.00000000   -0.00000000   -0.00098307
     atom   43 type  2   force =     0.00001679   -0.00008128   -0.00048997
     atom   44 type  2   force =     0.00054236    0.00005318    0.00031968
     atom   45 type  2   force =    -0.00007878    0.00002610   -0.00048997
     atom   46 type  2   force =     0.00006199    0.00005518   -0.00048997
     atom   47 type  2   force =    -0.00022513   -0.00049628    0.00031968
     atom   48 type  2   force =    -0.00031723    0.00044311    0.00031968
     atom   49 type  2   force =    -0.00148209    0.00063379   -0.00066706
     atom   50 type  2   force =    -0.00128993   -0.00096663    0.00066706
     atom   51 type  2   force =     0.00128993    0.00096663   -0.00066706
     atom   52 type  2   force =     0.00019216   -0.00160042   -0.00066706
     atom   53 type  2   force =    -0.00019216    0.00160042    0.00066706
     atom   54 type  2   force =     0.00148209   -0.00063380    0.00066706
     atom   55 type  2   force =     0.00031723   -0.00044311   -0.00031968
     atom   56 type  2   force =     0.00007878   -0.00002610    0.00048997
     atom   57 type  2   force =    -0.00054236   -0.00005318   -0.00031968
     atom   58 type  2   force =     0.00022513    0.00049628   -0.00031968
     atom   59 type  2   force =    -0.00006199   -0.00005518    0.00048997
     atom   60 type  2   force =    -0.00001679    0.00008128    0.00048997
     atom   61 type  1   force =     0.00000000    0.00000000    0.00098307
     atom   62 type  1   force =     0.00000000   -0.00000000    0.00053696
     atom   63 type  1   force =     0.00000000   -0.00000000   -0.00103032
     atom   64 type  1   force =     0.00000000    0.00000000    0.00012575
     atom   65 type  1   force =     0.00000000   -0.00000000    0.00194658
     atom   66 type  1   force =     0.00000000    0.00000000   -0.00049563
     atom   67 type  1   force =     0.00000000   -0.00000000    0.00049563
     atom   68 type  1   force =    -0.00000000    0.00000000   -0.00194658
     atom   69 type  1   force =    -0.00000000    0.00000000   -0.00012575
     atom   70 type  1   force =    -0.00000000    0.00000000    0.00103032
     atom   71 type  1   force =     0.00000000    0.00000000   -0.00053696
     atom   72 type  1   force =     0.00000000   -0.00000000   -0.00098307
     atom   73 type  2   force =     0.00001679   -0.00008128   -0.00048997
     atom   74 type  2   force =     0.00054236    0.00005318    0.00031968
     atom   75 type  2   force =    -0.00007878    0.00002610   -0.00048997
     atom   76 type  2   force =     0.00006199    0.00005518   -0.00048997
     atom   77 type  2   force =    -0.00022513   -0.00049628    0.00031968
     atom   78 type  2   force =    -0.00031723    0.00044311    0.00031968
     atom   79 type  2   force =    -0.00148209    0.00063380   -0.00066706
     atom   80 type  2   force =    -0.00128993   -0.00096663    0.00066706
     atom   81 type  2   force =     0.00128993    0.00096663   -0.00066706
     atom   82 type  2   force =     0.00019216   -0.00160042   -0.00066706
     atom   83 type  2   force =    -0.00019216    0.00160042    0.00066706
     atom   84 type  2   force =     0.00148209   -0.00063379    0.00066706
     atom   85 type  2   force =     0.00031723   -0.00044311   -0.00031968
     atom   86 type  2   force =     0.00007878   -0.00002610    0.00048997
     atom   87 type  2   force =    -0.00054236   -0.00005318   -0.00031968
     atom   88 type  2   force =     0.00022513    0.00049628   -0.00031968
     atom   89 type  2   force =    -0.00006199   -0.00005518    0.00048997
     atom   90 type  2   force =    -0.00001679    0.00008128    0.00048997
     atom   91 type  1   force =     0.00000000    0.00000000    0.00098307
     atom   92 type  1   force =     0.00000000    0.00000000    0.00053696
     atom   93 type  1   force =    -0.00000000   -0.00000000   -0.00103032
     atom   94 type  1   force =    -0.00000000   -0.00000000    0.00012575
     atom   95 type  1   force =    -0.00000000   -0.00000000    0.00194658
     atom   96 type  1   force =     0.00000000    0.00000000   -0.00049563
     atom   97 type  1   force =     0.00000000    0.00000000    0.00049563
     atom   98 type  1   force =     0.00000000    0.00000000   -0.00194658
     atom   99 type  1   force =     0.00000000   -0.00000000   -0.00012575
     atom  100 type  1   force =     0.00000000    0.00000000    0.00103032
     atom  101 type  1   force =     0.00000000    0.00000000   -0.00053696
     atom  102 type  1   force =    -0.00000000    0.00000000   -0.00098307
     atom  103 type  2   force =     0.00001679   -0.00008128   -0.00048997
     atom  104 type  2   force =     0.00054236    0.00005318    0.00031968
     atom  105 type  2   force =    -0.00007878    0.00002610   -0.00048997
     atom  106 type  2   force =     0.00006199    0.00005518   -0.00048997
     atom  107 type  2   force =    -0.00022513   -0.00049628    0.00031968
     atom  108 type  2   force =    -0.00031723    0.00044311    0.00031968
     atom  109 type  2   force =    -0.00148209    0.00063379   -0.00066706
     atom  110 type  2   force =    -0.00128993   -0.00096663    0.00066706
     atom  111 type  2   force =     0.00128993    0.00096663   -0.00066706
     atom  112 type  2   force =     0.00019216   -0.00160042   -0.00066706
     atom  113 type  2   force =    -0.00019216    0.00160042    0.00066706
     atom  114 type  2   force =     0.00148209   -0.00063379    0.00066706
     atom  115 type  2   force =     0.00031723   -0.00044311   -0.00031968
     atom  116 type  2   force =     0.00007878   -0.00002610    0.00048997
     atom  117 type  2   force =    -0.00054236   -0.00005318   -0.00031968
     atom  118 type  2   force =     0.00022513    0.00049628   -0.00031968
     atom  119 type  2   force =    -0.00006199   -0.00005518    0.00048997
     atom  120 type  2   force =    -0.00001679    0.00008128    0.00048997

     Total force =     0.011810     Total SCF correction =     0.000027


     Computing stress (Cartesian axis) and pressure


     negative rho (up, down):  4.835E-03 0.000E+00
          total   stress  (Ry/bohr**3)                   (kbar)     P=       14.04
   0.00015258   0.00000000   0.00000000           22.45        0.00        0.00
   0.00000000   0.00015258  -0.00000000            0.00       22.45       -0.00
   0.00000000  -0.00000000  -0.00001879            0.00       -0.00       -2.76

     Energy error            =      2.9E-04 Ry
     Gradient error          =      1.9E-03 Ry/Bohr

     number of scf cycles    =  16
     number of bfgs steps    =  15

     energy             old  =   -4910.9421170057 Ry
     energy             new  =   -4910.9424053605 Ry

     CASE: energy            _new < energy            _old

     new trust radius        =       0.0086857062 bohr
     new conv_thr            =       0.0000000002 Ry


ATOMIC_POSITIONS (angstrom)
Al               0.0000000004        2.7741837601       23.9957432337
Al               2.4025136105        1.3870918802       22.0817016316
Al               0.0000000000       -0.0000000000       21.6333752992
Al              -0.0000000002        2.7741837603       19.9364578350
Al               0.0000000000       -0.0000000000       15.0785691869
Al               0.0000000016        2.7741837614       14.0857102546
Al               2.4025136120        1.3870918793       25.2630494954
Al              -0.0000000000       -0.0000000000       24.2701905631
Al               2.4025136101        1.3870918804       19.4123019150
Al               0.0000000000        0.0000000000       17.7153844508
Al               0.0000000001        2.7741837606       17.2670581184
Al               2.4025136103        1.3870918797       15.3530165163
O                0.9307378204        1.3811860848       20.7687903285
O                1.6577757090        2.8644817343       22.9769143780
O                3.1332869666        2.6646400063       20.7687903275
O                3.1435160930        0.1154495195       20.7687903276
O                4.0543397040        1.2933588948       22.9769143785
O                1.4954254177        0.0034350113       22.9769143788
O               -1.5134121749        2.8389585393       25.1513312244
O                1.5897109495        0.1088258732       14.1974285261
O                0.8128026597        4.0524497542       25.1513312231
O                0.7006094674        1.4311430071       25.1513312239
O                1.7019041469        2.7301326319       14.1974285256
O                3.9159257852        1.3223171033       14.1974285269
O                3.3096018034       -0.0034350116       16.3718453720
O               -0.7307733561        1.4966356328       18.5799694215
O                0.7447379018        1.2967939065       16.3718453712
O                3.1532011256        2.8679167447       16.3718453716
O               -0.7410024825        4.0458261119       18.5799694225
O                1.4717757881        2.7800895555       18.5799694224
Al              -2.4025136101        6.9354593996       23.9957432337
Al               0.0000000000        5.5483675200       22.0817016330
Al              -2.4025136101        4.1612756400       21.6333752976
Al              -2.4025136096        6.9354594001       19.9364578350
Al              -2.4025136102        4.1612756394       15.0785691886
Al              -2.4025136096        6.9354593979       14.0857102546
Al               0.0000000000        5.5483675200       25.2630494963
Al              -2.4025136098        4.1612756406       24.2701905614
Al               0.0000000000        5.5483675200       19.4123019163
Al              -2.4025136099        4.1612756400       17.7153844524
Al              -2.4025136096        6.9354593996       17.2670581184
Al               0.0000000000        5.5483675200       15.3530165159
O               -1.4717757900        5.5424617251       20.7687903289
O               -0.7447379020        7.0257573737       22.9769143784
O                0.7307733566        6.8259156373       20.7687903289
O                0.7410024834        4.2767251576       20.7687903289
O                1.6518260944        5.4546345353       22.9769143784
O               -0.9070881924        4.1647106510       22.9769143784
O               -3.9159257879        7.0002341760       25.1513312239
O               -0.8128026621        4.2701015161       14.1974285263
O               -1.5897109482        8.2137253926       25.1513312244
O               -1.7019041445        5.5924186491       25.1513312231
O               -0.7006094640        6.8914082628       14.1974285263
O                1.5134121761        5.4835927411       14.1974285263
O                0.9070881926        4.1578406284       16.3718453715
O               -3.1332869651        5.6579112741       18.5799694224
O               -1.6577757086        5.4580695464       16.3718453715
O                0.7506875160        7.0291923852       16.3718453715
O               -3.1435160935        8.2071017519       18.5799694215
O               -0.9307378209        6.9413651944       18.5799694225
Al               4.8050272200        2.7741837600       23.9957432341
Al               7.2075408296        1.3870918804       22.0817016316
Al               4.8050272200        0.0000000001       21.6333752976
Al               4.8050272200        2.7741837600       19.9364578337
Al               4.8050272196        0.0000000005       15.0785691886
Al               4.8050272200        2.7741837600       14.0857102537
Al               7.2075408296        1.3870918821       25.2630494954
Al               4.8050272204       -0.0000000005       24.2701905614
Al               7.2075408296        1.3870918799       19.4123019150
Al               4.8050272200       -0.0000000001       17.7153844524
Al               4.8050272200        2.7741837600       17.2670581170
Al               7.2075408301        1.3870918804       15.3530165163
O                5.7357650409        1.3811860856       20.7687903275
O                6.4628029286        2.8644817336       22.9769143785
O                7.9383141851        2.6646400059       20.7687903276
O                7.9485433135        0.1154495181       20.7687903285
O                8.8593669241        1.2933588952       22.9769143788
O                6.3004526366        0.0034350116       22.9769143780
O                3.2916150439        2.8389585389       25.1513312237
O                6.3947381682        0.1088258774       14.1974285256
O                5.6178298821        4.0524497539       25.1513312237
O                5.5056366840        1.4311430072       25.1513312237
O                6.5069313645        2.7301326309       14.1974285269
O                8.7209530079        1.3223171040       14.1974285261
O                8.1146290223       -0.0034350113       16.3718453712
O                4.0742538634        1.4966356327       18.5799694211
O                5.5497651220        1.2967939063       16.3718453716
O                7.9582283456        2.8679167459       16.3718453720
O                4.0640247366        4.0458261124       18.5799694211
O                6.2768030100        2.7800895549       18.5799694211
Al               2.4025136097        6.9354594003       23.9957432337
Al               4.8050272199        5.5483675194       22.0817016316
Al               2.4025136101        4.1612756399       21.6333752976
Al               2.4025136099        6.9354593996       19.9364578350
Al               2.4025136107        4.1612756401       15.0785691886
Al               2.4025136080        6.9354594007       14.0857102546
Al               4.8050272184        5.5483675186       25.2630494954
Al               2.4025136093        4.1612756399       24.2701905614
Al               4.8050272202        5.5483675197       19.4123019150
Al               2.4025136099        4.1612756401       17.7153844524
Al               2.4025136095        6.9354593998       17.2670581184
Al               4.8050272196        5.5483675199       15.3530165163
O                3.3332514319        5.5424617245       20.7687903276
O                4.0602893182        7.0257573735       22.9769143788
O                5.5358005761        6.8259156372       20.7687903285
O                5.5460297025        4.2767251581       20.7687903275
O                6.4568533144        5.4546345341       22.9769143780
O                3.8979390274        4.1647106516       22.9769143785
O                0.8891014348        7.0002341767       25.1513312231
O                3.9922245603        4.2701015158       14.1974285269
O                3.2153162705        8.2137253968       25.1513312239
O                3.1031230731        5.5924186481       25.1513312244
O                4.1044177526        6.8914082629       14.1974285261
O                6.3184393949        5.4835927407       14.1974285256
O                5.7121154124        4.1578406290       16.3718453716
O                1.6717402534        5.6579112737       18.5799694225
O                3.1472515110        5.4580695457       16.3718453720
O                5.5557147359        7.0291923848       16.3718453712
O                1.6615111270        8.2071017505       18.5799694224
O                3.8742893996        6.9413651952       18.5799694215



     Writing config-only to output data dir ./tmp/al2o3.save/ :
     XML data file
     NEW-OLD atomic charge density approx. for the potential

     negative rho (up, down):  4.826E-03 0.000E+00

     total cpu time spent up to now is    26011.0 secs

     Self-consistent Calculation

     iteration #  1     ecut=    60.00 Ry     beta= 0.30
     Davidson diagonalization with overlap
     ethr =  1.00E-06,  avg # of iterations =  3.0

     Threshold (ethr) on eigenvalues was too large:
     Diagonalizing with lowered threshold

     Davidson diagonalization with overlap
     ethr =  1.41E-08,  avg # of iterations =  5.0

     negative rho (up, down):  4.831E-03 0.000E+00

     total cpu time spent up to now is    26242.1 secs

     total energy              =   -4910.94262365 Ry
     estimated scf accuracy    <       0.00013493 Ry

     iteration #  2     ecut=    60.00 Ry     beta= 0.30
     Davidson diagonalization with overlap
     ethr =  2.34E-08,  avg # of iterations =  2.0

     negative rho (up, down):  4.835E-03 0.000E+00

     total cpu time spent up to now is    26316.2 secs

     total energy              =   -4910.94262491 Ry
     estimated scf accuracy    <       0.00003029 Ry

     iteration #  3     ecut=    60.00 Ry     beta= 0.30
     Davidson diagonalization with overlap
     ethr =  5.26E-09,  avg # of iterations =  2.0

     negative rho (up, down):  4.838E-03 0.000E+00

     total cpu time spent up to now is    26402.9 secs

     total energy              =   -4910.94262825 Ry
     estimated scf accuracy    <       0.00000497 Ry

     iteration #  4     ecut=    60.00 Ry     beta= 0.30
     Davidson diagonalization with overlap
     ethr =  8.63E-10,  avg # of iterations =  3.2

     negative rho (up, down):  4.839E-03 0.000E+00

     total cpu time spent up to now is    26487.5 secs

     total energy              =   -4910.94262901 Ry
     estimated scf accuracy    <       0.00000063 Ry

     iteration #  5     ecut=    60.00 Ry     beta= 0.30
     Davidson diagonalization with overlap
     ethr =  1.10E-10,  avg # of iterations =  2.8

     negative rho (up, down):  4.839E-03 0.000E+00

     total cpu time spent up to now is    26564.6 secs

     total energy              =   -4910.94262910 Ry
     estimated scf accuracy    <       0.00000018 Ry

     iteration #  6     ecut=    60.00 Ry     beta= 0.30
     Davidson diagonalization with overlap
     ethr =  3.15E-11,  avg # of iterations =  4.2

     negative rho (up, down):  4.840E-03 0.000E+00

     total cpu time spent up to now is    26659.6 secs

     total energy              =   -4910.94262910 Ry
     estimated scf accuracy    <       0.00000006 Ry

     iteration #  7     ecut=    60.00 Ry     beta= 0.30
     Davidson diagonalization with overlap
     ethr =  1.10E-11,  avg # of iterations =  5.5

     negative rho (up, down):  4.840E-03 0.000E+00

     total cpu time spent up to now is    26780.1 secs

     total energy              =   -4910.94262908 Ry
     estimated scf accuracy    <       0.00000030 Ry

     iteration #  8     ecut=    60.00 Ry     beta= 0.30
     Davidson diagonalization with overlap
     ethr =  1.10E-11,  avg # of iterations =  4.5

     negative rho (up, down):  4.840E-03 0.000E+00

     total cpu time spent up to now is    26890.1 secs

     total energy              =   -4910.94262912 Ry
     estimated scf accuracy    <          3.2E-09 Ry

     iteration #  9     ecut=    60.00 Ry     beta= 0.30
     Davidson diagonalization with overlap
     ethr =  5.56E-13,  avg # of iterations =  6.0

     negative rho (up, down):  4.840E-03 0.000E+00

     total cpu time spent up to now is    27031.5 secs

     total energy              =   -4910.94262912 Ry
     estimated scf accuracy    <          4.4E-09 Ry

     iteration # 10     ecut=    60.00 Ry     beta= 0.30
     Davidson diagonalization with overlap
     ethr =  5.56E-13,  avg # of iterations =  2.5

     negative rho (up, down):  4.840E-03 0.000E+00

     total cpu time spent up to now is    27110.7 secs

     total energy              =   -4910.94262913 Ry
     estimated scf accuracy    <          7.3E-10 Ry

     iteration # 11     ecut=    60.00 Ry     beta= 0.30
     Davidson diagonalization with overlap
     ethr =  1.27E-13,  avg # of iterations =  4.5

     negative rho (up, down):  4.840E-03 0.000E+00

     total cpu time spent up to now is    27208.0 secs

     End of self-consistent calculation

          k = 0.0000 0.0000 0.0000 (166875 PWs)   bands (ev):

   -20.8550 -20.5232 -20.1481 -19.9377 -19.9377 -19.9377 -19.8646 -19.8646
   -19.8646 -19.6650 -19.6650 -19.6650 -19.5930 -19.4771 -19.4771 -19.4771
   -19.2225 -19.2225 -19.2225 -19.2176 -19.2176 -19.2176 -18.9610 -18.8975
   -18.8975 -18.8975 -18.8149 -18.8149 -18.8149 -18.7785 -18.7785 -18.7785
   -18.7470 -18.6163 -18.6163 -18.6163 -18.5111 -18.5111 -18.5111 -18.4861
   -18.4861 -18.4768 -18.4768 -18.4768 -18.3745 -18.3745 -18.3745 -18.3661
   -18.3661 -18.3261 -18.3261 -18.3261 -18.3089 -18.3089 -18.3089 -18.2669
   -18.2669 -18.2523 -18.2523 -18.2185 -18.2185 -18.2185 -18.1368 -18.1368
   -18.1368 -18.1190 -18.1190 -18.1079 -18.1078 -18.1018 -18.1018 -18.1018
    -8.3841  -8.2117  -8.2117  -8.2117  -8.1183  -8.1183  -8.1183  -7.8405
    -7.8405  -7.8405  -7.7606  -7.6681  -7.6681  -7.6681  -7.5296  -7.4916
    -7.3972  -7.3972  -7.3972  -7.2233  -7.2233  -7.2137  -7.2137  -7.2137
    -7.1000  -7.0204  -7.0204  -7.0204  -6.9006  -6.9006  -6.9006  -6.8549
    -6.8549  -6.7197  -6.6392  -6.6392  -6.6392  -6.6343  -6.6343  -6.6343
    -6.5140  -6.5140  -6.5140  -6.4982  -6.3495  -6.3495  -6.0292  -5.9656
    -5.9656  -5.9331  -5.9331  -5.9331  -5.8176  -5.8176  -5.8176  -5.7973
    -5.7973  -5.7499  -5.7499  -5.7499  -5.6753  -5.6753  -5.6318  -5.6318
    -5.6318  -5.6318  -5.5395  -5.5395  -5.5395  -5.5181  -5.5181  -5.5181
    -5.3860  -5.3860  -5.3860  -5.3789  -5.2905  -5.2905  -5.2905  -5.2670
    -5.1678  -5.1678  -5.1678  -5.0184  -5.0184  -5.0184  -5.0060  -4.8368
    -4.8368  -4.8368  -4.7738  -4.6608  -4.6608  -4.6608  -4.5546  -4.4356
    -4.3852  -4.3852  -4.3852  -4.2539  -4.2539  -4.2539  -4.1826  -4.1826
    -4.1826  -4.0648  -4.0648  -4.0648  -4.0630  -4.0630  -4.0630  -4.0362
    -4.0362  -4.0362  -4.0280  -4.0280  -3.9508  -3.9508  -3.7857  -3.7690
    -3.7690  -3.7690  -3.7274  -3.7274  -3.7274  -3.5578  -3.5578  -3.5578
    -3.4996  -3.4996  -3.4996  -3.4543  -3.4543  -3.4543  -3.3684  -3.3684
    -3.3366  -3.3366  -3.3167  -3.3167  -3.3167  -3.2969  -3.2969  -3.2969
    -3.2793  -3.2793  -3.2793  -3.2200  -3.2200  -3.2200  -3.1882  -3.1882
    -3.1882  -3.0726  -3.0726  -3.0726  -3.0014  -3.0014  -3.0014  -2.9815
    -2.9815  -2.9815  -2.9677  -2.9677  -2.9659  -2.9659  -2.9659  -2.9476
    -2.9476  -2.9476  -2.9414  -2.9414  -2.8700  -2.8700  -2.8700  -2.8132
    -2.7643  -2.7643  -2.7643  -2.5754  -2.5754  -2.5754  -2.5571  -2.5571
    -2.5571  -2.4578  -2.4578  -2.4444  -2.4444  -2.4444  -2.3799  -2.3799
    -2.3552  -2.3552  -2.3552  -2.2354  -2.2354  -2.1879  -2.1289  -2.1289
    -2.1289  -2.1035  -2.1035  -2.0901  -2.0901  -2.0901  -2.0178  -2.0178
    -2.0178  -1.9587  -1.9587  -1.9587  -1.8927  -1.8927  -1.8772  -1.8772

          k = 0.0000 0.2887 0.0000 (166721 PWs)   bands (ev):

   -20.7856 -20.4565 -20.2720 -20.0876 -20.0478 -20.0477 -19.9740 -19.7946
   -19.7926 -19.6816 -19.6391 -19.6330 -19.5454 -19.4452 -19.4391 -19.4207
   -19.2251 -19.2152 -19.1082 -19.1064 -19.0883 -19.0735 -18.9661 -18.9571
   -18.9262 -18.8943 -18.8656 -18.8432 -18.7575 -18.7390 -18.7280 -18.7135
   -18.6911 -18.6666 -18.6379 -18.5982 -18.5941 -18.5910 -18.5811 -18.5574
   -18.5551 -18.4929 -18.4805 -18.4795 -18.4399 -18.4144 -18.4130 -18.4129
   -18.4051 -18.3616 -18.3533 -18.3288 -18.3202 -18.3195 -18.2991 -18.2780
   -18.2734 -18.2671 -18.2241 -18.1870 -18.1707 -18.1534 -18.1427 -18.1338
   -18.1126 -18.1116 -18.0972 -18.0963 -18.0940 -18.0932 -18.0927 -18.0824
    -8.3296  -8.2131  -8.1097  -8.0912  -8.0180  -7.9935  -7.9705  -7.8662
    -7.7956  -7.7144  -7.7070  -7.6618  -7.5942  -7.5886  -7.5883  -7.5675
    -7.5428  -7.5273  -7.4586  -7.4011  -7.2209  -7.2149  -7.1891  -7.1824
    -7.1490  -7.1363  -7.1361  -7.0387  -7.0092  -6.9249  -6.8975  -6.8292
    -6.8184  -6.7870  -6.7604  -6.7428  -6.7161  -6.6792  -6.6445  -6.5565
    -6.5358  -6.5271  -6.5173  -6.5158  -6.3242  -6.2336  -6.1410  -6.1352
    -6.1309  -6.0642  -6.0385  -6.0183  -6.0062  -5.9224  -5.9007  -5.8991
    -5.8984  -5.8408  -5.8243  -5.8191  -5.7982  -5.7024  -5.6829  -5.6788
    -5.6435  -5.6107  -5.6091  -5.5439  -5.5437  -5.4988  -5.4650  -5.4512
    -5.2937  -5.2302  -5.1546  -5.1412  -5.0811  -5.0807  -5.0600  -5.0526
    -5.0486  -5.0156  -4.9910  -4.9714  -4.9520  -4.8828  -4.8666  -4.7612
    -4.7268  -4.6543  -4.6363  -4.6345  -4.5891  -4.5129  -4.4966  -4.4664
    -4.4375  -4.4131  -4.3956  -4.3809  -4.2927  -4.2915  -4.2737  -4.2508
    -4.2431  -4.2067  -4.1768  -4.1698  -4.1172  -4.0668  -4.0636  -4.0398
    -3.9563  -3.9193  -3.8885  -3.8843  -3.8652  -3.8468  -3.8364  -3.8360
    -3.7624  -3.7588  -3.7237  -3.6915  -3.6814  -3.6298  -3.6205  -3.6035
    -3.5769  -3.5517  -3.5056  -3.5043  -3.4786  -3.4676  -3.4592  -3.4541
    -3.4278  -3.4125  -3.4106  -3.3608  -3.3599  -3.3340  -3.3082  -3.2987
    -3.2855  -3.2464  -3.2457  -3.2440  -3.2361  -3.2023  -3.1974  -3.1797
    -3.1770  -3.1370  -3.1177  -3.1018  -3.0853  -3.0786  -3.0610  -3.0497
    -3.0331  -3.0087  -2.9862  -2.9806  -2.9529  -2.9448  -2.9286  -2.9177
    -2.8477  -2.8266  -2.8239  -2.7815  -2.7687  -2.7548  -2.7364  -2.7363
    -2.7335  -2.7321  -2.6720  -2.6066  -2.5985  -2.5959  -2.5642  -2.5560
    -2.5263  -2.5159  -2.5110  -2.4857  -2.4625  -2.3900  -2.3897  -2.3784
    -2.3599  -2.3540  -2.3507  -2.3358  -2.3060  -2.2360  -2.1680  -2.1562
    -2.1399  -2.1235  -2.1217  -2.0896  -2.0883  -2.0838  -2.0738  -2.0219
    -2.0209  -2.0106  -1.9871  -1.9678  -1.9615  -1.9458  -1.9147  -1.8834

          k = 0.0000-0.5774 0.0000 (166636 PWs)   bands (ev):

   -20.5840 -20.5840 -20.2639 -20.2639 -20.0991 -20.0991 -19.9153 -19.9153
   -19.8166 -19.8166 -19.5599 -19.5599 -19.4221 -19.4221 -19.3990 -19.3990
   -19.1709 -19.1709 -19.0706 -19.0706 -18.9472 -18.9472 -18.9253 -18.9253
   -18.8872 -18.8872 -18.8091 -18.8091 -18.7842 -18.7842 -18.7605 -18.7605
   -18.7370 -18.7370 -18.6690 -18.6690 -18.5730 -18.5730 -18.5413 -18.5413
   -18.5248 -18.5248 -18.5226 -18.5226 -18.5028 -18.5028 -18.4876 -18.4876
   -18.4094 -18.4094 -18.4022 -18.4022 -18.3326 -18.3326 -18.3197 -18.3197
   -18.2066 -18.2066 -18.1748 -18.1748 -18.1387 -18.1387 -18.1215 -18.1215
   -18.1094 -18.1094 -18.1005 -18.1005 -18.0803 -18.0803 -18.0729 -18.0729
    -8.2201  -8.2201  -7.9273  -7.9273  -7.8651  -7.8651  -7.8096  -7.8096
    -7.7784  -7.7784  -7.7167  -7.7167  -7.6548  -7.6548  -7.5013  -7.5013
    -7.4261  -7.4261  -7.4103  -7.4103  -7.3799  -7.3799  -7.2985  -7.2985
    -7.1945  -7.1945  -7.1728  -7.1728  -7.0635  -7.0635  -7.0563  -7.0563
    -6.8660  -6.8660  -6.8326  -6.8326  -6.6729  -6.6729  -6.6676  -6.6676
    -6.3800  -6.3800  -6.3585  -6.3585  -6.3262  -6.3262  -6.2957  -6.2957
    -6.2302  -6.2302  -6.2163  -6.2163  -6.0156  -6.0156  -5.9692  -5.9692
    -5.8756  -5.8756  -5.7984  -5.7984  -5.7856  -5.7856  -5.7762  -5.7762
    -5.6932  -5.6932  -5.4856  -5.4856  -5.3198  -5.3198  -5.2957  -5.2957
    -5.1862  -5.1862  -5.1521  -5.1521  -5.0922  -5.0922  -4.9851  -4.9851
    -4.9338  -4.9338  -4.8586  -4.8586  -4.7757  -4.7757  -4.7710  -4.7710
    -4.6642  -4.6642  -4.5876  -4.5876  -4.5622  -4.5622  -4.4245  -4.4245
    -4.3641  -4.3641  -4.3309  -4.3309  -4.3057  -4.3057  -4.1532  -4.1532
    -4.1447  -4.1447  -4.0936  -4.0936  -4.0791  -4.0791  -4.0144  -4.0144
    -3.9362  -3.9362  -3.9178  -3.9178  -3.9144  -3.9144  -3.8757  -3.8757
    -3.7846  -3.7846  -3.7331  -3.7331  -3.6743  -3.6743  -3.6656  -3.6656
    -3.6231  -3.6231  -3.6163  -3.6163  -3.5206  -3.5206  -3.4808  -3.4808
    -3.4423  -3.4423  -3.3808  -3.3808  -3.3549  -3.3549  -3.3010  -3.3010
    -3.3000  -3.3000  -3.2549  -3.2549  -3.2484  -3.2484  -3.2136  -3.2136
    -3.1528  -3.1528  -3.1357  -3.1357  -3.0854  -3.0854  -3.0636  -3.0636
    -3.0210  -3.0210  -2.9635  -2.9635  -2.8981  -2.8981  -2.8769  -2.8769
    -2.8745  -2.8745  -2.8146  -2.8146  -2.7494  -2.7494  -2.7328  -2.7328
    -2.7224  -2.7224  -2.6723  -2.6723  -2.6229  -2.6229  -2.5692  -2.5692
    -2.5436  -2.5436  -2.4664  -2.4664  -2.4561  -2.4561  -2.3676  -2.3676
    -2.3316  -2.3316  -2.3057  -2.3057  -2.2987  -2.2987  -2.2639  -2.2639
    -2.1791  -2.1791  -2.1133  -2.1133  -2.1072  -2.1072  -2.0096  -2.0096
    -1.9969  -1.9969  -1.9909  -1.9909  -1.9567  -1.9567  -1.9379  -1.9379

          k = 0.2500 0.4330 0.0000 (166642 PWs)   bands (ev):

   -20.6500 -20.3927 -20.3927 -20.3268 -20.0835 -20.0834 -19.9710 -19.7854
   -19.7596 -19.7592 -19.7228 -19.5457 -19.4787 -19.4582 -19.3524 -19.3508
   -19.2205 -19.1440 -19.0512 -19.0448 -19.0305 -18.9526 -18.9395 -18.9348
   -18.8820 -18.8495 -18.8225 -18.8125 -18.8059 -18.7325 -18.7304 -18.7145
   -18.7141 -18.6844 -18.6581 -18.6504 -18.6402 -18.6301 -18.6200 -18.5486
   -18.5329 -18.5327 -18.5279 -18.5154 -18.4936 -18.4800 -18.4573 -18.4431
   -18.4323 -18.4270 -18.3861 -18.3814 -18.3782 -18.3373 -18.3326 -18.2800
   -18.2380 -18.2091 -18.1650 -18.1613 -18.1594 -18.1331 -18.1225 -18.1158
   -18.1099 -18.1018 -18.0972 -18.0910 -18.0836 -18.0791 -18.0782 -18.0744
    -8.2245  -8.1195  -8.1043  -7.9478  -7.8846  -7.8715  -7.8433  -7.8138
    -7.7527  -7.7503  -7.6653  -7.6509  -7.6041  -7.5678  -7.5406  -7.5252
    -7.4683  -7.4511  -7.4447  -7.4278  -7.3653  -7.3566  -7.3381  -7.2590
    -7.2581  -7.2247  -7.1627  -7.0954  -7.0785  -7.0743  -7.0174  -6.8973
    -6.8848  -6.8679  -6.8487  -6.8209  -6.7535  -6.6876  -6.6677  -6.6220
    -6.5021  -6.4146  -6.4057  -6.3892  -6.3578  -6.3392  -6.2960  -6.2729
    -6.2484  -6.1760  -6.1685  -6.1218  -6.0471  -6.0467  -6.0057  -5.9673
    -5.8881  -5.8756  -5.8299  -5.8005  -5.7951  -5.7886  -5.6869  -5.6387
    -5.5875  -5.5673  -5.5265  -5.5016  -5.4857  -5.4822  -5.3843  -5.3363
    -5.2938  -5.2591  -5.1958  -5.1418  -5.0933  -5.0192  -4.9885  -4.9286
    -4.9012  -4.8716  -4.8646  -4.8293  -4.7598  -4.7469  -4.6928  -4.6489
    -4.6430  -4.6274  -4.6085  -4.5603  -4.5032  -4.4687  -4.4620  -4.4074
    -4.3985  -4.3682  -4.3506  -4.2961  -4.2808  -4.2594  -4.2367  -4.2097
    -4.1275  -4.1035  -4.1006  -4.0900  -4.0542  -4.0342  -4.0194  -4.0129
    -3.9816  -3.9786  -3.9431  -3.9311  -3.9164  -3.9066  -3.8655  -3.8541
    -3.8376  -3.7651  -3.7436  -3.7350  -3.7305  -3.7058  -3.6947  -3.6836
    -3.6472  -3.6438  -3.6230  -3.5880  -3.5546  -3.5420  -3.5168  -3.4843
    -3.4655  -3.4446  -3.4179  -3.4164  -3.3900  -3.3812  -3.3296  -3.3273
    -3.3218  -3.2886  -3.2864  -3.2761  -3.2585  -3.2178  -3.1549  -3.1520
    -3.1410  -3.1092  -3.1026  -3.0919  -3.0777  -3.0624  -3.0592  -3.0202
    -3.0072  -3.0049  -2.9758  -2.9643  -2.9362  -2.9282  -2.9140  -2.8467
    -2.8431  -2.8329  -2.8307  -2.7648  -2.7614  -2.7522  -2.7360  -2.7247
    -2.7064  -2.6927  -2.6835  -2.6676  -2.6516  -2.6257  -2.6010  -2.5553
    -2.5341  -2.5175  -2.5065  -2.4887  -2.4506  -2.4122  -2.4079  -2.3654
    -2.3637  -2.3494  -2.3306  -2.3272  -2.2954  -2.2885  -2.2656  -2.2094
    -2.1891  -2.1646  -2.1519  -2.1497  -2.1179  -2.0625  -2.0319  -2.0076
    -2.0064  -2.0000  -1.9970  -1.9505  -1.9476  -1.9376  -1.9360  -1.8956

     highest occupied level (ev):    -1.8772

!    total energy              =   -4910.94262912 Ry
     total all-electron energy =    -34162.772398 Ry
     estimated scf accuracy    <          5.2E-11 Ry

     The total energy is the sum of the following terms:
     one-electron contribution =  -81713.50368875 Ry
     hartree contribution      =   41091.41681190 Ry
     xc contribution           =    -676.56535419 Ry
     ewald contribution        =   38735.69415469 Ry
     one-center paw contrib.   =   -2347.98455278 Ry

     convergence has been achieved in  11 iterations

     negative rho (up, down):  4.840E-03 0.000E+00

     Forces acting on atoms (cartesian axes, Ry/au):

     atom    1 type  1   force =    -0.00000000    0.00000000    0.00010546
     atom    2 type  1   force =    -0.00000000    0.00000000    0.00061888
     atom    3 type  1   force =     0.00000000    0.00000000   -0.00018385
     atom    4 type  1   force =     0.00000000    0.00000000    0.00013743
     atom    5 type  1   force =     0.00000000   -0.00000000    0.00116485
     atom    6 type  1   force =    -0.00000000    0.00000000    0.00002050
     atom    7 type  1   force =     0.00000000    0.00000000   -0.00002050
     atom    8 type  1   force =     0.00000000    0.00000000   -0.00116485
     atom    9 type  1   force =     0.00000000    0.00000000   -0.00013743
     atom   10 type  1   force =     0.00000000    0.00000000    0.00018385
     atom   11 type  1   force =    -0.00000000    0.00000000   -0.00061888
     atom   12 type  1   force =     0.00000000    0.00000000   -0.00010546
     atom   13 type  2   force =     0.00000340    0.00011049    0.00011028
     atom   14 type  2   force =     0.00048624    0.00018012    0.00017516
     atom   15 type  2   force =     0.00009399   -0.00005818    0.00011028
     atom   16 type  2   force =    -0.00009738   -0.00005230    0.00011028
     atom   17 type  2   force =    -0.00008713   -0.00051115    0.00017516
     atom   18 type  2   force =    -0.00039910    0.00033104    0.00017516
     atom   19 type  2   force =    -0.00135039    0.00097435   -0.00036710
     atom   20 type  2   force =    -0.00151900   -0.00068229    0.00036710
     atom   21 type  2   force =     0.00151900    0.00068229   -0.00036710
     atom   22 type  2   force =    -0.00016862   -0.00165664   -0.00036710
     atom   23 type  2   force =     0.00016862    0.00165664    0.00036710
     atom   24 type  2   force =     0.00135039   -0.00097435    0.00036710
     atom   25 type  2   force =     0.00039910   -0.00033104   -0.00017516
     atom   26 type  2   force =    -0.00009399    0.00005818   -0.00011028
     atom   27 type  2   force =    -0.00048624   -0.00018012   -0.00017516
     atom   28 type  2   force =     0.00008713    0.00051115   -0.00017516
     atom   29 type  2   force =     0.00009738    0.00005230   -0.00011028
     atom   30 type  2   force =    -0.00000340   -0.00011049   -0.00011028
     atom   31 type  1   force =     0.00000000    0.00000000    0.00010546
     atom   32 type  1   force =     0.00000000    0.00000000    0.00061888
     atom   33 type  1   force =     0.00000000    0.00000000   -0.00018385
     atom   34 type  1   force =     0.00000000   -0.00000000    0.00013743
     atom   35 type  1   force =     0.00000000    0.00000000    0.00116485
     atom   36 type  1   force =     0.00000000   -0.00000000    0.00002050
     atom   37 type  1   force =     0.00000000    0.00000000   -0.00002050
     atom   38 type  1   force =    -0.00000000   -0.00000000   -0.00116485
     atom   39 type  1   force =     0.00000000    0.00000000   -0.00013743
     atom   40 type  1   force =    -0.00000000   -0.00000000    0.00018385
     atom   41 type  1   force =     0.00000000    0.00000000   -0.00061888
     atom   42 type  1   force =     0.00000000    0.00000000   -0.00010546
     atom   43 type  2   force =     0.00000340    0.00011049    0.00011027
     atom   44 type  2   force =     0.00048624    0.00018012    0.00017516
     atom   45 type  2   force =     0.00009399   -0.00005818    0.00011027
     atom   46 type  2   force =    -0.00009738   -0.00005230    0.00011027
     atom   47 type  2   force =    -0.00008713   -0.00051115    0.00017516
     atom   48 type  2   force =    -0.00039910    0.00033104    0.00017516
     atom   49 type  2   force =    -0.00135039    0.00097435   -0.00036710
     atom   50 type  2   force =    -0.00151900   -0.00068230    0.00036710
     atom   51 type  2   force =     0.00151900    0.00068229   -0.00036710
     atom   52 type  2   force =    -0.00016862   -0.00165664   -0.00036710
     atom   53 type  2   force =     0.00016862    0.00165664    0.00036710
     atom   54 type  2   force =     0.00135039   -0.00097435    0.00036710
     atom   55 type  2   force =     0.00039910   -0.00033104   -0.00017516
     atom   56 type  2   force =    -0.00009399    0.00005818   -0.00011028
     atom   57 type  2   force =    -0.00048624   -0.00018012   -0.00017516
     atom   58 type  2   force =     0.00008713    0.00051115   -0.00017516
     atom   59 type  2   force =     0.00009738    0.00005230   -0.00011028
     atom   60 type  2   force =    -0.00000340   -0.00011049   -0.00011028
     atom   61 type  1   force =     0.00000000   -0.00000000    0.00010546
     atom   62 type  1   force =    -0.00000000   -0.00000000    0.00061888
     atom   63 type  1   force =    -0.00000000   -0.00000000   -0.00018385
     atom   64 type  1   force =     0.00000000   -0.00000000    0.00013743
     atom   65 type  1   force =     0.00000000   -0.00000000    0.00116485
     atom   66 type  1   force =     0.00000000    0.00000000    0.00002050
     atom   67 type  1   force =    -0.00000000    0.00000000   -0.00002050
     atom   68 type  1   force =    -0.00000000    0.00000000   -0.00116485
     atom   69 type  1   force =    -0.00000000    0.00000000   -0.00013743
     atom   70 type  1   force =     0.00000000    0.00000000    0.00018385
     atom   71 type  1   force =     0.00000000   -0.00000000   -0.00061888
     atom   72 type  1   force =    -0.00000000   -0.00000000   -0.00010546
     atom   73 type  2   force =     0.00000340    0.00011049    0.00011028
     atom   74 type  2   force =     0.00048624    0.00018012    0.00017516
     atom   75 type  2   force =     0.00009399   -0.00005818    0.00011028
     atom   76 type  2   force =    -0.00009738   -0.00005230    0.00011028
     atom   77 type  2   force =    -0.00008713   -0.00051115    0.00017516
     atom   78 type  2   force =    -0.00039910    0.00033104    0.00017516
     atom   79 type  2   force =    -0.00135039    0.00097435   -0.00036710
     atom   80 type  2   force =    -0.00151900   -0.00068229    0.00036710
     atom   81 type  2   force =     0.00151900    0.00068230   -0.00036710
     atom   82 type  2   force =    -0.00016862   -0.00165664   -0.00036710
     atom   83 type  2   force =     0.00016862    0.00165664    0.00036710
     atom   84 type  2   force =     0.00135039   -0.00097435    0.00036710
     atom   85 type  2   force =     0.00039910   -0.00033104   -0.00017516
     atom   86 type  2   force =    -0.00009399    0.00005818   -0.00011027
     atom   87 type  2   force =    -0.00048624   -0.00018012   -0.00017516
     atom   88 type  2   force =     0.00008713    0.00051115   -0.00017516
     atom   89 type  2   force =     0.00009738    0.00005230   -0.00011027
     atom   90 type  2   force =    -0.00000340   -0.00011049   -0.00011027
     atom   91 type  1   force =    -0.00000000   -0.00000000    0.00010546
     atom   92 type  1   force =     0.00000000   -0.00000000    0.00061888
     atom   93 type  1   force =    -0.00000000    0.00000000   -0.00018385
     atom   94 type  1   force =    -0.00000000   -0.00000000    0.00013743
     atom   95 type  1   force =    -0.00000000   -0.00000000    0.00116485
     atom   96 type  1   force =    -0.00000000   -0.00000000    0.00002050
     atom   97 type  1   force =     0.00000000   -0.00000000   -0.00002050
     atom   98 type  1   force =     0.00000000    0.00000000   -0.00116485
     atom   99 type  1   force =    -0.00000000   -0.00000000   -0.00013743
     atom  100 type  1   force =     0.00000000   -0.00000000    0.00018385
     atom  101 type  1   force =     0.00000000   -0.00000000   -0.00061888
     atom  102 type  1   force =     0.00000000   -0.00000000   -0.00010546
     atom  103 type  2   force =     0.00000340    0.00011049    0.00011028
     atom  104 type  2   force =     0.00048624    0.00018012    0.00017516
     atom  105 type  2   force =     0.00009399   -0.00005818    0.00011028
     atom  106 type  2   force =    -0.00009738   -0.00005230    0.00011028
     atom  107 type  2   force =    -0.00008713   -0.00051115    0.00017516
     atom  108 type  2   force =    -0.00039910    0.00033104    0.00017516
     atom  109 type  2   force =    -0.00135039    0.00097435   -0.00036710
     atom  110 type  2   force =    -0.00151900   -0.00068229    0.00036710
     atom  111 type  2   force =     0.00151900    0.00068229   -0.00036710
     atom  112 type  2   force =    -0.00016862   -0.00165664   -0.00036710
     atom  113 type  2   force =     0.00016862    0.00165664    0.00036710
     atom  114 type  2   force =     0.00135039   -0.00097435    0.00036710
     atom  115 type  2   force =     0.00039910   -0.00033104   -0.00017516
     atom  116 type  2   force =    -0.00009399    0.00005818   -0.00011028
     atom  117 type  2   force =    -0.00048624   -0.00018012   -0.00017516
     atom  118 type  2   force =     0.00008713    0.00051115   -0.00017516
     atom  119 type  2   force =     0.00009738    0.00005230   -0.00011028
     atom  120 type  2   force =    -0.00000340   -0.00011049   -0.00011028

     Total force =     0.009591     Total SCF correction =     0.000019


     Computing stress (Cartesian axis) and pressure


     negative rho (up, down):  4.840E-03 0.000E+00
          total   stress  (Ry/bohr**3)                   (kbar)     P=       14.24
   0.00015307   0.00000000   0.00000000           22.52        0.00        0.00
   0.00000000   0.00015307   0.00000000            0.00       22.52        0.00
   0.00000000   0.00000000  -0.00001574            0.00        0.00       -2.32

     Energy error            =      2.2E-04 Ry
     Gradient error          =      1.7E-03 Ry/Bohr

     number of scf cycles    =  17
     number of bfgs steps    =  16

     energy             old  =   -4910.9424053605 Ry
     energy             new  =   -4910.9426291244 Ry

     CASE: energy            _new < energy            _old

     new trust radius        =       0.0072574821 bohr
     new conv_thr            =       0.0000000002 Ry


ATOMIC_POSITIONS (angstrom)
Al               0.0000000005        2.7741837603       23.9961896788
Al               2.4025136103        1.3870918802       22.0816562101
Al               0.0000000000       -0.0000000000       21.6309800112
Al              -0.0000000003        2.7741837603       19.9364935370
Al               0.0000000000       -0.0000000000       15.0824096811
Al               0.0000000008        2.7741837622       14.0859456239
Al               2.4025136123        1.3870918804       25.2628141261
Al              -0.0000000000       -0.0000000000       24.2663500689
Al               2.4025136101        1.3870918804       19.4122662130
Al               0.0000000000        0.0000000000       17.7177797388
Al               0.0000000000        2.7741837604       17.2671035399
Al               2.4025136105        1.3870918798       15.3525700712
O                0.9308829466        1.3809513885       20.7677887905
O                1.6579767335        2.8645089534       22.9759235922
O                3.1330111506        2.6646316707       20.7677887900
O                3.1436467823        0.1156925506       20.7677887898
O                4.0542627640        1.2931711928       22.9759235926
O                1.4953013331        0.0035954945       22.9759235933
O               -1.5146501835        2.8394758886       25.1495228529
O                1.5886439063        0.1080124025       14.1992368971
O                0.8138697028        4.0532632262       25.1495228522
O                0.7007804320        1.4298121852       25.1495228529
O                1.7017331803        2.7314634535       14.1992368971
O                3.9171637941        1.3217997529       14.1992368978
O                3.3097258881       -0.0035954943       16.3728361578
O               -0.7304975401        1.4966439677       18.5809709595
O                0.7445368770        1.2967666878       16.3728361567
O                3.1532780661        2.8681044467       16.3728361571
O               -0.7411331717        4.0455830804       18.5809709600
O                1.4716306616        2.7803242513       18.5809709602
Al              -2.4025136099        6.9354593994       23.9961896788
Al               0.0000000000        5.5483675200       22.0816562110
Al              -2.4025136102        4.1612756401       21.6309800100
Al              -2.4025136096        6.9354594001       19.9364935370
Al              -2.4025136102        4.1612756400       15.0824096823
Al              -2.4025136085        6.9354593982       14.0859456239
Al               0.0000000000        5.5483675200       25.2628141268
Al              -2.4025136098        4.1612756400       24.2663500677
Al               0.0000000000        5.5483675200       19.4122662137
Al              -2.4025136098        4.1612756399       17.7177797400
Al              -2.4025136097        6.9354593998       17.2671035399
Al               0.0000000000        5.5483675200       15.3525700714
O               -1.4716306635        5.5422270288       20.7677887907
O               -0.7445368770        7.0257845922       22.9759235929
O                0.7304975404        6.8259073022       20.7677887907
O                0.7411331731        4.2769681890       20.7677887907
O                1.6517491539        5.4544468333       22.9759235929
O               -0.9072122769        4.1648711345       22.9759235929
O               -3.9171637958        7.0007515272       25.1495228529
O               -0.8138697043        4.2692880434       14.1992368977
O               -1.5886439062        8.2145388649       25.1495228529
O               -1.7017331787        5.5910878267       25.1495228522
O               -0.7007804309        6.8927390848       14.1992368977
O                1.5146501852        5.4830753918       14.1992368977
O                0.9072122774        4.1576801454       16.3728361574
O               -3.1330111493        5.6579196093       18.5809709602
O               -1.6579767334        5.4580423274       16.3728361574
O                0.7507644560        7.0293800872       16.3728361574
O               -3.1436467833        8.2068587208       18.5809709595
O               -0.9308829478        6.9415998902       18.5809709600
Al               4.8050272200        2.7741837600       23.9961896786
Al               7.2075408297        1.3870918802       22.0816562101
Al               4.8050272201        0.0000000001       21.6309800100
Al               4.8050272200        2.7741837600       19.9364935363
Al               4.8050272201        0.0000000002       15.0824096823
Al               4.8050272200        2.7741837600       14.0859456232
Al               7.2075408285        1.3870918818       25.2628141261
Al               4.8050272199       -0.0000000002       24.2663500677
Al               7.2075408296        1.3870918799       19.4122662130
Al               4.8050272199       -0.0000000001       17.7177797400
Al               4.8050272200        2.7741837600       17.2671035390
Al               7.2075408299        1.3870918806       15.3525700712
O                5.7359101678        1.3809513898       20.7677887900
O                6.4630039534        2.8645089526       22.9759235926
O                7.9380383693        2.6646316707       20.7677887898
O                7.9486740033        0.1156925492       20.7677887905
O                8.8592899838        1.2931711933       22.9759235933
O                6.3003285519        0.0035954943       22.9759235922
O                3.2903770348        2.8394758882       25.1495228523
O                6.3936711262        0.1080124051       14.1992368971
O                5.6188969243        4.0532632266       25.1495228523
O                5.5058076509        1.4298121852       25.1495228523
O                6.5067603987        2.7314634533       14.1992368978
O                8.7221910158        1.3217997528       14.1992368971
O                8.1147531069       -0.0035954945       16.3728361567
O                4.0745296796        1.4966439678       18.5809709593
O                5.5495640970        1.2967666878       16.3728361571
O                7.9583052854        2.8681044477       16.3728361578
O                4.0638940469        4.0455830810       18.5809709593
O                6.2766578835        2.7803242512       18.5809709593
Al               2.4025136095        6.9354594002       23.9961896788
Al               4.8050272200        5.5483675196       22.0816562101
Al               2.4025136100        4.1612756398       21.6309800100
Al               2.4025136099        6.9354593996       19.9364935370
Al               2.4025136101        4.1612756398       15.0824096823
Al               2.4025136077        6.9354593996       14.0859456239
Al               4.8050272192        5.5483675178       25.2628141261
Al               2.4025136099        4.1612756402       24.2663500677
Al               4.8050272203        5.5483675197       19.4122662130
Al               2.4025136100        4.1612756402       17.7177797400
Al               2.4025136097        6.9354593998       17.2671035399
Al               4.8050272195        5.5483675197       15.3525700712
O                3.3333965584        5.5422270287       20.7677887898
O                4.0604903430        7.0257845922       22.9759235933
O                5.5355247601        6.8259073023       20.7677887905
O                5.5461603917        4.2769681896       20.7677887900
O                6.4567763746        5.4544468323       22.9759235922
O                3.8978149426        4.1648711346       22.9759235926
O                0.8878634259        7.0007515271       25.1495228522
O                3.9911575172        4.2692880438       14.1992368978
O                3.2163833137        8.2145388675       25.1495228529
O                3.1032940397        5.5910878265       25.1495228529
O                4.1042467880        6.8927390848       14.1992368971
O                6.3196774035        5.4830753914       14.1992368971
O                5.7122394969        4.1576801455       16.3728361571
O                1.6720160694        5.6579196093       18.5809709600
O                3.1470504865        5.4580423266       16.3728361578
O                5.5557916762        7.0293800867       16.3728361567
O                1.6613804377        8.2068587194       18.5809709602
O                3.8741442734        6.9415998915       18.5809709595



     Writing config-only to output data dir ./tmp/al2o3.save/ :
     XML data file
     NEW-OLD atomic charge density approx. for the potential

     negative rho (up, down):  4.848E-03 0.000E+00

     total cpu time spent up to now is    27328.6 secs

     Self-consistent Calculation

     iteration #  1     ecut=    60.00 Ry     beta= 0.30
     Davidson diagonalization with overlap
     ethr =  1.00E-06,  avg # of iterations =  3.0

     Threshold (ethr) on eigenvalues was too large:
     Diagonalizing with lowered threshold

     Davidson diagonalization with overlap
     ethr =  1.01E-08,  avg # of iterations =  5.0

     negative rho (up, down):  4.847E-03 0.000E+00

     total cpu time spent up to now is    27549.0 secs

     total energy              =   -4910.94275557 Ry
     estimated scf accuracy    <       0.00008654 Ry

     iteration #  2     ecut=    60.00 Ry     beta= 0.30
     Davidson diagonalization with overlap
     ethr =  1.50E-08,  avg # of iterations =  2.0

     negative rho (up, down):  4.844E-03 0.000E+00

     total cpu time spent up to now is    27619.0 secs

     total energy              =   -4910.94275137 Ry
     estimated scf accuracy    <       0.00002320 Ry

     iteration #  3     ecut=    60.00 Ry     beta= 0.30
     Davidson diagonalization with overlap
     ethr =  4.03E-09,  avg # of iterations =  2.0

     negative rho (up, down):  4.843E-03 0.000E+00

     total cpu time spent up to now is    27706.6 secs

     total energy              =   -4910.94275554 Ry
     estimated scf accuracy    <       0.00000232 Ry

     iteration #  4     ecut=    60.00 Ry     beta= 0.30
     Davidson diagonalization with overlap
     ethr =  4.02E-10,  avg # of iterations =  4.2

     negative rho (up, down):  4.842E-03 0.000E+00

     total cpu time spent up to now is    27795.9 secs

     total energy              =   -4910.94275601 Ry
     estimated scf accuracy    <       0.00000053 Ry

     iteration #  5     ecut=    60.00 Ry     beta= 0.30
     Davidson diagonalization with overlap
     ethr =  9.21E-11,  avg # of iterations =  2.0

     negative rho (up, down):  4.842E-03 0.000E+00

     total cpu time spent up to now is    27867.8 secs

     total energy              =   -4910.94275606 Ry
     estimated scf accuracy    <       0.00000015 Ry

     iteration #  6     ecut=    60.00 Ry     beta= 0.30
     Davidson diagonalization with overlap
     ethr =  2.54E-11,  avg # of iterations =  4.2

     negative rho (up, down):  4.842E-03 0.000E+00

     total cpu time spent up to now is    27961.7 secs

     total energy              =   -4910.94275606 Ry
     estimated scf accuracy    <       0.00000007 Ry

     iteration #  7     ecut=    60.00 Ry     beta= 0.30
     Davidson diagonalization with overlap
     ethr =  1.13E-11,  avg # of iterations =  5.2

     negative rho (up, down):  4.842E-03 0.000E+00

     total cpu time spent up to now is    28066.4 secs

     total energy              =   -4910.94275607 Ry
     estimated scf accuracy    <       0.00000009 Ry

     iteration #  8     ecut=    60.00 Ry     beta= 0.30
     Davidson diagonalization with overlap
     ethr =  1.13E-11,  avg # of iterations =  3.0

     negative rho (up, down):  4.842E-03 0.000E+00

     total cpu time spent up to now is    28152.7 secs

     total energy              =   -4910.94275608 Ry
     estimated scf accuracy    <          4.7E-09 Ry

     iteration #  9     ecut=    60.00 Ry     beta= 0.30
     Davidson diagonalization with overlap
     ethr =  8.07E-13,  avg # of iterations =  5.5

     negative rho (up, down):  4.842E-03 0.000E+00

     total cpu time spent up to now is    28285.3 secs

     total energy              =   -4910.94275608 Ry
     estimated scf accuracy    <       0.00000002 Ry

     iteration # 10     ecut=    60.00 Ry     beta= 0.30
     Davidson diagonalization with overlap
     ethr =  8.07E-13,  avg # of iterations =  3.8

     negative rho (up, down):  4.842E-03 0.000E+00

     total cpu time spent up to now is    28374.6 secs

     total energy              =   -4910.94275608 Ry
     estimated scf accuracy    <          2.0E-09 Ry

     iteration # 11     ecut=    60.00 Ry     beta= 0.30
     Davidson diagonalization with overlap
     ethr =  3.54E-13,  avg # of iterations =  4.8

     negative rho (up, down):  4.842E-03 0.000E+00

     total cpu time spent up to now is    28468.2 secs

     End of self-consistent calculation

          k = 0.0000 0.0000 0.0000 (166875 PWs)   bands (ev):

   -20.8548 -20.5205 -20.1464 -19.9377 -19.9377 -19.9377 -19.8639 -19.8639
   -19.8639 -19.6629 -19.6629 -19.6629 -19.5900 -19.4740 -19.4740 -19.4740
   -19.2188 -19.2188 -19.2188 -19.2163 -19.2163 -19.2163 -18.9569 -18.8946
   -18.8946 -18.8946 -18.8133 -18.8133 -18.8133 -18.7772 -18.7772 -18.7772
   -18.7433 -18.6135 -18.6135 -18.6135 -18.5083 -18.5083 -18.5083 -18.4856
   -18.4856 -18.4737 -18.4737 -18.4737 -18.3722 -18.3722 -18.3722 -18.3650
   -18.3650 -18.3221 -18.3221 -18.3221 -18.3057 -18.3057 -18.3057 -18.2636
   -18.2636 -18.2493 -18.2493 -18.2146 -18.2146 -18.2146 -18.1332 -18.1332
   -18.1332 -18.1153 -18.1153 -18.1043 -18.1043 -18.0986 -18.0986 -18.0986
    -8.3810  -8.2114  -8.2114  -8.2114  -8.1162  -8.1162  -8.1162  -7.8373
    -7.8373  -7.8373  -7.7604  -7.6652  -7.6652  -7.6652  -7.5298  -7.4874
    -7.3952  -7.3952  -7.3952  -7.2223  -7.2223  -7.2109  -7.2109  -7.2109
    -7.0992  -7.0173  -7.0173  -7.0173  -6.8991  -6.8991  -6.8991  -6.8525
    -6.8525  -6.7164  -6.6368  -6.6368  -6.6368  -6.6313  -6.6313  -6.6313
    -6.5115  -6.5115  -6.5115  -6.4964  -6.3477  -6.3477  -6.0224  -5.9642
    -5.9642  -5.9311  -5.9311  -5.9311  -5.8156  -5.8156  -5.8156  -5.7938
    -5.7938  -5.7477  -5.7477  -5.7477  -5.6720  -5.6720  -5.6281  -5.6281
    -5.6281  -5.6272  -5.5361  -5.5361  -5.5361  -5.5145  -5.5145  -5.5145
    -5.3848  -5.3848  -5.3848  -5.3790  -5.2882  -5.2882  -5.2882  -5.2655
    -5.1645  -5.1645  -5.1645  -5.0149  -5.0149  -5.0149  -5.0026  -4.8337
    -4.8337  -4.8337  -4.7699  -4.6582  -4.6582  -4.6582  -4.5489  -4.4318
    -4.3829  -4.3829  -4.3829  -4.2512  -4.2512  -4.2512  -4.1812  -4.1812
    -4.1812  -4.0622  -4.0622  -4.0622  -4.0610  -4.0610  -4.0610  -4.0334
    -4.0334  -4.0334  -4.0262  -4.0262  -3.9468  -3.9468  -3.7818  -3.7671
    -3.7671  -3.7671  -3.7247  -3.7247  -3.7247  -3.5547  -3.5547  -3.5547
    -3.4967  -3.4967  -3.4967  -3.4514  -3.4514  -3.4514  -3.3642  -3.3642
    -3.3331  -3.3331  -3.3145  -3.3145  -3.3145  -3.2951  -3.2951  -3.2951
    -3.2770  -3.2770  -3.2770  -3.2179  -3.2179  -3.2179  -3.1860  -3.1860
    -3.1860  -3.0705  -3.0705  -3.0705  -2.9988  -2.9988  -2.9988  -2.9775
    -2.9775  -2.9775  -2.9660  -2.9660  -2.9618  -2.9618  -2.9618  -2.9428
    -2.9428  -2.9428  -2.9387  -2.9387  -2.8652  -2.8652  -2.8652  -2.8083
    -2.7607  -2.7607  -2.7607  -2.5713  -2.5713  -2.5713  -2.5534  -2.5534
    -2.5534  -2.4562  -2.4562  -2.4402  -2.4402  -2.4402  -2.3770  -2.3770
    -2.3513  -2.3513  -2.3513  -2.2326  -2.2326  -2.1831  -2.1252  -2.1252
    -2.1252  -2.1013  -2.1013  -2.0859  -2.0859  -2.0859  -2.0136  -2.0136
    -2.0136  -1.9544  -1.9544  -1.9544  -1.8890  -1.8890  -1.8731  -1.8731

          k = 0.0000 0.2887 0.0000 (166721 PWs)   bands (ev):

   -20.7854 -20.4538 -20.2718 -20.0859 -20.0475 -20.0474 -19.9715 -19.7928
   -19.7908 -19.6799 -19.6378 -19.6317 -19.5424 -19.4432 -19.4371 -19.4193
   -19.2220 -19.2121 -19.1047 -19.1037 -19.0854 -19.0711 -18.9640 -18.9552
   -18.9222 -18.8920 -18.8640 -18.8416 -18.7569 -18.7357 -18.7250 -18.7108
   -18.6887 -18.6643 -18.6347 -18.5955 -18.5913 -18.5884 -18.5802 -18.5548
   -18.5545 -18.4897 -18.4777 -18.4763 -18.4377 -18.4120 -18.4106 -18.4098
   -18.4031 -18.3594 -18.3502 -18.3258 -18.3172 -18.3163 -18.2969 -18.2756
   -18.2694 -18.2631 -18.2202 -18.1834 -18.1672 -18.1497 -18.1390 -18.1301
   -18.1092 -18.1079 -18.0936 -18.0930 -18.0905 -18.0898 -18.0895 -18.0790
    -8.3266  -8.2120  -8.1092  -8.0904  -8.0165  -7.9919  -7.9686  -7.8660
    -7.7927  -7.7116  -7.7041  -7.6594  -7.5931  -7.5860  -7.5855  -7.5647
    -7.5397  -7.5254  -7.4563  -7.4001  -7.2188  -7.2126  -7.1870  -7.1796
    -7.1468  -7.1342  -7.1335  -7.0362  -7.0075  -6.9229  -6.8955  -6.8268
    -6.8157  -6.7854  -6.7581  -6.7402  -6.7131  -6.6764  -6.6423  -6.5544
    -6.5335  -6.5245  -6.5145  -6.5126  -6.3219  -6.2316  -6.1389  -6.1321
    -6.1292  -6.0613  -6.0356  -6.0165  -6.0023  -5.9196  -5.8977  -5.8969
    -5.8940  -5.8368  -5.8223  -5.8172  -5.7962  -5.6997  -5.6787  -5.6773
    -5.6413  -5.6079  -5.6073  -5.5414  -5.5399  -5.4952  -5.4616  -5.4465
    -5.2915  -5.2257  -5.1517  -5.1379  -5.0782  -5.0778  -5.0593  -5.0504
    -5.0451  -5.0121  -4.9881  -4.9674  -4.9506  -4.8806  -4.8639  -4.7578
    -4.7235  -4.6512  -4.6346  -4.6318  -4.5873  -4.5113  -4.4942  -4.4637
    -4.4346  -4.4090  -4.3933  -4.3766  -4.2902  -4.2900  -4.2695  -4.2481
    -4.2411  -4.2045  -4.1732  -4.1673  -4.1145  -4.0649  -4.0615  -4.0384
    -3.9543  -3.9159  -3.8860  -3.8809  -3.8626  -3.8438  -3.8345  -3.8338
    -3.7600  -3.7566  -3.7210  -3.6889  -3.6786  -3.6275  -3.6177  -3.6006
    -3.5740  -3.5474  -3.5033  -3.5021  -3.4764  -3.4649  -3.4563  -3.4495
    -3.4264  -3.4086  -3.4077  -3.3583  -3.3569  -3.3313  -3.3060  -3.2958
    -3.2820  -3.2438  -3.2430  -3.2408  -3.2328  -3.1990  -3.1950  -3.1770
    -3.1741  -3.1348  -3.1139  -3.0993  -3.0834  -3.0763  -3.0576  -3.0467
    -3.0307  -3.0061  -2.9821  -2.9781  -2.9485  -2.9426  -2.9252  -2.9146
    -2.8445  -2.8227  -2.8210  -2.7766  -2.7643  -2.7508  -2.7334  -2.7318
    -2.7303  -2.7281  -2.6698  -2.6042  -2.5966  -2.5925  -2.5608  -2.5532
    -2.5227  -2.5122  -2.5073  -2.4824  -2.4590  -2.3857  -2.3849  -2.3740
    -2.3567  -2.3497  -2.3467  -2.3314  -2.3041  -2.2322  -2.1650  -2.1537
    -2.1361  -2.1196  -2.1176  -2.0857  -2.0843  -2.0794  -2.0696  -2.0177
    -2.0167  -2.0064  -1.9832  -1.9636  -1.9573  -1.9416  -1.9108  -1.8796

          k = 0.0000-0.5774 0.0000 (166636 PWs)   bands (ev):

   -20.5837 -20.5837 -20.2612 -20.2612 -20.0988 -20.0988 -19.9136 -19.9136
   -19.8143 -19.8143 -19.5584 -19.5584 -19.4193 -19.4193 -19.3983 -19.3983
   -19.1688 -19.1688 -19.0669 -19.0669 -18.9452 -18.9452 -18.9227 -18.9227
   -18.8847 -18.8847 -18.8058 -18.8058 -18.7825 -18.7825 -18.7577 -18.7577
   -18.7344 -18.7344 -18.6682 -18.6682 -18.5700 -18.5700 -18.5387 -18.5387
   -18.5220 -18.5220 -18.5203 -18.5203 -18.5001 -18.5001 -18.4845 -18.4845
   -18.4064 -18.4064 -18.4003 -18.4003 -18.3296 -18.3296 -18.3176 -18.3176
   -18.2029 -18.2029 -18.1711 -18.1711 -18.1349 -18.1349 -18.1181 -18.1181
   -18.1058 -18.1058 -18.0970 -18.0970 -18.0769 -18.0769 -18.0695 -18.0695
    -8.2178  -8.2178  -7.9264  -7.9264  -7.8636  -7.8636  -7.8083  -7.8083
    -7.7771  -7.7771  -7.7152  -7.7152  -7.6521  -7.6521  -7.4997  -7.4997
    -7.4241  -7.4241  -7.4071  -7.4071  -7.3770  -7.3770  -7.2953  -7.2953
    -7.1919  -7.1919  -7.1711  -7.1711  -7.0610  -7.0610  -7.0542  -7.0542
    -6.8637  -6.8637  -6.8294  -6.8294  -6.6709  -6.6709  -6.6651  -6.6651
    -6.3771  -6.3771  -6.3560  -6.3560  -6.3243  -6.3243  -6.2940  -6.2940
    -6.2279  -6.2279  -6.2130  -6.2130  -6.0124  -6.0124  -5.9675  -5.9675
    -5.8726  -5.8726  -5.7960  -5.7960  -5.7829  -5.7829  -5.7721  -5.7721
    -5.6886  -5.6886  -5.4828  -5.4828  -5.3172  -5.3172  -5.2932  -5.2932
    -5.1845  -5.1845  -5.1496  -5.1496  -5.0892  -5.0892  -4.9811  -4.9811
    -4.9304  -4.9304  -4.8559  -4.8559  -4.7731  -4.7731  -4.7679  -4.7679
    -4.6613  -4.6613  -4.5850  -4.5850  -4.5602  -4.5602  -4.4212  -4.4212
    -4.3610  -4.3610  -4.3286  -4.3286  -4.3041  -4.3041  -4.1521  -4.1521
    -4.1418  -4.1418  -4.0910  -4.0910  -4.0771  -4.0771  -4.0127  -4.0127
    -3.9322  -3.9322  -3.9144  -3.9144  -3.9107  -3.9107  -3.8739  -3.8739
    -3.7790  -3.7790  -3.7303  -3.7303  -3.6720  -3.6720  -3.6634  -3.6634
    -3.6202  -3.6202  -3.6150  -3.6150  -3.5175  -3.5175  -3.4783  -3.4783
    -3.4392  -3.4392  -3.3789  -3.3789  -3.3520  -3.3520  -3.2985  -3.2985
    -3.2977  -3.2977  -3.2528  -3.2528  -3.2446  -3.2446  -3.2103  -3.2103
    -3.1494  -3.1494  -3.1337  -3.1337  -3.0833  -3.0833  -3.0608  -3.0608
    -3.0177  -3.0177  -2.9592  -2.9592  -2.8947  -2.8947  -2.8733  -2.8733
    -2.8719  -2.8719  -2.8113  -2.8113  -2.7459  -2.7459  -2.7297  -2.7297
    -2.7178  -2.7178  -2.6696  -2.6696  -2.6185  -2.6185  -2.5663  -2.5663
    -2.5401  -2.5401  -2.4649  -2.4649  -2.4534  -2.4534  -2.3629  -2.3629
    -2.3269  -2.3269  -2.3029  -2.3029  -2.2946  -2.2946  -2.2590  -2.2590
    -2.1753  -2.1753  -2.1092  -2.1092  -2.1035  -2.1035  -2.0054  -2.0054
    -1.9928  -1.9928  -1.9868  -1.9868  -1.9527  -1.9527  -1.9340  -1.9340

          k = 0.2500 0.4330 0.0000 (166642 PWs)   bands (ev):

   -20.6498 -20.3924 -20.3924 -20.3241 -20.0809 -20.0808 -19.9692 -19.7854
   -19.7579 -19.7574 -19.7222 -19.5437 -19.4774 -19.4553 -19.3504 -19.3488
   -19.2167 -19.1397 -19.0493 -19.0426 -19.0297 -18.9503 -18.9368 -18.9321
   -18.8783 -18.8475 -18.8204 -18.8103 -18.8043 -18.7298 -18.7281 -18.7123
   -18.7118 -18.6833 -18.6553 -18.6473 -18.6379 -18.6275 -18.6167 -18.5462
   -18.5302 -18.5301 -18.5249 -18.5124 -18.4909 -18.4775 -18.4546 -18.4404
   -18.4296 -18.4240 -18.3831 -18.3793 -18.3762 -18.3352 -18.3307 -18.2760
   -18.2352 -18.2055 -18.1612 -18.1573 -18.1556 -18.1295 -18.1188 -18.1123
   -18.1062 -18.0981 -18.0939 -18.0876 -18.0803 -18.0757 -18.0748 -18.0710
    -8.2217  -8.1180  -8.1023  -7.9473  -7.8831  -7.8704  -7.8424  -7.8130
    -7.7508  -7.7481  -7.6628  -7.6499  -7.6011  -7.5659  -7.5384  -7.5228
    -7.4657  -7.4491  -7.4429  -7.4250  -7.3631  -7.3540  -7.3353  -7.2570
    -7.2559  -7.2223  -7.1595  -7.0932  -7.0767  -7.0721  -7.0146  -6.8948
    -6.8820  -6.8652  -6.8459  -6.8176  -6.7511  -6.6856  -6.6654  -6.6199
    -6.4998  -6.4131  -6.4030  -6.3862  -6.3557  -6.3378  -6.2933  -6.2707
    -6.2453  -6.1735  -6.1651  -6.1187  -6.0448  -6.0439  -6.0023  -5.9637
    -5.8844  -5.8725  -5.8264  -5.7984  -5.7924  -5.7861  -5.6851  -5.6357
    -5.5841  -5.5652  -5.5241  -5.4979  -5.4836  -5.4788  -5.3817  -5.3327
    -5.2923  -5.2557  -5.1926  -5.1387  -5.0887  -5.0167  -4.9851  -4.9252
    -4.8974  -4.8696  -4.8619  -4.8266  -4.7572  -4.7435  -4.6913  -4.6470
    -4.6397  -4.6249  -4.6060  -4.5566  -4.5012  -4.4668  -4.4594  -4.4059
    -4.3959  -4.3666  -4.3479  -4.2946  -4.2778  -4.2555  -4.2350  -4.2077
    -4.1254  -4.1011  -4.0986  -4.0879  -4.0514  -4.0304  -4.0137  -4.0107
    -3.9786  -3.9766  -3.9403  -3.9283  -3.9116  -3.9052  -3.8640  -3.8513
    -3.8347  -3.7630  -3.7411  -3.7307  -3.7284  -3.7037  -3.6925  -3.6809
    -3.6457  -3.6397  -3.6201  -3.5857  -3.5515  -3.5381  -3.5130  -3.4828
    -3.4635  -3.4427  -3.4140  -3.4136  -3.3874  -3.3779  -3.3257  -3.3246
    -3.3195  -3.2854  -3.2837  -3.2729  -3.2546  -3.2149  -3.1528  -3.1488
    -3.1382  -3.1076  -3.0993  -3.0885  -3.0744  -3.0597  -3.0559  -3.0170
    -3.0044  -3.0037  -2.9724  -2.9612  -2.9336  -2.9260  -2.9107  -2.8437
    -2.8408  -2.8303  -2.8285  -2.7614  -2.7567  -2.7486  -2.7334  -2.7209
    -2.7012  -2.6887  -2.6788  -2.6637  -2.6492  -2.6216  -2.5966  -2.5538
    -2.5322  -2.5147  -2.5028  -2.4862  -2.4473  -2.4091  -2.4059  -2.3616
    -2.3587  -2.3445  -2.3255  -2.3219  -2.2915  -2.2847  -2.2611  -2.2059
    -2.1856  -2.1603  -2.1477  -2.1466  -2.1146  -2.0583  -2.0276  -2.0036
    -2.0020  -1.9959  -1.9926  -1.9467  -1.9438  -1.9332  -1.9321  -1.8918

     highest occupied level (ev):    -1.8731

!    total energy              =   -4910.94275608 Ry
     total all-electron energy =    -34162.772525 Ry
     estimated scf accuracy    <          6.9E-11 Ry

     The total energy is the sum of the following terms:
     one-electron contribution =  -81738.92791568 Ry
     hartree contribution      =   41104.20238284 Ry
     xc contribution           =    -676.58893979 Ry
     ewald contribution        =   38748.35729548 Ry
     one-center paw contrib.   =   -2347.98557892 Ry

     convergence has been achieved in  11 iterations

     negative rho (up, down):  4.842E-03 0.000E+00

     Forces acting on atoms (cartesian axes, Ry/au):

     atom    1 type  1   force =    -0.00000000   -0.00000000   -0.00025727
     atom    2 type  1   force =    -0.00000000    0.00000000    0.00041465
     atom    3 type  1   force =     0.00000000    0.00000000    0.00024019
     atom    4 type  1   force =     0.00000000    0.00000000    0.00004390
     atom    5 type  1   force =     0.00000000    0.00000000    0.00048521
     atom    6 type  1   force =     0.00000000   -0.00000000    0.00016679
     atom    7 type  1   force =    -0.00000000   -0.00000000   -0.00016679
     atom    8 type  1   force =     0.00000000    0.00000000   -0.00048521
     atom    9 type  1   force =     0.00000000   -0.00000000   -0.00004390
     atom   10 type  1   force =     0.00000000    0.00000000   -0.00024019
     atom   11 type  1   force =    -0.00000000   -0.00000000   -0.00041465
     atom   12 type  1   force =    -0.00000000    0.00000000    0.00025727
     atom   13 type  2   force =    -0.00000228    0.00021589    0.00043634
     atom   14 type  2   force =     0.00018103    0.00014375   -0.00005634
     atom   15 type  2   force =     0.00018811   -0.00010597    0.00043634
     atom   16 type  2   force =    -0.00018583   -0.00010992    0.00043634
     atom   17 type  2   force =     0.00003397   -0.00022865   -0.00005634
     atom   18 type  2   force =    -0.00021500    0.00008490   -0.00005634
     atom   19 type  2   force =    -0.00064088    0.00069474   -0.00008604
     atom   20 type  2   force =    -0.00092210   -0.00020765    0.00008604
     atom   21 type  2   force =     0.00092210    0.00020765   -0.00008604
     atom   22 type  2   force =    -0.00028122   -0.00090238   -0.00008604
     atom   23 type  2   force =     0.00028122    0.00090238    0.00008604
     atom   24 type  2   force =     0.00064088   -0.00069474    0.00008604
     atom   25 type  2   force =     0.00021500   -0.00008490    0.00005634
     atom   26 type  2   force =    -0.00018811    0.00010597   -0.00043634
     atom   27 type  2   force =    -0.00018103   -0.00014375    0.00005634
     atom   28 type  2   force =    -0.00003397    0.00022865    0.00005634
     atom   29 type  2   force =     0.00018583    0.00010992   -0.00043634
     atom   30 type  2   force =     0.00000228   -0.00021589   -0.00043634
     atom   31 type  1   force =    -0.00000000    0.00000000   -0.00025727
     atom   32 type  1   force =    -0.00000000    0.00000000    0.00041465
     atom   33 type  1   force =     0.00000000    0.00000000    0.00024019
     atom   34 type  1   force =     0.00000000   -0.00000000    0.00004390
     atom   35 type  1   force =    -0.00000000   -0.00000000    0.00048521
     atom   36 type  1   force =    -0.00000000    0.00000000    0.00016679
     atom   37 type  1   force =     0.00000000    0.00000000   -0.00016679
     atom   38 type  1   force =     0.00000000    0.00000000   -0.00048521
     atom   39 type  1   force =     0.00000000    0.00000000   -0.00004390
     atom   40 type  1   force =    -0.00000000   -0.00000000   -0.00024019
     atom   41 type  1   force =    -0.00000000    0.00000000   -0.00041465
     atom   42 type  1   force =     0.00000000    0.00000000    0.00025727
     atom   43 type  2   force =    -0.00000228    0.00021589    0.00043634
     atom   44 type  2   force =     0.00018103    0.00014375   -0.00005634
     atom   45 type  2   force =     0.00018811   -0.00010597    0.00043634
     atom   46 type  2   force =    -0.00018583   -0.00010992    0.00043634
     atom   47 type  2   force =     0.00003397   -0.00022865   -0.00005634
     atom   48 type  2   force =    -0.00021500    0.00008490   -0.00005634
     atom   49 type  2   force =    -0.00064088    0.00069473   -0.00008604
     atom   50 type  2   force =    -0.00092210   -0.00020765    0.00008604
     atom   51 type  2   force =     0.00092210    0.00020765   -0.00008604
     atom   52 type  2   force =    -0.00028122   -0.00090238   -0.00008604
     atom   53 type  2   force =     0.00028122    0.00090238    0.00008604
     atom   54 type  2   force =     0.00064087   -0.00069474    0.00008604
     atom   55 type  2   force =     0.00021500   -0.00008490    0.00005634
     atom   56 type  2   force =    -0.00018811    0.00010597   -0.00043634
     atom   57 type  2   force =    -0.00018103   -0.00014375    0.00005634
     atom   58 type  2   force =    -0.00003397    0.00022865    0.00005634
     atom   59 type  2   force =     0.00018583    0.00010992   -0.00043634
     atom   60 type  2   force =     0.00000228   -0.00021589   -0.00043634
     atom   61 type  1   force =     0.00000000   -0.00000000   -0.00025727
     atom   62 type  1   force =     0.00000000   -0.00000000    0.00041465
     atom   63 type  1   force =    -0.00000000   -0.00000000    0.00024019
     atom   64 type  1   force =     0.00000000    0.00000000    0.00004390
     atom   65 type  1   force =    -0.00000000    0.00000000    0.00048521
     atom   66 type  1   force =     0.00000000    0.00000000    0.00016679
     atom   67 type  1   force =     0.00000000   -0.00000000   -0.00016679
     atom   68 type  1   force =     0.00000000   -0.00000000   -0.00048521
     atom   69 type  1   force =    -0.00000000    0.00000000   -0.00004390
     atom   70 type  1   force =     0.00000000    0.00000000   -0.00024019
     atom   71 type  1   force =     0.00000000    0.00000000   -0.00041465
     atom   72 type  1   force =     0.00000000   -0.00000000    0.00025727
     atom   73 type  2   force =    -0.00000228    0.00021589    0.00043634
     atom   74 type  2   force =     0.00018103    0.00014375   -0.00005634
     atom   75 type  2   force =     0.00018811   -0.00010597    0.00043634
     atom   76 type  2   force =    -0.00018583   -0.00010992    0.00043634
     atom   77 type  2   force =     0.00003397   -0.00022865   -0.00005634
     atom   78 type  2   force =    -0.00021500    0.00008490   -0.00005634
     atom   79 type  2   force =    -0.00064087    0.00069474   -0.00008604
     atom   80 type  2   force =    -0.00092210   -0.00020765    0.00008604
     atom   81 type  2   force =     0.00092210    0.00020765   -0.00008604
     atom   82 type  2   force =    -0.00028122   -0.00090238   -0.00008604
     atom   83 type  2   force =     0.00028122    0.00090238    0.00008604
     atom   84 type  2   force =     0.00064088   -0.00069473    0.00008604
     atom   85 type  2   force =     0.00021500   -0.00008490    0.00005634
     atom   86 type  2   force =    -0.00018811    0.00010597   -0.00043634
     atom   87 type  2   force =    -0.00018103   -0.00014375    0.00005634
     atom   88 type  2   force =    -0.00003397    0.00022865    0.00005634
     atom   89 type  2   force =     0.00018583    0.00010992   -0.00043634
     atom   90 type  2   force =     0.00000228   -0.00021589   -0.00043634
     atom   91 type  1   force =     0.00000000   -0.00000000   -0.00025727
     atom   92 type  1   force =     0.00000000    0.00000000    0.00041465
     atom   93 type  1   force =    -0.00000000    0.00000000    0.00024019
     atom   94 type  1   force =    -0.00000000    0.00000000    0.00004390
     atom   95 type  1   force =     0.00000000   -0.00000000    0.00048521
     atom   96 type  1   force =     0.00000000    0.00000000    0.00016679
     atom   97 type  1   force =    -0.00000000    0.00000000   -0.00016679
     atom   98 type  1   force =    -0.00000000    0.00000000   -0.00048521
     atom   99 type  1   force =    -0.00000000   -0.00000000   -0.00004390
     atom  100 type  1   force =     0.00000000   -0.00000000   -0.00024019
     atom  101 type  1   force =     0.00000000   -0.00000000   -0.00041465
     atom  102 type  1   force =     0.00000000    0.00000000    0.00025727
     atom  103 type  2   force =    -0.00000228    0.00021589    0.00043634
     atom  104 type  2   force =     0.00018103    0.00014375   -0.00005634
     atom  105 type  2   force =     0.00018811   -0.00010597    0.00043634
     atom  106 type  2   force =    -0.00018583   -0.00010992    0.00043634
     atom  107 type  2   force =     0.00003397   -0.00022865   -0.00005634
     atom  108 type  2   force =    -0.00021500    0.00008490   -0.00005634
     atom  109 type  2   force =    -0.00064088    0.00069474   -0.00008604
     atom  110 type  2   force =    -0.00092210   -0.00020765    0.00008604
     atom  111 type  2   force =     0.00092210    0.00020765   -0.00008604
     atom  112 type  2   force =    -0.00028122   -0.00090238   -0.00008604
     atom  113 type  2   force =     0.00028122    0.00090238    0.00008604
     atom  114 type  2   force =     0.00064088   -0.00069474    0.00008604
     atom  115 type  2   force =     0.00021500   -0.00008490    0.00005634
     atom  116 type  2   force =    -0.00018811    0.00010597   -0.00043634
     atom  117 type  2   force =    -0.00018103   -0.00014375    0.00005634
     atom  118 type  2   force =    -0.00003397    0.00022865    0.00005634
     atom  119 type  2   force =     0.00018583    0.00010992   -0.00043634
     atom  120 type  2   force =     0.00000228   -0.00021589   -0.00043634

     Total force =     0.005758     Total SCF correction =     0.000021


     Computing stress (Cartesian axis) and pressure


     negative rho (up, down):  4.842E-03 0.000E+00
          total   stress  (Ry/bohr**3)                   (kbar)     P=       14.47
   0.00015385   0.00000000   0.00000000           22.63        0.00        0.00
   0.00000000   0.00015385   0.00000000            0.00       22.63        0.00
   0.00000000  -0.00000000  -0.00001259            0.00       -0.00       -1.85

     Energy error            =      1.3E-04 Ry
     Gradient error          =      9.2E-04 Ry/Bohr

     number of scf cycles    =  18
     number of bfgs steps    =  17

     energy             old  =   -4910.9426291244 Ry
     energy             new  =   -4910.9427560808 Ry

     CASE: energy            _new < energy            _old

     new trust radius        =       0.0028811011 bohr
     new conv_thr            =            1.0E-10 Ry


ATOMIC_POSITIONS (angstrom)
Al               0.0000000004        2.7741837603       23.9962031667
Al               2.4025136102        1.3870918801       22.0817640172
Al               0.0000000000       -0.0000000000       21.6304405070
Al              -0.0000000003        2.7741837603       19.9365851688
Al               0.0000000000       -0.0000000000       15.0839342941
Al               0.0000000006        2.7741837609       14.0869953380
Al               2.4025136111        1.3870918799       25.2617644120
Al              -0.0000000000       -0.0000000000       24.2648254559
Al               2.4025136102        1.3870918804       19.4121745812
Al               0.0000000000        0.0000000000       17.7183192430
Al              -0.0000000000        2.7741837602       17.2669957328
Al               2.4025136105        1.3870918798       15.3525565833
O                0.9309074448        1.3810322395       20.7677784443
O                1.6582129244        2.8645421133       22.9755571472
O                3.1330689204        2.6645700292       20.7677784440
O                3.1435645143        0.1156733412       20.7677784438
O                4.0541733861        1.2929500656       22.9755571476
O                1.4951545204        0.0037834619       22.9755571481
O               -1.5154429307        2.8400514921       25.1487194851
O                1.5877490456        0.1076136653       14.2000402649
O                0.8147645639        4.0536619634       25.1487194845
O                0.7006783182        1.4288378446       25.1487194851
O                1.7018352939        2.7324377944       14.2000402649
O                3.9179565413        1.3212241491       14.2000402655
O                3.3098727009       -0.0037834617       16.3732026028
O               -0.7305553099        1.4967056093       18.5809813057
O                0.7443006861        1.2967335279       16.3732026019
O                3.1533674442        2.8683255742       16.3732026021
O               -0.7410509037        4.0456022898       18.5809813060
O                1.4716061636        2.7802434004       18.5809813062
Al              -2.4025136100        6.9354593995       23.9962031667
Al               0.0000000000        5.5483675200       22.0817640178
Al              -2.4025136101        4.1612756401       21.6304405061
Al              -2.4025136096        6.9354594001       19.9365851688
Al              -2.4025136104        4.1612756401       15.0839342954
Al              -2.4025136095        6.9354593990       14.0869953380
Al               0.0000000000        5.5483675200       25.2617644125
Al              -2.4025136096        4.1612756399       24.2648254546
Al               0.0000000000        5.5483675200       19.4121745817
Al              -2.4025136099        4.1612756399       17.7183192439
Al              -2.4025136098        6.9354593999       17.2669957328
Al               0.0000000000        5.5483675200       15.3525565839
O               -1.4716061653        5.5423078796       20.7677784443
O               -0.7443006860        7.0258177522       22.9755571479
O                0.7305553101        6.8258456608       20.7677784443
O                0.7410509052        4.2769489797       20.7677784443
O                1.6516597758        5.4542257058       22.9755571479
O               -0.9073590898        4.1650591019       22.9755571479
O               -3.9179565426        7.0013271308       25.1487194851
O               -0.8147645656        4.2688893068       14.2000402656
O               -1.5877490454        8.2149376023       25.1487194851
O               -1.7018352926        5.5901134856       25.1487194845
O               -0.7006783163        6.8937134257       14.2000402656
O                1.5154429319        5.4824997875       14.2000402656
O                0.9073590902        4.1574921783       16.3732026024
O               -3.1330689192        5.6579812508       18.5809813062
O               -1.6582129241        5.4580091674       16.3732026024
O                0.7508538339        7.0296012144       16.3732026024
O               -3.1435645152        8.2068779302       18.5809813057
O               -0.9309074460        6.9415190394       18.5809813060
Al               4.8050272200        2.7741837600       23.9962031661
Al               7.2075408298        1.3870918801       22.0817640172
Al               4.8050272201        0.0000000000       21.6304405061
Al               4.8050272200        2.7741837600       19.9365851683
Al               4.8050272202        0.0000000003       15.0839342954
Al               4.8050272200        2.7741837600       14.0869953375
Al               7.2075408295        1.3870918810       25.2617644120
Al               4.8050272198       -0.0000000003       24.2648254546
Al               7.2075408296        1.3870918799       19.4121745812
Al               4.8050272199       -0.0000000000       17.7183192439
Al               4.8050272200        2.7741837600       17.2669957322
Al               7.2075408300        1.3870918805       15.3525565833
O                5.7359346660        1.3810322406       20.7677784440
O                6.4632401441        2.8645421126       22.9755571476
O                7.9380961392        2.6645700292       20.7677784438
O                7.9485917352        0.1156733398       20.7677784443
O                8.8592006057        1.2929500660       22.9755571481
O                6.3001817391        0.0037834617       22.9755571472
O                3.2895842881        2.8400514925       25.1487194844
O                6.3927762654        0.1076136677       14.2000402649
O                5.6197917856        4.0536619632       25.1487194844
O                5.5057055363        1.4288378443       25.1487194844
O                6.5068625126        2.7324377944       14.2000402655
O                8.7229837626        1.3212241492       14.2000402649
O                8.1148999196       -0.0037834619       16.3732026019
O                4.0744719099        1.4967056092       18.5809813057
O                5.5493279060        1.2967335278       16.3732026021
O                7.9583946635        2.8683255750       16.3732026028
O                4.0639763148        4.0456022903       18.5809813057
O                6.2766333853        2.7802434004       18.5809813057
Al               2.4025136095        6.9354594002       23.9962031667
Al               4.8050272200        5.5483675198       22.0817640172
Al               2.4025136100        4.1612756399       21.6304405061
Al               2.4025136098        6.9354593996       19.9365851688
Al               2.4025136101        4.1612756396       15.0839342954
Al               2.4025136089        6.9354594001       14.0869953380
Al               4.8050272194        5.5483675191       25.2617644120
Al               2.4025136099        4.1612756404       24.2648254546
Al               4.8050272203        5.5483675197       19.4121745812
Al               2.4025136100        4.1612756401       17.7183192439
Al               2.4025136098        6.9354593999       17.2669957328
Al               4.8050272196        5.5483675197       15.3525565833
O                3.3334210564        5.5423078796       20.7677784438
O                4.0607265339        7.0258177521       22.9755571481
O                5.5355825299        6.8258456607       20.7677784443
O                5.5460781237        4.2769489802       20.7677784440
O                6.4566869965        5.4542257050       22.9755571472
O                3.8976681298        4.1650591017       22.9755571476
O                0.8870706787        7.0013271309       25.1487194845
O                3.9902626561        4.2688893066       14.2000402655
O                3.2172781744        8.2149376047       25.1487194851
O                3.1031919261        5.5901134856       25.1487194851
O                4.1043489018        6.8937134254       14.2000402649
O                6.3204701507        5.4824997879       14.2000402649
O                5.7123863098        4.1574921781       16.3732026021
O                1.6719582996        5.6579812508       18.5809813060
O                3.1468142956        5.4580091667       16.3732026028
O                5.5558810543        7.0296012140       16.3732026019
O                1.6614627057        8.2068779288       18.5809813062
O                3.8741197752        6.9415190405       18.5809813057



     Writing config-only to output data dir ./tmp/al2o3.save/ :
     XML data file
     NEW-OLD atomic charge density approx. for the potential

     negative rho (up, down):  4.857E-03 0.000E+00

     total cpu time spent up to now is    28588.8 secs

     Self-consistent Calculation

     iteration #  1     ecut=    60.00 Ry     beta= 0.30
     Davidson diagonalization with overlap
     ethr =  1.00E-06,  avg # of iterations =  2.0

     Threshold (ethr) on eigenvalues was too large:
     Diagonalizing with lowered threshold

     Davidson diagonalization with overlap
     ethr =  3.13E-09,  avg # of iterations =  5.0

     negative rho (up, down):  4.852E-03 0.000E+00

     total cpu time spent up to now is    28796.7 secs

     total energy              =   -4910.94279418 Ry
     estimated scf accuracy    <       0.00002582 Ry

     iteration #  2     ecut=    60.00 Ry     beta= 0.30
     Davidson diagonalization with overlap
     ethr =  4.48E-09,  avg # of iterations =  1.8

     negative rho (up, down):  4.846E-03 0.000E+00

     total cpu time spent up to now is    28864.8 secs

     total energy              =   -4910.94279213 Ry
     estimated scf accuracy    <       0.00000751 Ry

     iteration #  3     ecut=    60.00 Ry     beta= 0.30
     Davidson diagonalization with overlap
     ethr =  1.30E-09,  avg # of iterations =  2.0

     negative rho (up, down):  4.844E-03 0.000E+00

     total cpu time spent up to now is    28951.7 secs

     total energy              =   -4910.94279377 Ry
     estimated scf accuracy    <       0.00000050 Ry

     iteration #  4     ecut=    60.00 Ry     beta= 0.30
     Davidson diagonalization with overlap
     ethr =  8.69E-11,  avg # of iterations =  4.2

     negative rho (up, down):  4.843E-03 0.000E+00

     total cpu time spent up to now is    29041.1 secs

     total energy              =   -4910.94279392 Ry
     estimated scf accuracy    <       0.00000012 Ry

     iteration #  5     ecut=    60.00 Ry     beta= 0.30
     Davidson diagonalization with overlap
     ethr =  2.16E-11,  avg # of iterations =  2.5

     negative rho (up, down):  4.843E-03 0.000E+00

     total cpu time spent up to now is    29127.7 secs

     total energy              =   -4910.94279393 Ry
     estimated scf accuracy    <       0.00000002 Ry

     iteration #  6     ecut=    60.00 Ry     beta= 0.30
     Davidson diagonalization with overlap
     ethr =  3.39E-12,  avg # of iterations =  4.0

     negative rho (up, down):  4.842E-03 0.000E+00

     total cpu time spent up to now is    29221.4 secs

     total energy              =   -4910.94279393 Ry
     estimated scf accuracy    <          7.6E-09 Ry

     iteration #  7     ecut=    60.00 Ry     beta= 0.30
     Davidson diagonalization with overlap
     ethr =  1.31E-12,  avg # of iterations =  2.0

     negative rho (up, down):  4.842E-03 0.000E+00

     total cpu time spent up to now is    29307.9 secs

     total energy              =   -4910.94279393 Ry
     estimated scf accuracy    <          4.3E-10 Ry

     iteration #  8     ecut=    60.00 Ry     beta= 0.30
     Davidson diagonalization with overlap
     ethr =  1.00E-13,  avg # of iterations =  3.8

     negative rho (up, down):  4.842E-03 0.000E+00

     total cpu time spent up to now is    29398.1 secs

     End of self-consistent calculation

          k = 0.0000 0.0000 0.0000 (166875 PWs)   bands (ev):

   -20.8586 -20.5244 -20.1491 -19.9414 -19.9414 -19.9414 -19.8681 -19.8681
   -19.8681 -19.6671 -19.6671 -19.6671 -19.5922 -19.4768 -19.4768 -19.4768
   -19.2204 -19.2204 -19.2204 -19.2194 -19.2194 -19.2194 -18.9591 -18.8967
   -18.8967 -18.8967 -18.8162 -18.8162 -18.8162 -18.7805 -18.7805 -18.7805
   -18.7459 -18.6167 -18.6167 -18.6167 -18.5107 -18.5107 -18.5107 -18.4891
   -18.4891 -18.4763 -18.4763 -18.4763 -18.3744 -18.3744 -18.3744 -18.3686
   -18.3686 -18.3246 -18.3246 -18.3246 -18.3084 -18.3084 -18.3084 -18.2658
   -18.2658 -18.2513 -18.2513 -18.2172 -18.2172 -18.2172 -18.1361 -18.1361
   -18.1361 -18.1183 -18.1183 -18.1074 -18.1074 -18.1017 -18.1017 -18.1017
    -8.3837  -8.2147  -8.2147  -8.2147  -8.1200  -8.1200  -8.1200  -7.8408
    -7.8408  -7.8408  -7.7644  -7.6676  -7.6676  -7.6676  -7.5350  -7.4894
    -7.3984  -7.3984  -7.3984  -7.2259  -7.2259  -7.2136  -7.2136  -7.2136
    -7.1042  -7.0196  -7.0196  -7.0196  -6.9022  -6.9022  -6.9022  -6.8558
    -6.8558  -6.7184  -6.6401  -6.6401  -6.6401  -6.6336  -6.6336  -6.6336
    -6.5149  -6.5149  -6.5149  -6.4982  -6.3500  -6.3500  -6.0216  -5.9679
    -5.9679  -5.9347  -5.9347  -5.9347  -5.8181  -5.8181  -5.8181  -5.7961
    -5.7961  -5.7502  -5.7502  -5.7502  -5.6754  -5.6754  -5.6320  -5.6320
    -5.6320  -5.6286  -5.5377  -5.5377  -5.5377  -5.5178  -5.5178  -5.5178
    -5.3883  -5.3883  -5.3883  -5.3835  -5.2919  -5.2919  -5.2919  -5.2698
    -5.1667  -5.1667  -5.1667  -5.0160  -5.0160  -5.0160  -5.0053  -4.8354
    -4.8354  -4.8354  -4.7719  -4.6603  -4.6603  -4.6603  -4.5503  -4.4342
    -4.3863  -4.3863  -4.3863  -4.2540  -4.2540  -4.2540  -4.1849  -4.1849
    -4.1849  -4.0654  -4.0654  -4.0654  -4.0636  -4.0636  -4.0636  -4.0362
    -4.0362  -4.0362  -4.0291  -4.0291  -3.9491  -3.9491  -3.7836  -3.7693
    -3.7693  -3.7693  -3.7266  -3.7266  -3.7266  -3.5572  -3.5572  -3.5572
    -3.4989  -3.4989  -3.4989  -3.4543  -3.4543  -3.4543  -3.3662  -3.3662
    -3.3356  -3.3356  -3.3166  -3.3166  -3.3166  -3.2977  -3.2977  -3.2977
    -3.2801  -3.2801  -3.2801  -3.2208  -3.2208  -3.2208  -3.1897  -3.1897
    -3.1897  -3.0734  -3.0734  -3.0734  -3.0022  -3.0022  -3.0022  -2.9802
    -2.9802  -2.9802  -2.9683  -2.9683  -2.9650  -2.9650  -2.9650  -2.9441
    -2.9441  -2.9441  -2.9406  -2.9406  -2.8663  -2.8663  -2.8663  -2.8093
    -2.7636  -2.7636  -2.7636  -2.5738  -2.5738  -2.5738  -2.5553  -2.5553
    -2.5553  -2.4592  -2.4592  -2.4424  -2.4424  -2.4424  -2.3800  -2.3800
    -2.3534  -2.3534  -2.3534  -2.2354  -2.2354  -2.1846  -2.1275  -2.1275
    -2.1275  -2.1040  -2.1040  -2.0879  -2.0879  -2.0879  -2.0157  -2.0157
    -2.0157  -1.9564  -1.9564  -1.9564  -1.8920  -1.8920  -1.8758  -1.8758

          k = 0.0000 0.2887 0.0000 (166721 PWs)   bands (ev):

   -20.7892 -20.4577 -20.2756 -20.0887 -20.0514 -20.0513 -19.9755 -19.7970
   -19.7949 -19.6831 -19.6416 -19.6355 -19.5446 -19.4461 -19.4400 -19.4222
   -19.2248 -19.2149 -19.1071 -19.1061 -19.0877 -19.0742 -18.9664 -18.9577
   -18.9243 -18.8944 -18.8671 -18.8447 -18.7604 -18.7384 -18.7280 -18.7141
   -18.6910 -18.6671 -18.6371 -18.5979 -18.5943 -18.5907 -18.5836 -18.5581
   -18.5575 -18.4924 -18.4800 -18.4789 -18.4412 -18.4144 -18.4129 -18.4126
   -18.4066 -18.3617 -18.3526 -18.3286 -18.3200 -18.3186 -18.2991 -18.2777
   -18.2719 -18.2655 -18.2226 -18.1862 -18.1699 -18.1525 -18.1418 -18.1328
   -18.1121 -18.1107 -18.0965 -18.0961 -18.0936 -18.0929 -18.0926 -18.0820
    -8.3294  -8.2154  -8.1125  -8.0937  -8.0203  -7.9956  -7.9722  -7.8699
    -7.7962  -7.7151  -7.7076  -7.6626  -7.5975  -7.5885  -7.5884  -7.5676
    -7.5423  -7.5281  -7.4591  -7.4040  -7.2220  -7.2157  -7.1904  -7.1825
    -7.1493  -7.1375  -7.1360  -7.0386  -7.0104  -6.9257  -6.8988  -6.8295
    -6.8183  -6.7886  -6.7612  -6.7433  -6.7163  -6.6798  -6.6454  -6.5578
    -6.5352  -6.5271  -6.5170  -6.5151  -6.3244  -6.2339  -6.1417  -6.1341
    -6.1320  -6.0646  -6.0379  -6.0202  -6.0053  -5.9231  -5.9012  -5.9001
    -5.8964  -5.8403  -5.8251  -5.8205  -5.7988  -5.7025  -5.6808  -5.6807
    -5.6448  -5.6107  -5.6105  -5.5448  -5.5418  -5.4973  -5.4648  -5.4476
    -5.2944  -5.2274  -5.1540  -5.1404  -5.0810  -5.0808  -5.0633  -5.0536
    -5.0471  -5.0139  -4.9903  -4.9688  -4.9547  -4.8827  -4.8659  -4.7607
    -4.7254  -4.6534  -4.6377  -4.6340  -4.5904  -4.5148  -4.4962  -4.4667
    -4.4373  -4.4114  -4.3961  -4.3784  -4.2931  -4.2928  -4.2714  -4.2510
    -4.2445  -4.2075  -4.1756  -4.1704  -4.1175  -4.0675  -4.0643  -4.0418
    -3.9569  -3.9185  -3.8887  -3.8831  -3.8651  -3.8469  -3.8372  -3.8358
    -3.7623  -3.7588  -3.7223  -3.6912  -3.6817  -3.6302  -3.6198  -3.6028
    -3.5764  -3.5498  -3.5065  -3.5050  -3.4792  -3.4675  -3.4587  -3.4516
    -3.4298  -3.4112  -3.4105  -3.3614  -3.3591  -3.3342  -3.3091  -3.2979
    -3.2844  -3.2471  -3.2456  -3.2429  -3.2353  -3.2016  -3.1975  -3.1796
    -3.1767  -3.1376  -3.1162  -3.1023  -3.0857  -3.0792  -3.0599  -3.0490
    -3.0328  -3.0087  -2.9844  -2.9803  -2.9509  -2.9455  -2.9276  -2.9177
    -2.8470  -2.8246  -2.8239  -2.7784  -2.7661  -2.7531  -2.7366  -2.7338
    -2.7326  -2.7303  -2.6732  -2.6069  -2.5997  -2.5950  -2.5635  -2.5557
    -2.5248  -2.5146  -2.5096  -2.4848  -2.4617  -2.3878  -2.3867  -2.3759
    -2.3595  -2.3516  -2.3488  -2.3335  -2.3073  -2.2347  -2.1675  -2.1562
    -2.1384  -2.1218  -2.1196  -2.0879  -2.0866  -2.0816  -2.0716  -2.0196
    -2.0187  -2.0085  -1.9854  -1.9657  -1.9595  -1.9438  -1.9136  -1.8823

          k = 0.0000-0.5774 0.0000 (166636 PWs)   bands (ev):

   -20.5876 -20.5876 -20.2651 -20.2651 -20.1027 -20.1027 -19.9163 -19.9163
   -19.8183 -19.8183 -19.5618 -19.5618 -19.4216 -19.4216 -19.4017 -19.4017
   -19.1716 -19.1716 -19.0694 -19.0694 -18.9482 -18.9482 -18.9257 -18.9257
   -18.8875 -18.8875 -18.8085 -18.8085 -18.7853 -18.7853 -18.7601 -18.7601
   -18.7376 -18.7376 -18.6717 -18.6717 -18.5726 -18.5726 -18.5411 -18.5411
   -18.5247 -18.5247 -18.5229 -18.5229 -18.5034 -18.5034 -18.4870 -18.4870
   -18.4087 -18.4087 -18.4028 -18.4028 -18.3324 -18.3324 -18.3198 -18.3198
   -18.2055 -18.2055 -18.1738 -18.1738 -18.1376 -18.1376 -18.1209 -18.1209
   -18.1086 -18.1086 -18.0999 -18.0999 -18.0800 -18.0800 -18.0724 -18.0724
    -8.2209  -8.2209  -7.9298  -7.9298  -7.8668  -7.8668  -7.8117  -7.8117
    -7.7810  -7.7810  -7.7188  -7.7188  -7.6555  -7.6555  -7.5033  -7.5033
    -7.4272  -7.4272  -7.4097  -7.4097  -7.3801  -7.3801  -7.2982  -7.2982
    -7.1949  -7.1949  -7.1744  -7.1744  -7.0637  -7.0637  -7.0572  -7.0572
    -6.8658  -6.8658  -6.8315  -6.8315  -6.6742  -6.6742  -6.6683  -6.6683
    -6.3794  -6.3794  -6.3587  -6.3587  -6.3274  -6.3274  -6.2969  -6.2969
    -6.2305  -6.2305  -6.2160  -6.2160  -6.0159  -6.0159  -5.9712  -5.9712
    -5.8749  -5.8749  -5.7995  -5.7995  -5.7862  -5.7862  -5.7742  -5.7742
    -5.6906  -5.6906  -5.4856  -5.4856  -5.3202  -5.3202  -5.2962  -5.2962
    -5.1876  -5.1876  -5.1522  -5.1522  -5.0918  -5.0918  -4.9822  -4.9822
    -4.9325  -4.9325  -4.8588  -4.8588  -4.7754  -4.7754  -4.7697  -4.7697
    -4.6638  -4.6638  -4.5878  -4.5878  -4.5636  -4.5636  -4.4233  -4.4233
    -4.3638  -4.3638  -4.3321  -4.3321  -4.3072  -4.3072  -4.1555  -4.1555
    -4.1444  -4.1444  -4.0935  -4.0935  -4.0798  -4.0798  -4.0157  -4.0157
    -3.9339  -3.9339  -3.9169  -3.9169  -3.9127  -3.9127  -3.8768  -3.8768
    -3.7806  -3.7806  -3.7321  -3.7321  -3.6742  -3.6742  -3.6658  -3.6658
    -3.6226  -3.6226  -3.6179  -3.6179  -3.5198  -3.5198  -3.4813  -3.4813
    -3.4421  -3.4421  -3.3820  -3.3820  -3.3548  -3.3548  -3.3012  -3.3012
    -3.3006  -3.3006  -3.2556  -3.2556  -3.2471  -3.2471  -3.2131  -3.2131
    -3.1517  -3.1517  -3.1367  -3.1367  -3.0859  -3.0859  -3.0636  -3.0636
    -3.0204  -3.0204  -2.9616  -2.9616  -2.8971  -2.8971  -2.8763  -2.8763
    -2.8745  -2.8745  -2.8142  -2.8142  -2.7484  -2.7484  -2.7319  -2.7319
    -2.7195  -2.7195  -2.6723  -2.6723  -2.6205  -2.6205  -2.5689  -2.5689
    -2.5428  -2.5428  -2.4683  -2.4683  -2.4561  -2.4561  -2.3646  -2.3646
    -2.3285  -2.3285  -2.3057  -2.3057  -2.2964  -2.2964  -2.2607  -2.2607
    -2.1772  -2.1772  -2.1113  -2.1113  -2.1059  -2.1059  -2.0075  -2.0075
    -1.9947  -1.9947  -1.9893  -1.9893  -1.9550  -1.9550  -1.9366  -1.9366

          k = 0.2500 0.4330 0.0000 (166642 PWs)   bands (ev):

   -20.6537 -20.3963 -20.3963 -20.3280 -20.0849 -20.0848 -19.9720 -19.7890
   -19.7608 -19.7603 -19.7263 -19.5483 -19.4814 -19.4576 -19.3530 -19.3514
   -19.2188 -19.1411 -19.0522 -19.0456 -19.0327 -18.9536 -18.9399 -18.9353
   -18.8806 -18.8508 -18.8236 -18.8127 -18.8074 -18.7322 -18.7306 -18.7150
   -18.7145 -18.6867 -18.6584 -18.6500 -18.6411 -18.6305 -18.6194 -18.5487
   -18.5333 -18.5326 -18.5273 -18.5155 -18.4934 -18.4800 -18.4572 -18.4431
   -18.4322 -18.4262 -18.3857 -18.3816 -18.3786 -18.3375 -18.3331 -18.2786
   -18.2381 -18.2082 -18.1639 -18.1599 -18.1582 -18.1323 -18.1216 -18.1152
   -18.1090 -18.1009 -18.0968 -18.0904 -18.0833 -18.0787 -18.0778 -18.0740
    -8.2246  -8.1212  -8.1055  -7.9509  -7.8864  -7.8738  -7.8461  -7.8163
    -7.7547  -7.7517  -7.6664  -7.6540  -7.6045  -7.5693  -7.5419  -7.5259
    -7.4683  -7.4526  -7.4458  -7.4278  -7.3661  -7.3569  -7.3383  -7.2603
    -7.2593  -7.2254  -7.1622  -7.0959  -7.0797  -7.0748  -7.0173  -6.8978
    -6.8841  -6.8673  -6.8487  -6.8197  -6.7545  -6.6887  -6.6685  -6.6233
    -6.5021  -6.4163  -6.4055  -6.3888  -6.3578  -6.3412  -6.2962  -6.2733
    -6.2471  -6.1771  -6.1678  -6.1221  -6.0474  -6.0472  -6.0052  -5.9668
    -5.8870  -5.8756  -5.8291  -5.8014  -5.7951  -5.7896  -5.6883  -5.6386
    -5.5868  -5.5686  -5.5273  -5.5000  -5.4868  -5.4811  -5.3848  -5.3345
    -5.2954  -5.2579  -5.1951  -5.1415  -5.0894  -5.0192  -4.9875  -4.9278
    -4.8990  -4.8727  -4.8644  -4.8285  -4.7599  -4.7457  -4.6949  -4.6498
    -4.6422  -4.6275  -4.6088  -4.5588  -4.5036  -4.4699  -4.4629  -4.4089
    -4.3991  -4.3691  -4.3508  -4.2977  -4.2803  -4.2576  -4.2381  -4.2101
    -4.1282  -4.1035  -4.1018  -4.0909  -4.0541  -4.0330  -4.0152  -4.0133
    -3.9813  -3.9785  -3.9432  -3.9308  -3.9131  -3.9082  -3.8671  -3.8541
    -3.8366  -3.7663  -3.7431  -3.7326  -3.7313  -3.7065  -3.6952  -3.6840
    -3.6483  -3.6418  -3.6231  -3.5869  -3.5535  -3.5404  -3.5155  -3.4859
    -3.4665  -3.4457  -3.4164  -3.4161  -3.3903  -3.3799  -3.3281  -3.3277
    -3.3221  -3.2887  -3.2862  -3.2755  -3.2567  -3.2174  -3.1553  -3.1513
    -3.1409  -3.1106  -3.1020  -3.0910  -3.0772  -3.0618  -3.0581  -3.0192
    -3.0070  -3.0068  -2.9749  -2.9638  -2.9367  -2.9295  -2.9133  -2.8467
    -2.8441  -2.8330  -2.8315  -2.7640  -2.7584  -2.7512  -2.7363  -2.7232
    -2.7025  -2.6909  -2.6809  -2.6661  -2.6526  -2.6236  -2.5988  -2.5571
    -2.5351  -2.5172  -2.5056  -2.4891  -2.4495  -2.4117  -2.4086  -2.3638
    -2.3604  -2.3461  -2.3270  -2.3234  -2.2935  -2.2868  -2.2631  -2.2080
    -2.1875  -2.1620  -2.1495  -2.1493  -2.1172  -2.0604  -2.0296  -2.0061
    -2.0039  -1.9981  -1.9948  -1.9493  -1.9464  -1.9354  -1.9347  -1.8945

     highest occupied level (ev):    -1.8758

!    total energy              =   -4910.94279394 Ry
     total all-electron energy =    -34162.772563 Ry
     estimated scf accuracy    <          8.7E-11 Ry

     The total energy is the sum of the following terms:
     one-electron contribution =  -81749.97936047 Ry
     hartree contribution      =   41109.67825817 Ry
     xc contribution           =    -676.60161053 Ry
     ewald contribution        =   38753.94635174 Ry
     one-center paw contrib.   =   -2347.98643285 Ry

     convergence has been achieved in   8 iterations

     negative rho (up, down):  4.842E-03 0.000E+00

     Forces acting on atoms (cartesian axes, Ry/au):

     atom    1 type  1   force =    -0.00000000    0.00000000   -0.00014583
     atom    2 type  1   force =     0.00000000    0.00000000    0.00016455
     atom    3 type  1   force =     0.00000000   -0.00000000    0.00020018
     atom    4 type  1   force =     0.00000000    0.00000000   -0.00003376
     atom    5 type  1   force =    -0.00000000    0.00000000    0.00019673
     atom    6 type  1   force =    -0.00000000    0.00000000    0.00003871
     atom    7 type  1   force =     0.00000000    0.00000000   -0.00003871
     atom    8 type  1   force =     0.00000000   -0.00000000   -0.00019673
     atom    9 type  1   force =     0.00000000   -0.00000000    0.00003376
     atom   10 type  1   force =     0.00000000    0.00000000   -0.00020018
     atom   11 type  1   force =     0.00000000    0.00000000   -0.00016455
     atom   12 type  1   force =     0.00000000    0.00000000    0.00014583
     atom   13 type  2   force =    -0.00001063    0.00019995    0.00035662
     atom   14 type  2   force =    -0.00003852    0.00005612   -0.00012006
     atom   15 type  2   force =     0.00017847   -0.00009077    0.00035662
     atom   16 type  2   force =    -0.00016785   -0.00010918    0.00035662
     atom   17 type  2   force =     0.00006786    0.00000530   -0.00012006
     atom   18 type  2   force =    -0.00002934   -0.00006142   -0.00012006
     atom   19 type  2   force =    -0.00008504    0.00023298    0.00000095
     atom   20 type  2   force =    -0.00024429    0.00004284   -0.00000095
     atom   21 type  2   force =     0.00024429   -0.00004284    0.00000095
     atom   22 type  2   force =    -0.00015925   -0.00019014    0.00000095
     atom   23 type  2   force =     0.00015925    0.00019014   -0.00000095
     atom   24 type  2   force =     0.00008504   -0.00023298   -0.00000095
     atom   25 type  2   force =     0.00002934    0.00006142    0.00012006
     atom   26 type  2   force =    -0.00017847    0.00009077   -0.00035662
     atom   27 type  2   force =     0.00003852   -0.00005612    0.00012006
     atom   28 type  2   force =    -0.00006786   -0.00000530    0.00012006
     atom   29 type  2   force =     0.00016785    0.00010918   -0.00035662
     atom   30 type  2   force =     0.00001063   -0.00019995   -0.00035662
     atom   31 type  1   force =     0.00000000    0.00000000   -0.00014583
     atom   32 type  1   force =     0.00000000   -0.00000000    0.00016455
     atom   33 type  1   force =    -0.00000000   -0.00000000    0.00020018
     atom   34 type  1   force =     0.00000000   -0.00000000   -0.00003376
     atom   35 type  1   force =     0.00000000    0.00000000    0.00019673
     atom   36 type  1   force =     0.00000000   -0.00000000    0.00003871
     atom   37 type  1   force =     0.00000000   -0.00000000   -0.00003871
     atom   38 type  1   force =    -0.00000000   -0.00000000   -0.00019673
     atom   39 type  1   force =     0.00000000   -0.00000000    0.00003376
     atom   40 type  1   force =     0.00000000    0.00000000   -0.00020018
     atom   41 type  1   force =     0.00000000   -0.00000000   -0.00016455
     atom   42 type  1   force =     0.00000000   -0.00000000    0.00014583
     atom   43 type  2   force =    -0.00001063    0.00019995    0.00035662
     atom   44 type  2   force =    -0.00003852    0.00005612   -0.00012006
     atom   45 type  2   force =     0.00017847   -0.00009077    0.00035662
     atom   46 type  2   force =    -0.00016785   -0.00010918    0.00035662
     atom   47 type  2   force =     0.00006786    0.00000530   -0.00012006
     atom   48 type  2   force =    -0.00002934   -0.00006142   -0.00012006
     atom   49 type  2   force =    -0.00008504    0.00023298    0.00000095
     atom   50 type  2   force =    -0.00024429    0.00004284   -0.00000095
     atom   51 type  2   force =     0.00024429   -0.00004284    0.00000095
     atom   52 type  2   force =    -0.00015925   -0.00019014    0.00000095
     atom   53 type  2   force =     0.00015925    0.00019014   -0.00000095
     atom   54 type  2   force =     0.00008504   -0.00023298   -0.00000095
     atom   55 type  2   force =     0.00002934    0.00006142    0.00012006
     atom   56 type  2   force =    -0.00017847    0.00009077   -0.00035662
     atom   57 type  2   force =     0.00003852   -0.00005612    0.00012006
     atom   58 type  2   force =    -0.00006786   -0.00000530    0.00012006
     atom   59 type  2   force =     0.00016785    0.00010918   -0.00035662
     atom   60 type  2   force =     0.00001063   -0.00019995   -0.00035662
     atom   61 type  1   force =     0.00000000    0.00000000   -0.00014583
     atom   62 type  1   force =    -0.00000000    0.00000000    0.00016455
     atom   63 type  1   force =    -0.00000000    0.00000000    0.00020018
     atom   64 type  1   force =     0.00000000    0.00000000   -0.00003376
     atom   65 type  1   force =    -0.00000000   -0.00000000    0.00019673
     atom   66 type  1   force =     0.00000000    0.00000000    0.00003871
     atom   67 type  1   force =    -0.00000000    0.00000000   -0.00003871
     atom   68 type  1   force =     0.00000000    0.00000000   -0.00019673
     atom   69 type  1   force =    -0.00000000    0.00000000    0.00003376
     atom   70 type  1   force =     0.00000000   -0.00000000   -0.00020018
     atom   71 type  1   force =     0.00000000    0.00000000   -0.00016455
     atom   72 type  1   force =    -0.00000000   -0.00000000    0.00014583
     atom   73 type  2   force =    -0.00001063    0.00019995    0.00035662
     atom   74 type  2   force =    -0.00003852    0.00005612   -0.00012006
     atom   75 type  2   force =     0.00017847   -0.00009077    0.00035662
     atom   76 type  2   force =    -0.00016785   -0.00010918    0.00035662
     atom   77 type  2   force =     0.00006786    0.00000530   -0.00012006
     atom   78 type  2   force =    -0.00002934   -0.00006142   -0.00012006
     atom   79 type  2   force =    -0.00008504    0.00023298    0.00000095
     atom   80 type  2   force =    -0.00024429    0.00004284   -0.00000095
     atom   81 type  2   force =     0.00024429   -0.00004284    0.00000095
     atom   82 type  2   force =    -0.00015925   -0.00019014    0.00000095
     atom   83 type  2   force =     0.00015925    0.00019014   -0.00000095
     atom   84 type  2   force =     0.00008504   -0.00023298   -0.00000095
     atom   85 type  2   force =     0.00002934    0.00006142    0.00012006
     atom   86 type  2   force =    -0.00017847    0.00009077   -0.00035662
     atom   87 type  2   force =     0.00003852   -0.00005612    0.00012006
     atom   88 type  2   force =    -0.00006786   -0.00000530    0.00012006
     atom   89 type  2   force =     0.00016785    0.00010918   -0.00035662
     atom   90 type  2   force =     0.00001063   -0.00019995   -0.00035662
     atom   91 type  1   force =    -0.00000000   -0.00000000   -0.00014583
     atom   92 type  1   force =    -0.00000000   -0.00000000    0.00016455
     atom   93 type  1   force =     0.00000000    0.00000000    0.00020018
     atom   94 type  1   force =    -0.00000000    0.00000000   -0.00003376
     atom   95 type  1   force =    -0.00000000    0.00000000    0.00019673
     atom   96 type  1   force =    -0.00000000   -0.00000000    0.00003871
     atom   97 type  1   force =     0.00000000   -0.00000000   -0.00003871
     atom   98 type  1   force =     0.00000000   -0.00000000   -0.00019673
     atom   99 type  1   force =    -0.00000000   -0.00000000    0.00003376
     atom  100 type  1   force =    -0.00000000   -0.00000000   -0.00020018
     atom  101 type  1   force =    -0.00000000   -0.00000000   -0.00016455
     atom  102 type  1   force =     0.00000000   -0.00000000    0.00014583
     atom  103 type  2   force =    -0.00001063    0.00019995    0.00035662
     atom  104 type  2   force =    -0.00003852    0.00005612   -0.00012006
     atom  105 type  2   force =     0.00017847   -0.00009077    0.00035662
     atom  106 type  2   force =    -0.00016785   -0.00010918    0.00035662
     atom  107 type  2   force =     0.00006786    0.00000530   -0.00012006
     atom  108 type  2   force =    -0.00002934   -0.00006142   -0.00012006
     atom  109 type  2   force =    -0.00008504    0.00023298    0.00000095
     atom  110 type  2   force =    -0.00024429    0.00004284   -0.00000095
     atom  111 type  2   force =     0.00024429   -0.00004284    0.00000095
     atom  112 type  2   force =    -0.00015925   -0.00019014    0.00000095
     atom  113 type  2   force =     0.00015925    0.00019014   -0.00000095
     atom  114 type  2   force =     0.00008504   -0.00023298   -0.00000095
     atom  115 type  2   force =     0.00002934    0.00006142    0.00012006
     atom  116 type  2   force =    -0.00017847    0.00009077   -0.00035662
     atom  117 type  2   force =     0.00003852   -0.00005612    0.00012006
     atom  118 type  2   force =    -0.00006786   -0.00000530    0.00012006
     atom  119 type  2   force =     0.00016785    0.00010918   -0.00035662
     atom  120 type  2   force =     0.00001063   -0.00019995   -0.00035662

     Total force =     0.002643     Total SCF correction =     0.000031


     Computing stress (Cartesian axis) and pressure


     negative rho (up, down):  4.842E-03 0.000E+00
          total   stress  (Ry/bohr**3)                   (kbar)     P=       14.60
   0.00015429   0.00000000   0.00000000           22.70        0.00        0.00
   0.00000000   0.00015429   0.00000000            0.00       22.70        0.00
   0.00000000   0.00000000  -0.00001090            0.00        0.00       -1.60

     Energy error            =      3.8E-05 Ry
     Gradient error          =      3.6E-04 Ry/Bohr

     bfgs converged in  19 scf cycles and  18 bfgs steps
     (criteria: energy <  1.0E-04 Ry, force <  1.0E-03 Ry/Bohr)

     End of BFGS Geometry Optimization

     Final energy             =   -4910.9427939369 Ry

     File ./tmp/al2o3.bfgs deleted, as requested
Begin final coordinates

ATOMIC_POSITIONS (angstrom)
Al               0.0000000004        2.7741837603       23.9962031667
Al               2.4025136102        1.3870918801       22.0817640172
Al               0.0000000000       -0.0000000000       21.6304405070
Al              -0.0000000003        2.7741837603       19.9365851688
Al               0.0000000000       -0.0000000000       15.0839342941
Al               0.0000000006        2.7741837609       14.0869953380
Al               2.4025136111        1.3870918799       25.2617644120
Al              -0.0000000000       -0.0000000000       24.2648254559
Al               2.4025136102        1.3870918804       19.4121745812
Al               0.0000000000        0.0000000000       17.7183192430
Al              -0.0000000000        2.7741837602       17.2669957328
Al               2.4025136105        1.3870918798       15.3525565833
O                0.9309074448        1.3810322395       20.7677784443
O                1.6582129244        2.8645421133       22.9755571472
O                3.1330689204        2.6645700292       20.7677784440
O                3.1435645143        0.1156733412       20.7677784438
O                4.0541733861        1.2929500656       22.9755571476
O                1.4951545204        0.0037834619       22.9755571481
O               -1.5154429307        2.8400514921       25.1487194851
O                1.5877490456        0.1076136653       14.2000402649
O                0.8147645639        4.0536619634       25.1487194845
O                0.7006783182        1.4288378446       25.1487194851
O                1.7018352939        2.7324377944       14.2000402649
O                3.9179565413        1.3212241491       14.2000402655
O                3.3098727009       -0.0037834617       16.3732026028
O               -0.7305553099        1.4967056093       18.5809813057
O                0.7443006861        1.2967335279       16.3732026019
O                3.1533674442        2.8683255742       16.3732026021
O               -0.7410509037        4.0456022898       18.5809813060
O                1.4716061636        2.7802434004       18.5809813062
Al              -2.4025136100        6.9354593995       23.9962031667
Al               0.0000000000        5.5483675200       22.0817640178
Al              -2.4025136101        4.1612756401       21.6304405061
Al              -2.4025136096        6.9354594001       19.9365851688
Al              -2.4025136104        4.1612756401       15.0839342954
Al              -2.4025136095        6.9354593990       14.0869953380
Al               0.0000000000        5.5483675200       25.2617644125
Al              -2.4025136096        4.1612756399       24.2648254546
Al               0.0000000000        5.5483675200       19.4121745817
Al              -2.4025136099        4.1612756399       17.7183192439
Al              -2.4025136098        6.9354593999       17.2669957328
Al               0.0000000000        5.5483675200       15.3525565839
O               -1.4716061653        5.5423078796       20.7677784443
O               -0.7443006860        7.0258177522       22.9755571479
O                0.7305553101        6.8258456608       20.7677784443
O                0.7410509052        4.2769489797       20.7677784443
O                1.6516597758        5.4542257058       22.9755571479
O               -0.9073590898        4.1650591019       22.9755571479
O               -3.9179565426        7.0013271308       25.1487194851
O               -0.8147645656        4.2688893068       14.2000402656
O               -1.5877490454        8.2149376023       25.1487194851
O               -1.7018352926        5.5901134856       25.1487194845
O               -0.7006783163        6.8937134257       14.2000402656
O                1.5154429319        5.4824997875       14.2000402656
O                0.9073590902        4.1574921783       16.3732026024
O               -3.1330689192        5.6579812508       18.5809813062
O               -1.6582129241        5.4580091674       16.3732026024
O                0.7508538339        7.0296012144       16.3732026024
O               -3.1435645152        8.2068779302       18.5809813057
O               -0.9309074460        6.9415190394       18.5809813060
Al               4.8050272200        2.7741837600       23.9962031661
Al               7.2075408298        1.3870918801       22.0817640172
Al               4.8050272201        0.0000000000       21.6304405061
Al               4.8050272200        2.7741837600       19.9365851683
Al               4.8050272202        0.0000000003       15.0839342954
Al               4.8050272200        2.7741837600       14.0869953375
Al               7.2075408295        1.3870918810       25.2617644120
Al               4.8050272198       -0.0000000003       24.2648254546
Al               7.2075408296        1.3870918799       19.4121745812
Al               4.8050272199       -0.0000000000       17.7183192439
Al               4.8050272200        2.7741837600       17.2669957322
Al               7.2075408300        1.3870918805       15.3525565833
O                5.7359346660        1.3810322406       20.7677784440
O                6.4632401441        2.8645421126       22.9755571476
O                7.9380961392        2.6645700292       20.7677784438
O                7.9485917352        0.1156733398       20.7677784443
O                8.8592006057        1.2929500660       22.9755571481
O                6.3001817391        0.0037834617       22.9755571472
O                3.2895842881        2.8400514925       25.1487194844
O                6.3927762654        0.1076136677       14.2000402649
O                5.6197917856        4.0536619632       25.1487194844
O                5.5057055363        1.4288378443       25.1487194844
O                6.5068625126        2.7324377944       14.2000402655
O                8.7229837626        1.3212241492       14.2000402649
O                8.1148999196       -0.0037834619       16.3732026019
O                4.0744719099        1.4967056092       18.5809813057
O                5.5493279060        1.2967335278       16.3732026021
O                7.9583946635        2.8683255750       16.3732026028
O                4.0639763148        4.0456022903       18.5809813057
O                6.2766333853        2.7802434004       18.5809813057
Al               2.4025136095        6.9354594002       23.9962031667
Al               4.8050272200        5.5483675198       22.0817640172
Al               2.4025136100        4.1612756399       21.6304405061
Al               2.4025136098        6.9354593996       19.9365851688
Al               2.4025136101        4.1612756396       15.0839342954
Al               2.4025136089        6.9354594001       14.0869953380
Al               4.8050272194        5.5483675191       25.2617644120
Al               2.4025136099        4.1612756404       24.2648254546
Al               4.8050272203        5.5483675197       19.4121745812
Al               2.4025136100        4.1612756401       17.7183192439
Al               2.4025136098        6.9354593999       17.2669957328
Al               4.8050272196        5.5483675197       15.3525565833
O                3.3334210564        5.5423078796       20.7677784438
O                4.0607265339        7.0258177521       22.9755571481
O                5.5355825299        6.8258456607       20.7677784443
O                5.5460781237        4.2769489802       20.7677784440
O                6.4566869965        5.4542257050       22.9755571472
O                3.8976681298        4.1650591017       22.9755571476
O                0.8870706787        7.0013271309       25.1487194845
O                3.9902626561        4.2688893066       14.2000402655
O                3.2172781744        8.2149376047       25.1487194851
O                3.1031919261        5.5901134856       25.1487194851
O                4.1043489018        6.8937134254       14.2000402649
O                6.3204701507        5.4824997879       14.2000402649
O                5.7123863098        4.1574921781       16.3732026021
O                1.6719582996        5.6579812508       18.5809813060
O                3.1468142956        5.4580091667       16.3732026028
O                5.5558810543        7.0296012140       16.3732026019
O                1.6614627057        8.2068779288       18.5809813062
O                3.8741197752        6.9415190405       18.5809813057
End final coordinates



     Writing all to output data dir ./tmp/al2o3.save/ :
     XML data file, charge density, pseudopotentials, collected wavefunctions

     init_run     :     44.72s CPU     47.25s WALL (       1 calls)
     electrons    :  21777.57s CPU  25924.92s WALL (      19 calls)
     update_pot   :     36.99s CPU     37.74s WALL (      18 calls)
     forces       :    444.01s CPU   1723.48s WALL (      19 calls)
     stress       :   1592.41s CPU   1627.47s WALL (      19 calls)

     Called by init_run:
     wfcinit      :     38.61s CPU     40.24s WALL (       1 calls)
     potinit      :      1.95s CPU      2.05s WALL (       1 calls)
     hinit0       :      0.91s CPU      1.00s WALL (       1 calls)

     Called by electrons:
     c_bands      :  18921.72s CPU  22701.76s WALL (     232 calls)
     sum_band     :   2171.66s CPU   2384.62s WALL (     232 calls)
     v_of_rho     :     75.53s CPU     80.73s WALL (     244 calls)
     newd         :    284.72s CPU    440.50s WALL (     244 calls)
     PAW_pot      :    381.23s CPU    381.70s WALL (     262 calls)
     mix_rho      :     13.29s CPU     15.15s WALL (     232 calls)

     Called by c_bands:
     init_us_2    :    207.44s CPU    208.25s WALL (    2084 calls)
     cegterg      :  18536.55s CPU  22315.47s WALL (     928 calls)

     Called by *egterg:
     cdiaghg      :    983.74s CPU   1011.00s WALL (    4427 calls)
     h_psi        :   9917.77s CPU  13536.07s WALL (    4531 calls)
     s_psi        :   2809.80s CPU   2811.11s WALL (    4531 calls)
     g_psi        :     21.02s CPU     21.09s WALL (    3599 calls)

     Called by h_psi:
     h_psi:calbec :   2902.02s CPU   2916.95s WALL (    4531 calls)
     vloc_psi     :   4177.45s CPU   4525.43s WALL (    4531 calls)
                                        0.00s GPU  (    4531 calls)
     add_vuspsi   :   2814.95s CPU   6038.24s WALL (    4531 calls)

     General routines
     calbec       :   5255.30s CPU   5281.92s WALL (    6823 calls)
     fft          :     75.91s CPU     83.28s WALL (    3634 calls)
     ffts         :      2.22s CPU      2.58s WALL (     476 calls)
     fftw         :   4179.08s CPU   4564.74s WALL ( 1851624 calls)
     interpolate  :      5.49s CPU      6.10s WALL (     244 calls)

     Parallel routines

     PWSCF        :      6h40m CPU      8h11m WALL


   This run was terminated on:   3:12:20   7Jul2026            

=------------------------------------------------------------------------------=
   JOB DONE.
=------------------------------------------------------------------------------=
