
     Program PWSCF v.7.5 starts on  3Jul2026 at 17:26:41 

     This program is part of the open-source Quantum ESPRESSO suite
     for quantum simulation of materials; please cite
         "P. Giannozzi et al., J. Phys.:Condens. Matter 21 395502 (2009);
         "P. Giannozzi et al., J. Phys.:Condens. Matter 29 465901 (2017);
         "P. Giannozzi et al., J. Chem. Phys. 152 154105 (2020);
          URL http://www.quantum-espresso.org", 
     in publications or presentations arising from this work. More details at
     http://www.quantum-espresso.org/quote

     Parallel version (MPI), running on    24 processors

     MPI processes distributed on     1 nodes
     212733 MiB available memory on the printing compute node when the environment starts

     Reading input from al111_scf.in

     Current dimensions of program PWSCF are:
     Max number of different atomic species (ntypx) = 10
     Max number of k-points (npk) =  40000
     Max angular momentum in pseudopotentials (lmaxx) =  4
     file Al.pbe-n-kjpaw_psl.1.0.0.UPF: wavefunction(s)  3S 3P renormalized
     Found identity + (  0.2500  0.0000  0.0000) symmetry
     This is a supercell, fractional translations are disabled
     Message from routine setup:
     using ibrav=0 with symmetry is DISCOURAGED, use correct ibrav instead

     R & G space division:  proc/nbgrp/npool/nimage =      24
     Subspace diagonalization in iterative solution of the eigenvalue problem:
     a serial algorithm will be used


     Parallelization info
     --------------------
     sticks:   dense  smooth     PW     G-vecs:    dense   smooth      PW
     Min         646     323     85               223320    78973   10737
     Max         647     324     86               223336    78990   10756
     Sum       15505    7765   2053              5359811  1895543  257905

     Using Slab Decomposition



     bravais-lattice index     =            0
     lattice parameter (alat)  =      21.6470  a.u.
     unit-cell volume          =   30180.2507 (a.u.)^3
     number of atoms/cell      =           80
     number of atomic types    =            1
     number of electrons       =       240.00
     number of Kohn-Sham states=          144
     kinetic-energy cutoff     =      60.0000  Ry
     charge density cutoff     =     480.0000  Ry
     scf convergence threshold =      1.0E-08
     mixing beta               =       0.3000
     number of iterations used =            8  plain     mixing
     Exchange-correlation= SLA  PW   PBX  PBC
                           (   1   4   3   4   0   0   0)

     celldm(1)=  21.647002  celldm(2)=   0.000000  celldm(3)=   0.000000
     celldm(4)=   0.000000  celldm(5)=   0.000000  celldm(6)=   0.000000

     crystal axes: (cart. coord. in units of alat)
               a(1) = (   1.000000   0.000000   0.000000 )  
               a(2) = (   0.500000   0.866063   0.000000 )  
               a(3) = (   0.000000   0.000000   3.435422 )  

     reciprocal axes: (cart. coord. in units 2 pi/alat)
               b(1) = (  1.000000 -0.577325  0.000000 )  
               b(2) = (  0.000000  1.154650  0.000000 )  
               b(3) = (  0.000000  0.000000  0.291085 )  


     PseudoPot. # 1 for Al read from file:
     ./Al.pbe-n-kjpaw_psl.1.0.0.UPF
     MD5 check sum: cfc449ca30b5f3223ec38ddd88ac046d
     Pseudo is Projector augmented-wave + core cor, Zval =  3.0
     Generated using "atomic" code by A. Dal Corso  v.5.1
     Shape of augmentation charge: PSQ
     Using radial grid of 1135 points,  6 beta functions with: 
                l(1) =   0
                l(2) =   0
                l(3) =   1
                l(4) =   1
                l(5) =   2
                l(6) =   2
     Q(r) pseudized with 0 coefficients 


     atomic species   valence    mass     pseudopotential
     Al                3.00    26.98154     Al( 1.00)

      2 Sym. Ops. (no inversion) found



   Cartesian axes

     site n.     atom                  positions (alat units)
         1        Al     tau(   1) = (   1.0000050   0.1443405   1.3094454  )
         2        Al     tau(   2) = (   0.2500050   0.1443405   1.3094454  )
         3        Al     tau(   3) = (   0.5000050   0.1443405   1.3094454  )
         4        Al     tau(   4) = (   0.7500050   0.1443405   1.3094454  )
         5        Al     tau(   5) = (   1.1250050   0.3608468   1.3094454  )
         6        Al     tau(   6) = (   0.3750050   0.3608468   1.3094454  )
         7        Al     tau(   7) = (   0.6250050   0.3608468   1.3094454  )
         8        Al     tau(   8) = (   0.8750050   0.3608468   1.3094454  )
         9        Al     tau(   9) = (   1.2500050   0.5773532   1.3094454  )
        10        Al     tau(  10) = (   0.5000050   0.5773532   1.3094454  )
        11        Al     tau(  11) = (   0.7500050   0.5773532   1.3094454  )
        12        Al     tau(  12) = (   1.0000050   0.5773532   1.3094454  )
        13        Al     tau(  13) = (   1.3750050   0.7938595   1.3094454  )
        14        Al     tau(  14) = (   0.6250050   0.7938595   1.3094454  )
        15        Al     tau(  15) = (   0.8750050   0.7938595   1.3094454  )
        16        Al     tau(  16) = (   1.1250050   0.7938595   1.3094454  )
        17        Al     tau(  17) = (   0.0000000   0.0000000   1.5135781  )
        18        Al     tau(  18) = (   0.2500000   0.0000000   1.5135781  )
        19        Al     tau(  19) = (   0.5000000   0.0000000   1.5135781  )
        20        Al     tau(  20) = (   0.7500000   0.0000000   1.5135781  )
        21        Al     tau(  21) = (   0.1250000   0.2165063   1.5135781  )
        22        Al     tau(  22) = (   0.3750000   0.2165063   1.5135781  )
        23        Al     tau(  23) = (   0.6250000   0.2165063   1.5135781  )
        24        Al     tau(  24) = (   0.8750000   0.2165063   1.5135781  )
        25        Al     tau(  25) = (   0.2500000   0.4330127   1.5135781  )
        26        Al     tau(  26) = (   0.5000000   0.4330127   1.5135781  )
        27        Al     tau(  27) = (   0.7500000   0.4330127   1.5135781  )
        28        Al     tau(  28) = (   1.0000000   0.4330127   1.5135781  )
        29        Al     tau(  29) = (   0.3750000   0.6495190   1.5135781  )
        30        Al     tau(  30) = (   0.6250000   0.6495190   1.5135781  )
        31        Al     tau(  31) = (   0.8750000   0.6495190   1.5135781  )
        32        Al     tau(  32) = (   1.1250000   0.6495190   1.5135781  )
        33        Al     tau(  33) = (   0.1249972   0.0721523   1.7175014  )
        34        Al     tau(  34) = (   0.3749972   0.0721522   1.7175014  )
        35        Al     tau(  35) = (   0.6249971   0.0721522   1.7175014  )
        36        Al     tau(  36) = (   0.8749972   0.0721522   1.7175014  )
        37        Al     tau(  37) = (   0.2499972   0.2886710   1.7174980  )
        38        Al     tau(  38) = (   0.4999971   0.2886710   1.7174980  )
        39        Al     tau(  39) = (   0.7499972   0.2886710   1.7174980  )
        40        Al     tau(  40) = (   0.9999972   0.2886710   1.7174980  )
        41        Al     tau(  41) = (   0.3749971   0.5051820   1.7174996  )
        42        Al     tau(  42) = (   0.6249972   0.5051820   1.7174996  )
        43        Al     tau(  43) = (   0.8749972   0.5051820   1.7174996  )
        44        Al     tau(  44) = (   1.1249972   0.5051820   1.7174996  )
        45        Al     tau(  45) = (   0.4999972   0.7217016   1.7174945  )
        46        Al     tau(  46) = (   0.7499972   0.7217016   1.7174945  )
        47        Al     tau(  47) = (   0.9999972   0.7217016   1.7174945  )
        48        Al     tau(  48) = (   1.2499971   0.7217016   1.7174945  )
        49        Al     tau(  49) = (   1.0000030   0.1443275   1.9209596  )
        50        Al     tau(  50) = (   0.2500030   0.1443275   1.9209596  )
        51        Al     tau(  51) = (   0.5000030   0.1443275   1.9209596  )
        52        Al     tau(  52) = (   0.7500030   0.1443275   1.9209596  )
        53        Al     tau(  53) = (   1.1250030   0.3608446   1.9209602  )
        54        Al     tau(  54) = (   0.3750030   0.3608446   1.9209602  )
        55        Al     tau(  55) = (   0.6250030   0.3608446   1.9209603  )
        56        Al     tau(  56) = (   0.8750030   0.3608446   1.9209602  )
        57        Al     tau(  57) = (   1.2500030   0.5773545   1.9209601  )
        58        Al     tau(  58) = (   0.5000030   0.5773545   1.9209601  )
        59        Al     tau(  59) = (   0.7500030   0.5773545   1.9209601  )
        60        Al     tau(  60) = (   1.0000030   0.5773545   1.9209601  )
        61        Al     tau(  61) = (   1.3750030   0.7938744   1.9209586  )
        62        Al     tau(  62) = (   0.6250030   0.7938744   1.9209586  )
        63        Al     tau(  63) = (   0.8750030   0.7938744   1.9209586  )
        64        Al     tau(  64) = (   1.1250030   0.7938744   1.9209586  )
        65        Al     tau(  65) = (   0.0000005  -0.0000137   2.1272003  )
        66        Al     tau(  66) = (   0.2500005  -0.0000137   2.1272003  )
        67        Al     tau(  67) = (   0.5000005  -0.0000137   2.1272003  )
        68        Al     tau(  68) = (   0.7500005  -0.0000137   2.1272003  )
        69        Al     tau(  69) = (   0.1250005   0.2165047   2.1272043  )
        70        Al     tau(  70) = (   0.3750005   0.2165047   2.1272043  )
        71        Al     tau(  71) = (   0.6250005   0.2165046   2.1272043  )
        72        Al     tau(  72) = (   0.8750005   0.2165046   2.1272043  )
        73        Al     tau(  73) = (   0.2500005   0.4330145   2.1272055  )
        74        Al     tau(  74) = (   0.5000005   0.4330145   2.1272056  )
        75        Al     tau(  75) = (   0.7500005   0.4330145   2.1272056  )
        76        Al     tau(  76) = (   1.0000005   0.4330145   2.1272056  )
        77        Al     tau(  77) = (   0.3750005   0.6495315   2.1272048  )
        78        Al     tau(  78) = (   0.6250005   0.6495315   2.1272048  )
        79        Al     tau(  79) = (   0.8750005   0.6495315   2.1272048  )
        80        Al     tau(  80) = (   1.1250005   0.6495315   2.1272048  )

     number of k points=     7  Marzari-Vanderbilt smearing, width (Ry)=  0.0200
                       cart. coord. in units 2pi/alat
        k(    1) = (   0.0000000   0.0000000   0.0000000), wk =   0.1250000
        k(    2) = (   0.0000000   0.2886626   0.0000000), wk =   0.2500000
        k(    3) = (   0.0000000  -0.5773252   0.0000000), wk =   0.1250000
        k(    4) = (   0.2500000  -0.1443313   0.0000000), wk =   0.5000000
        k(    5) = (   0.2500000  -0.7216565   0.0000000), wk =   0.5000000
        k(    6) = (  -0.5000000   0.2886626   0.0000000), wk =   0.2500000
        k(    7) = (  -0.5000000   0.5773252   0.0000000), wk =   0.2500000

     Dense  grid:  5359811 G-vectors     FFT dimensions: ( 160, 160, 540)

     Smooth grid:  1895543 G-vectors     FFT dimensions: ( 108, 108, 375)

     Estimated max dynamical RAM per process >       1.92 GB

     Estimated total dynamical RAM >      46.20 GB

     Atomic positions and unit cell read from directory:
     ./tmp/al111_4x4.save/


     The initial density is read from file :
     ./tmp/al111_4x4.save/charge-density


     starting charge     239.9999, renormalised to     240.0000

     negative rho (up, down):  1.575E-01 0.000E+00
     Starting wfcs from file
     Checking if some PAW data can be deallocated... 

     total cpu time spent up to now is       11.6 secs

     Self-consistent Calculation

     iteration #  1     ecut=    60.00 Ry     beta= 0.30
     Davidson diagonalization with overlap
     ethr =  1.00E-05,  avg # of iterations =  2.0

     Threshold (ethr) on eigenvalues was too large:
     Diagonalizing with lowered threshold

     Davidson diagonalization with overlap
     ethr =  2.38E-09,  avg # of iterations =  5.7

     negative rho (up, down):  1.087E-01 0.000E+00

     total cpu time spent up to now is      199.1 secs

     total energy              =   -3159.35015142 Ry
     estimated scf accuracy    <       0.00000681 Ry

     iteration #  2     ecut=    60.00 Ry     beta= 0.30
     Davidson diagonalization with overlap
     ethr =  2.84E-09,  avg # of iterations =  6.1

     negative rho (up, down):  1.059E-01 0.000E+00

     total cpu time spent up to now is      316.8 secs

     total energy              =   -3159.35017566 Ry
     estimated scf accuracy    <       0.00016138 Ry

     iteration #  3     ecut=    60.00 Ry     beta= 0.30
     Davidson diagonalization with overlap
     ethr =  2.84E-09,  avg # of iterations =  5.6

     negative rho (up, down):  8.750E-02 0.000E+00

     total cpu time spent up to now is      416.5 secs

     total energy              =   -3159.35032906 Ry
     estimated scf accuracy    <       0.00001214 Ry

     iteration #  4     ecut=    60.00 Ry     beta= 0.30
     Davidson diagonalization with overlap
     ethr =  2.84E-09,  avg # of iterations =  4.0

     negative rho (up, down):  4.010E-02 0.000E+00

     total cpu time spent up to now is      515.7 secs

     total energy              =   -3159.35061775 Ry
     estimated scf accuracy    <       0.00000585 Ry

     iteration #  5     ecut=    60.00 Ry     beta= 0.30
     Davidson diagonalization with overlap
     ethr =  2.44E-09,  avg # of iterations =  5.1

     negative rho (up, down):  1.327E-02 0.000E+00

     total cpu time spent up to now is      632.0 secs

     total energy              =   -3159.35069274 Ry
     estimated scf accuracy    <       0.00000091 Ry

     iteration #  6     ecut=    60.00 Ry     beta= 0.30
     Davidson diagonalization with overlap
     ethr =  3.79E-10,  avg # of iterations =  5.0

     negative rho (up, down):  6.642E-03 0.000E+00

     total cpu time spent up to now is      780.3 secs

     total energy              =   -3159.35069358 Ry
     estimated scf accuracy    <       0.00000022 Ry

     iteration #  7     ecut=    60.00 Ry     beta= 0.30
     Davidson diagonalization with overlap
     ethr =  8.96E-11,  avg # of iterations =  5.0

     negative rho (up, down):  5.947E-04 0.000E+00

     total cpu time spent up to now is      915.3 secs

     total energy              =   -3159.35069293 Ry
     estimated scf accuracy    <       0.00000013 Ry

     iteration #  8     ecut=    60.00 Ry     beta= 0.30
     Davidson diagonalization with overlap
     ethr =  5.39E-11,  avg # of iterations =  5.0

     negative rho (up, down):  2.806E-04 0.000E+00

     total cpu time spent up to now is     1049.8 secs

     total energy              =   -3159.35069313 Ry
     estimated scf accuracy    <       0.00000003 Ry

     iteration #  9     ecut=    60.00 Ry     beta= 0.30
     Davidson diagonalization with overlap
     ethr =  1.23E-11,  avg # of iterations =  5.0

     negative rho (up, down):  3.550E-05 0.000E+00

     total cpu time spent up to now is     1170.7 secs

     End of self-consistent calculation

          k = 0.0000 0.0000 0.0000 (237007 PWs)   bands (ev):

   -11.3845 -10.6710  -9.8896  -9.8896  -9.8896  -9.8895  -9.8894  -9.8894
    -9.5595  -9.1819  -9.1819  -9.1819  -9.1818  -9.1817  -9.1817  -8.0796
    -8.0796  -8.0796  -8.0795  -8.0794  -8.0794  -8.0550  -6.9466  -6.9466
    -6.9466  -6.9466  -6.9463  -6.9463  -6.5866  -6.5865  -6.5865  -6.5865
    -6.5863  -6.5863  -6.2522  -6.2522  -6.2522  -6.2522  -6.2519  -6.2519
    -6.1456  -5.5156  -5.5153  -5.5152  -5.4885  -5.4882  -5.4881  -5.1739
    -5.1739  -5.1739  -5.1739  -5.1736  -5.1736  -4.8344  -4.8341  -4.8340
    -4.8038  -4.8034  -4.8034  -4.6839  -4.6839  -4.6838  -4.6838  -4.6836
    -4.6836  -4.0993  -3.9119  -3.9116  -3.9115  -3.7266  -3.7266  -3.7266
    -3.7266  -3.7264  -3.7264  -3.6332  -3.6329  -3.6328  -2.6970  -2.6970
    -2.6970  -2.6969  -2.6968  -2.6968  -2.3942  -2.3939  -2.3938  -2.0125
    -2.0125  -2.0125  -2.0125  -2.0124  -2.0124  -1.9469  -1.9465  -1.9464
    -1.6818  -1.3209  -1.3209  -1.3209  -1.3208  -1.3208  -1.3208  -1.1970
    -1.1970  -1.1970  -1.1969  -1.1969  -1.1969  -0.6422  -0.6422  -0.6421
    -0.6421  -0.6420  -0.6420  -0.3317  -0.3317  -0.3317  -0.3317  -0.3315
    -0.3315  -0.3293  -0.3293  -0.3293  -0.3293  -0.3291  -0.3291  -0.3278
    -0.3273  -0.3273  -0.2618  -0.2615  -0.2615   0.2849   0.2849   0.2850
     0.2850   0.2851   0.2852   0.3911   0.3911   0.3912   0.3912   0.3912

          k = 0.0000 0.2887 0.0000 (236896 PWs)   bands (ev):

   -11.2906 -10.5774 -10.5417 -10.1686 -10.1686  -9.8314  -9.4665  -9.4598
    -9.4598  -9.4255  -9.4255  -9.0556  -8.7250  -8.7197  -8.7197  -8.3557
    -8.3557  -8.3513  -7.9626  -7.9512  -7.9511  -7.6205  -7.6205  -7.2547
    -7.2517  -7.2517  -7.2265  -6.8602  -6.8602  -6.8561  -6.8554  -6.8554
    -6.1635  -6.1635  -6.1628  -6.1616  -6.1616  -6.1317  -6.1317  -6.1311
    -6.1311  -6.0533  -5.7699  -5.7695  -5.7695  -5.4436  -5.4436  -5.3192
    -5.0895  -5.0850  -5.0850  -5.0827  -5.0827  -4.9550  -4.9550  -4.6982
    -4.6982  -4.6933  -4.6933  -4.3867  -4.3867  -4.2350  -4.2350  -4.0283
    -4.0283  -4.0239  -4.0239  -4.0112  -4.0014  -3.8819  -3.6861  -3.6478
    -3.6477  -3.3082  -3.2862  -3.1820  -3.1819  -2.9579  -2.9579  -2.9431
    -2.9431  -2.8444  -2.8444  -2.6544  -2.6544  -2.6059  -2.6058  -2.5996
    -2.5995  -2.2651  -2.2651  -2.2404  -2.2404  -2.2090  -2.1136  -2.1134
    -1.9337  -1.5940  -1.5578  -1.5578  -1.5049  -1.4926  -1.4925  -1.3790
    -1.3789  -1.2254  -1.2254  -1.0774  -1.0774  -0.9666  -0.9666  -0.9006
    -0.8762  -0.8761  -0.7028  -0.7028  -0.6749  -0.6468  -0.6468  -0.5642
    -0.5642  -0.5015  -0.3773  -0.3772  -0.0342  -0.0342  -0.0055  -0.0055
     0.0446   0.0447   0.2096   0.2444   0.2531   0.2531   0.4087   0.4088
     0.4590   0.4590   0.5367   0.5367   0.6021   0.6022   0.7418   0.7418

          k = 0.0000-0.5773 0.0000 (236880 PWs)   bands (ev):

   -11.0094 -11.0092 -10.2973 -10.2970 -10.2617 -10.2617  -9.5526  -9.5526
    -9.1881  -9.1878  -8.7786  -8.7786  -8.7785  -8.7785  -8.4479  -8.4479
    -8.0755  -8.0755  -8.0754  -8.0754  -8.0431  -8.0430  -7.6862  -7.6859
    -7.3433  -7.3432  -6.9808  -6.9808  -6.9807  -6.9807  -6.9516  -6.9516
    -6.5833  -6.5833  -6.5831  -6.5831  -6.2547  -6.2547  -5.8915  -5.8915
    -5.8913  -5.8913  -5.7773  -5.7770  -5.4991  -5.4991  -5.4990  -5.4990
    -5.0457  -5.0457  -4.8212  -4.8212  -4.8210  -4.8209  -4.7858  -4.7858
    -4.4436  -4.4436  -4.4123  -4.4123  -3.7776  -3.7776  -3.7473  -3.7471
    -3.7356  -3.7355  -3.7355  -3.7355  -3.7274  -3.7274  -3.6158  -3.6158
    -3.6157  -3.6157  -3.4229  -3.4228  -3.4227  -3.4225  -3.0452  -3.0452
    -3.0216  -3.0216  -3.0215  -3.0214  -2.9891  -2.9891  -2.8692  -2.8692
    -2.5891  -2.5891  -2.2772  -2.2771  -1.9474  -1.9474  -1.9474  -1.9472
    -1.6759  -1.6759  -1.6759  -1.6759  -1.6445  -1.6445  -1.5437  -1.5436
    -1.4231  -1.4231  -1.3318  -1.3315  -1.2562  -1.2562  -1.2560  -1.2559
    -0.9773  -0.9773  -0.9659  -0.9659  -0.8339  -0.8339  -0.6452  -0.6452
    -0.4394  -0.4393  -0.4284  -0.4284  -0.4284  -0.4283  -0.2418  -0.2418
    -0.2416  -0.2416   0.2562   0.2562   0.4661   0.4661   0.4661   0.4661
     0.4813   0.4813   0.4815   0.4816   0.9572   0.9574   0.9773   0.9773

          k = 0.2500-0.1443 0.0000 (236890 PWs)   bands (ev):

   -11.2906 -10.5774 -10.5416 -10.1687 -10.1686  -9.8313  -9.4665  -9.4599
    -9.4598  -9.4256  -9.4255  -9.0555  -8.7249  -8.7198  -8.7197  -8.3558
    -8.3557  -8.3512  -7.9626  -7.9512  -7.9510  -7.6206  -7.6204  -7.2545
    -7.2518  -7.2515  -7.2265  -6.8603  -6.8603  -6.8558  -6.8558  -6.8557
    -6.1636  -6.1633  -6.1626  -6.1619  -6.1619  -6.1318  -6.1317  -6.1314
    -6.1311  -6.0533  -5.7698  -5.7694  -5.7691  -5.4439  -5.4437  -5.3191
    -5.0892  -5.0853  -5.0852  -5.0826  -5.0823  -4.9551  -4.9551  -4.6985
    -4.6981  -4.6934  -4.6931  -4.3871  -4.3868  -4.2351  -4.2349  -4.0286
    -4.0282  -4.0239  -4.0236  -4.0112  -4.0010  -3.8817  -3.6858  -3.6481
    -3.6480  -3.3081  -3.2858  -3.1823  -3.1819  -2.9580  -2.9580  -2.9429
    -2.9425  -2.8444  -2.8442  -2.6542  -2.6540  -2.6062  -2.6058  -2.5998
    -2.5992  -2.2652  -2.2651  -2.2402  -2.2399  -2.2085  -2.1138  -2.1134
    -1.9335  -1.5940  -1.5584  -1.5583  -1.5045  -1.4929  -1.4925  -1.3794
    -1.3789  -1.2253  -1.2252  -1.0777  -1.0774  -0.9668  -0.9667  -0.9005
    -0.8765  -0.8762  -0.7032  -0.7026  -0.6745  -0.6473  -0.6469  -0.5643
    -0.5642  -0.5010  -0.3774  -0.3772  -0.0344  -0.0342  -0.0062  -0.0058
     0.0445   0.0448   0.2101   0.2447   0.2531   0.2531   0.4085   0.4088
     0.4586   0.4591   0.5371   0.5374   0.6020   0.6023   0.7416   0.7418

          k = 0.2500-0.7217 0.0000 (236847 PWs)   bands (ev):

   -11.1030 -10.7285 -10.7285 -10.3905 -10.0175 -10.0175  -9.6110  -9.6109
    -9.2807  -8.9100  -8.9099  -8.9044  -8.9043  -8.8709  -8.5023  -8.5022
    -8.1674  -7.8039  -7.8038  -7.8005  -7.8003  -7.7782  -7.7679  -7.7678
    -7.4101  -7.4101  -7.4025  -7.4022  -7.0719  -7.0694  -7.0693  -6.7079
    -6.7078  -6.7060  -6.7057  -6.3133  -6.3132  -5.9831  -5.9830  -5.8691
    -5.6239  -5.6237  -5.5900  -5.5896  -5.5889  -5.5020  -5.5019  -5.2464
    -5.2303  -5.2302  -5.2181  -4.9062  -4.9058  -4.5692  -4.5322  -4.5182
    -4.5181  -4.5154  -4.4133  -4.4132  -4.1755  -4.1752  -4.1642  -4.1640
    -3.8561  -3.8557  -3.8427  -3.8352  -3.7016  -3.6485  -3.4970  -3.4968
    -3.4836  -3.4835  -3.3680  -3.3643  -3.3642  -3.1277  -3.1273  -3.1161
    -3.0943  -2.8210  -2.7297  -2.7296  -2.6676  -2.6674  -2.6283  -2.6280
    -2.4878  -2.4356  -2.4355  -2.4086  -2.1343  -2.0800  -2.0796  -2.0145
    -2.0143  -1.9910  -1.9906  -1.7904  -1.7504  -1.6860  -1.5762  -1.5759
    -1.4188  -1.2850  -1.2848  -1.2491  -1.1928  -1.1923  -1.1573  -1.1568
    -1.0716  -1.0715  -1.0507  -0.8900  -0.8898  -0.5783  -0.5782  -0.5243
    -0.5237  -0.5228  -0.5226  -0.2633  -0.2630  -0.1825  -0.1823  -0.1163
    -0.0849  -0.0849  -0.0382   0.0534   0.0539   0.1801   0.1806   0.2002
     0.3844   0.4853   0.4860   0.5849   0.6330   0.6332   0.9083   0.9348

          k =-0.5000 0.2887 0.0000 (236880 PWs)   bands (ev):

   -11.0093 -11.0093 -10.2972 -10.2972 -10.2618 -10.2618  -9.5526  -9.5526
    -9.1879  -9.1879  -8.7787  -8.7787  -8.7785  -8.7785  -8.4480  -8.4480
    -8.0756  -8.0756  -8.0754  -8.0754  -8.0428  -8.0428  -7.6860  -7.6860
    -7.3430  -7.3430  -6.9808  -6.9808  -6.9807  -6.9807  -6.9517  -6.9517
    -6.5836  -6.5836  -6.5834  -6.5834  -6.2545  -6.2545  -5.8917  -5.8917
    -5.8916  -5.8916  -5.7771  -5.7771  -5.4991  -5.4991  -5.4989  -5.4989
    -5.0458  -5.0458  -4.8214  -4.8214  -4.8212  -4.8212  -4.7856  -4.7856
    -4.4433  -4.4433  -4.4119  -4.4119  -3.7773  -3.7773  -3.7472  -3.7472
    -3.7358  -3.7358  -3.7353  -3.7353  -3.7270  -3.7270  -3.6158  -3.6158
    -3.6157  -3.6157  -3.4231  -3.4231  -3.4228  -3.4228  -3.0453  -3.0453
    -3.0218  -3.0218  -3.0213  -3.0213  -2.9889  -2.9889  -2.8689  -2.8689
    -2.5888  -2.5888  -2.2766  -2.2766  -1.9477  -1.9477  -1.9472  -1.9472
    -1.6760  -1.6760  -1.6758  -1.6758  -1.6450  -1.6450  -1.5430  -1.5430
    -1.4230  -1.4230  -1.3316  -1.3316  -1.2565  -1.2565  -1.2562  -1.2562
    -0.9771  -0.9771  -0.9662  -0.9662  -0.8336  -0.8336  -0.6452  -0.6452
    -0.4388  -0.4388  -0.4287  -0.4287  -0.4282  -0.4282  -0.2424  -0.2424
    -0.2419  -0.2419   0.2560   0.2560   0.4655   0.4655   0.4659   0.4659
     0.4811   0.4811   0.4813   0.4813   0.9578   0.9578   0.9776   0.9776

          k =-0.5000 0.5773 0.0000 (236845 PWs)   bands (ev):

   -11.1030 -10.7286 -10.7284 -10.3905 -10.0176 -10.0174  -9.6111  -9.6109
    -9.2807  -8.9101  -8.9098  -8.9045  -8.9044  -8.8707  -8.5022  -8.5020
    -8.1672  -7.8040  -7.8039  -7.8004  -7.8001  -7.7781  -7.7681  -7.7680
    -7.4102  -7.4099  -7.4024  -7.4023  -7.0718  -7.0696  -7.0695  -6.7078
    -6.7076  -6.7058  -6.7057  -6.3134  -6.3133  -5.9833  -5.9832  -5.8691
    -5.6238  -5.6237  -5.5899  -5.5898  -5.5888  -5.5021  -5.5018  -5.2467
    -5.2303  -5.2300  -5.2184  -4.9060  -4.9060  -4.5695  -4.5326  -4.5183
    -4.5183  -4.5149  -4.4134  -4.4133  -4.1753  -4.1753  -4.1638  -4.1636
    -3.8559  -3.8559  -3.8423  -3.8352  -3.7014  -3.6489  -3.4967  -3.4964
    -3.4837  -3.4834  -3.3684  -3.3642  -3.3640  -3.1273  -3.1272  -3.1162
    -3.0946  -2.8206  -2.7299  -2.7298  -2.6674  -2.6673  -2.6279  -2.6279
    -2.4879  -2.4357  -2.4356  -2.4089  -2.1346  -2.0797  -2.0795  -2.0151
    -2.0150  -1.9907  -1.9905  -1.7904  -1.7503  -1.6865  -1.5759  -1.5758
    -1.4188  -1.2855  -1.2854  -1.2493  -1.1922  -1.1922  -1.1569  -1.1569
    -1.0717  -1.0714  -1.0506  -0.8897  -0.8894  -0.5785  -0.5785  -0.5238
    -0.5238  -0.5227  -0.5227  -0.2631  -0.2630  -0.1830  -0.1829  -0.1167
    -0.0850  -0.0849  -0.0385   0.0533   0.0534   0.1807   0.1807   0.2001
     0.3844   0.4858   0.4859   0.5847   0.6329   0.6330   0.9087   0.9348

     the Fermi energy is    -0.5234 ev

!    total energy              =   -3159.35069322 Ry
     total all-electron energy =    -38850.773220 Ry
     estimated scf accuracy    <          6.0E-09 Ry
     smearing contrib. (-TS)   =      -0.00921978 Ry
     internal energy E=F+TS    =   -3159.34147344 Ry

     The total energy is F=E-TS. E is the sum of the following terms:
     one-electron contribution =  -10704.92017731 Ry
     hartree contribution      =    5405.10546352 Ry
     xc contribution           =    -204.30085152 Ry
     ewald contribution        =    5119.03407502 Ry
     one-center paw contrib.   =   -2774.25998314 Ry

     convergence has been achieved in   9 iterations

     negative rho (up, down):  3.550E-05 0.000E+00

     Forces acting on atoms (cartesian axes, Ry/au):

     atom    1 type  1   force =     0.00000000   -0.00002767   -0.00266328
     atom    2 type  1   force =    -0.00000002   -0.00002767   -0.00266324
     atom    3 type  1   force =     0.00000000   -0.00002767   -0.00266326
     atom    4 type  1   force =     0.00000002   -0.00002767   -0.00266324
     atom    5 type  1   force =    -0.00000001   -0.00000127   -0.00266163
     atom    6 type  1   force =    -0.00000003   -0.00000125   -0.00266166
     atom    7 type  1   force =     0.00000003   -0.00000125   -0.00266166
     atom    8 type  1   force =     0.00000001   -0.00000127   -0.00266163
     atom    9 type  1   force =     0.00000003   -0.00000040   -0.00266114
     atom   10 type  1   force =     0.00000000   -0.00000037   -0.00266125
     atom   11 type  1   force =    -0.00000003   -0.00000040   -0.00266114
     atom   12 type  1   force =     0.00000000   -0.00000039   -0.00266117
     atom   13 type  1   force =     0.00000001    0.00003014   -0.00264941
     atom   14 type  1   force =    -0.00000001    0.00003014   -0.00264941
     atom   15 type  1   force =     0.00000002    0.00003013   -0.00264937
     atom   16 type  1   force =    -0.00000002    0.00003013   -0.00264937
     atom   17 type  1   force =     0.00000000   -0.00003499    0.00224981
     atom   18 type  1   force =     0.00000001   -0.00003493    0.00224978
     atom   19 type  1   force =     0.00000000   -0.00003497    0.00224976
     atom   20 type  1   force =    -0.00000001   -0.00003493    0.00224978
     atom   21 type  1   force =     0.00000004   -0.00000286    0.00226077
     atom   22 type  1   force =    -0.00000007   -0.00000286    0.00226081
     atom   23 type  1   force =     0.00000007   -0.00000286    0.00226081
     atom   24 type  1   force =    -0.00000004   -0.00000286    0.00226077
     atom   25 type  1   force =    -0.00000002    0.00000085    0.00225957
     atom   26 type  1   force =     0.00000000    0.00000086    0.00225956
     atom   27 type  1   force =     0.00000002    0.00000085    0.00225957
     atom   28 type  1   force =     0.00000000    0.00000086    0.00225956
     atom   29 type  1   force =    -0.00000003    0.00002977    0.00225899
     atom   30 type  1   force =     0.00000003    0.00002977    0.00225899
     atom   31 type  1   force =    -0.00000003    0.00002977    0.00225898
     atom   32 type  1   force =     0.00000003    0.00002977    0.00225898
     atom   33 type  1   force =     0.00000003    0.00000725   -0.00056810
     atom   34 type  1   force =    -0.00000000    0.00000728   -0.00056812
     atom   35 type  1   force =     0.00000000    0.00000728   -0.00056812
     atom   36 type  1   force =    -0.00000003    0.00000725   -0.00056810
     atom   37 type  1   force =     0.00000002   -0.00000557   -0.00056121
     atom   38 type  1   force =     0.00000000   -0.00000563   -0.00056121
     atom   39 type  1   force =    -0.00000002   -0.00000557   -0.00056121
     atom   40 type  1   force =     0.00000000   -0.00000559   -0.00056127
     atom   41 type  1   force =    -0.00000002    0.00000654   -0.00056324
     atom   42 type  1   force =     0.00000002    0.00000654   -0.00056324
     atom   43 type  1   force =    -0.00000005    0.00000657   -0.00056324
     atom   44 type  1   force =     0.00000005    0.00000657   -0.00056324
     atom   45 type  1   force =     0.00000000   -0.00000274   -0.00056323
     atom   46 type  1   force =    -0.00000000   -0.00000270   -0.00056322
     atom   47 type  1   force =     0.00000000   -0.00000268   -0.00056319
     atom   48 type  1   force =     0.00000000   -0.00000270   -0.00056322
     atom   49 type  1   force =     0.00000000    0.00000323    0.00066990
     atom   50 type  1   force =    -0.00000001    0.00000322    0.00066987
     atom   51 type  1   force =     0.00000000    0.00000327    0.00066992
     atom   52 type  1   force =     0.00000001    0.00000322    0.00066987
     atom   53 type  1   force =     0.00000002   -0.00000567    0.00067053
     atom   54 type  1   force =    -0.00000003   -0.00000564    0.00067053
     atom   55 type  1   force =     0.00000003   -0.00000564    0.00067053
     atom   56 type  1   force =    -0.00000002   -0.00000567    0.00067053
     atom   57 type  1   force =     0.00000002    0.00000983    0.00066813
     atom   58 type  1   force =     0.00000000    0.00000984    0.00066809
     atom   59 type  1   force =    -0.00000002    0.00000983    0.00066813
     atom   60 type  1   force =     0.00000000    0.00000982    0.00066811
     atom   61 type  1   force =    -0.00000002   -0.00000563    0.00066802
     atom   62 type  1   force =     0.00000002   -0.00000563    0.00066802
     atom   63 type  1   force =    -0.00000003   -0.00000560    0.00066800
     atom   64 type  1   force =     0.00000003   -0.00000560    0.00066800
     atom   65 type  1   force =     0.00000000    0.00000056    0.00029927
     atom   66 type  1   force =     0.00000001    0.00000052    0.00029929
     atom   67 type  1   force =     0.00000000    0.00000056    0.00029937
     atom   68 type  1   force =    -0.00000001    0.00000052    0.00029929
     atom   69 type  1   force =     0.00000003   -0.00000692    0.00029513
     atom   70 type  1   force =    -0.00000001   -0.00000695    0.00029520
     atom   71 type  1   force =     0.00000001   -0.00000695    0.00029520
     atom   72 type  1   force =    -0.00000003   -0.00000692    0.00029513
     atom   73 type  1   force =    -0.00000003    0.00000538    0.00029720
     atom   74 type  1   force =     0.00000000    0.00000533    0.00029727
     atom   75 type  1   force =     0.00000003    0.00000538    0.00029720
     atom   76 type  1   force =     0.00000000    0.00000538    0.00029726
     atom   77 type  1   force =    -0.00000005    0.00000008    0.00029385
     atom   78 type  1   force =     0.00000005    0.00000008    0.00029385
     atom   79 type  1   force =    -0.00000004    0.00000007    0.00029391
     atom   80 type  1   force =     0.00000004    0.00000007    0.00029391

     Total force =     0.014433     Total SCF correction =     0.000099


     Computing stress (Cartesian axis) and pressure


     negative rho (up, down):  3.550E-05 0.000E+00
          total   stress  (Ry/bohr**3)                   (kbar)     P=       -5.93
  -0.00006550  -0.00000000   0.00000000           -9.63       -0.00        0.00
  -0.00000000  -0.00006553   0.00000000           -0.00       -9.64        0.00
   0.00000000   0.00000000   0.00001008            0.00        0.00        1.48


     Writing all to output data dir ./tmp/al111_4x4.save/ :
     XML data file, charge density, pseudopotentials, collected wavefunctions

     init_run     :      9.57s CPU     11.45s WALL (       1 calls)
     electrons    :   1103.24s CPU   1159.93s WALL (       1 calls)
     forces       :     34.55s CPU     37.25s WALL (       1 calls)
     stress       :    136.33s CPU    141.17s WALL (       1 calls)

     Called by init_run:
     wfcinit      :      2.40s CPU      3.27s WALL (       1 calls)
     potinit      :      1.98s CPU      2.15s WALL (       1 calls)
     hinit0       :      1.00s CPU      1.03s WALL (       1 calls)

     Called by electrons:
     c_bands      :    921.94s CPU    956.41s WALL (      10 calls)
     sum_band     :    145.83s CPU    158.87s WALL (      10 calls)
     v_of_rho     :      5.50s CPU      6.45s WALL (      10 calls)
     newd         :     16.98s CPU     25.33s WALL (      10 calls)
     PAW_pot      :     14.28s CPU     14.37s WALL (      10 calls)
     mix_rho      :      0.89s CPU      0.99s WALL (      10 calls)

     Called by c_bands:
     init_us_2    :     22.39s CPU     22.93s WALL (     154 calls)
     cegterg      :    870.48s CPU    903.96s WALL (      70 calls)

     Called by *egterg:
     cdiaghg      :     19.93s CPU     20.04s WALL (     396 calls)
     h_psi        :    569.95s CPU    594.28s WALL (     410 calls)
     s_psi        :    141.35s CPU    142.90s WALL (     410 calls)
     g_psi        :      0.97s CPU      0.98s WALL (     340 calls)

     Called by h_psi:
     h_psi:calbec :    158.75s CPU    160.60s WALL (     410 calls)
     vloc_psi     :    268.38s CPU    287.69s WALL (     410 calls)
                                        0.00s GPU  (     410 calls)
     add_vuspsi   :    141.80s CPU    143.17s WALL (     410 calls)

     General routines
     calbec       :    314.95s CPU    319.19s WALL (     599 calls)
     fft          :      5.97s CPU      6.55s WALL (     154 calls)
     ffts         :      0.42s CPU      0.45s WALL (      20 calls)
     fftw         :    277.04s CPU    299.79s WALL (   61648 calls)
     interpolate  :      0.63s CPU      0.67s WALL (      10 calls)

     Parallel routines

     PWSCF        :  21m25.88s CPU  22m37.26s WALL


   This run was terminated on:  17:49:18   3Jul2026            

=------------------------------------------------------------------------------=
   JOB DONE.
=------------------------------------------------------------------------------=
