134
Lattice="9.61005442844461 0.0 0.0 -4.805027214222305 8.322547386393744 0.0 0.0 0.0 39.34876186949803" Properties=species:S:1:pos:R:3 pbc="T T T"
Al       0.00000000       2.77418376      23.99620317
Al       2.40251361       1.38709188      22.08176402
Al       0.00000000       0.00000000      21.63044051
Al      -0.00000000       2.77418376      19.93658517
Al       0.00000000       0.00000000      15.08393429
Al       0.00000000       2.77418376      14.08699534
Al       2.40251361       1.38709188      25.26176441
Al       0.00000000       0.00000000      24.26482546
Al       2.40251361       1.38709188      19.41217458
Al       0.00000000       0.00000000      17.71831924
Al       0.00000000       2.77418376      17.26699573
Al       2.40251361       1.38709188      15.35255658
O        0.93090744       1.38103224      20.76777844
O        1.65821292       2.86454211      22.97555715
O        3.13306892       2.66457003      20.76777844
O        3.14356451       0.11567334      20.76777844
O        4.05417339       1.29295007      22.97555715
O        1.49515452       0.00378346      22.97555715
O       -1.51544293       2.84005149      25.14871949
O        1.58774905       0.10761367      14.20004026
O        0.81476456       4.05366196      25.14871948
O        0.70067832       1.42883784      25.14871949
O        1.70183529       2.73243779      14.20004026
O        3.91795654       1.32122415      14.20004027
O        3.30987270      -0.00378346      16.37320260
O       -0.73055531       1.49670561      18.58098131
O        0.74430069       1.29673353      16.37320260
O        3.15336744       2.86832557      16.37320260
O       -0.74105090       4.04560229      18.58098131
O        1.47160616       2.78024340      18.58098131
Al      -2.40251361       6.93545940      23.99620317
Al       0.00000000       5.54836752      22.08176402
Al      -2.40251361       4.16127564      21.63044051
Al      -2.40251361       6.93545940      19.93658517
Al      -2.40251361       4.16127564      15.08393430
Al      -2.40251361       6.93545940      14.08699534
Al       0.00000000       5.54836752      25.26176441
Al      -2.40251361       4.16127564      24.26482545
Al       0.00000000       5.54836752      19.41217458
Al      -2.40251361       4.16127564      17.71831924
Al      -2.40251361       6.93545940      17.26699573
Al       0.00000000       5.54836752      15.35255658
O       -1.47160617       5.54230788      20.76777844
O       -0.74430069       7.02581775      22.97555715
O        0.73055531       6.82584566      20.76777844
O        0.74105091       4.27694898      20.76777844
O        1.65165978       5.45422571      22.97555715
O       -0.90735909       4.16505910      22.97555715
O       -3.91795654       7.00132713      25.14871949
O       -0.81476457       4.26888931      14.20004027
O       -1.58774905       8.21493760      25.14871949
O       -1.70183529       5.59011349      25.14871948
O       -0.70067832       6.89371343      14.20004027
O        1.51544293       5.48249979      14.20004027
O        0.90735909       4.15749218      16.37320260
O       -3.13306892       5.65798125      18.58098131
O       -1.65821292       5.45800917      16.37320260
O        0.75085383       7.02960121      16.37320260
O       -3.14356452       8.20687793      18.58098131
O       -0.93090745       6.94151904      18.58098131
Al       4.80502722       2.77418376      23.99620317
Al       7.20754083       1.38709188      22.08176402
Al       4.80502722       0.00000000      21.63044051
Al       4.80502722       2.77418376      19.93658517
Al       4.80502722       0.00000000      15.08393430
Al       4.80502722       2.77418376      14.08699534
Al       7.20754083       1.38709188      25.26176441
Al       4.80502722      -0.00000000      24.26482545
Al       7.20754083       1.38709188      19.41217458
Al       4.80502722       0.00000000      17.71831924
Al       4.80502722       2.77418376      17.26699573
Al       7.20754083       1.38709188      15.35255658
O        5.73593467       1.38103224      20.76777844
O        6.46324014       2.86454211      22.97555715
O        7.93809614       2.66457003      20.76777844
O        7.94859174       0.11567334      20.76777844
O        8.85920061       1.29295007      22.97555715
O        6.30018174       0.00378346      22.97555715
O        3.28958429       2.84005149      25.14871948
O        6.39277627       0.10761367      14.20004026
O        5.61979179       4.05366196      25.14871948
O        5.50570554       1.42883784      25.14871948
O        6.50686251       2.73243779      14.20004027
O        8.72298376       1.32122415      14.20004026
O        8.11489992      -0.00378346      16.37320260
O        4.07447191       1.49670561      18.58098131
O        5.54932791       1.29673353      16.37320260
O        7.95839466       2.86832558      16.37320260
O        4.06397631       4.04560229      18.58098131
O        6.27663339       2.78024340      18.58098131
Al       2.40251361       6.93545940      23.99620317
Al       4.80502722       5.54836752      22.08176402
Al       2.40251361       4.16127564      21.63044051
Al       2.40251361       6.93545940      19.93658517
Al       2.40251361       4.16127564      15.08393430
Al       2.40251361       6.93545940      14.08699534
Al       4.80502722       5.54836752      25.26176441
Al       2.40251361       4.16127564      24.26482545
Al       4.80502722       5.54836752      19.41217458
Al       2.40251361       4.16127564      17.71831924
Al       2.40251361       6.93545940      17.26699573
Al       4.80502722       5.54836752      15.35255658
O        3.33342106       5.54230788      20.76777844
O        4.06072653       7.02581775      22.97555715
O        5.53558253       6.82584566      20.76777844
O        5.54607812       4.27694898      20.76777844
O        6.45668700       5.45422570      22.97555715
O        3.89766813       4.16505910      22.97555715
O        0.88707068       7.00132713      25.14871948
O        3.99026266       4.26888931      14.20004027
O        3.21727817       8.21493760      25.14871949
O        3.10319193       5.59011349      25.14871949
O        4.10434890       6.89371343      14.20004026
O        6.32047015       5.48249979      14.20004026
O        5.71238631       4.15749218      16.37320260
O        1.67195830       5.65798125      18.58098131
O        3.14681430       5.45800917      16.37320260
O        5.55588105       7.02960121      16.37320260
O        1.66146271       8.20687793      18.58098131
O        3.87411978       6.94151904      18.58098131
C       -0.83605269       3.94238760      29.48950915
C        0.52345331       4.13484268      28.85209035
H       -1.60788577       4.13667495      28.73525252
H       -0.94288293       2.91366020      29.85460859
H       -0.96761782       4.64150036      30.32447940
C        1.70028872       3.90618767      29.80343614
F        0.62504831       3.27505931      27.76176441
H        1.61170622       2.89346653      30.22273313
C        3.11504515       4.04468897      29.26046418
F        0.58669224       5.42505276      28.33142264
H        1.60185036       4.61130313      30.64162597
F        3.34823977       5.30357410      28.74265728
F        3.37163530       3.13211969      28.25558635
H        3.86097530       3.87412627      30.05478144
