
     Program PWSCF v.7.5 starts on 10Jul2026 at 16:10:29 

     This program is part of the open-source Quantum ESPRESSO suite
     for quantum simulation of materials; please cite
         "P. Giannozzi et al., J. Phys.:Condens. Matter 21 395502 (2009);
         "P. Giannozzi et al., J. Phys.:Condens. Matter 29 465901 (2017);
         "P. Giannozzi et al., J. Chem. Phys. 152 154105 (2020);
          URL http://www.quantum-espresso.org", 
     in publications or presentations arising from this work. More details at
     http://www.quantum-espresso.org/quote

     Parallel version (MPI), running on    24 processors

     MPI processes distributed on     1 nodes
     245518 MiB available memory on the printing compute node when the environment starts

     Reading input from al2o3_pvdf_scf.in

     Current dimensions of program PWSCF are:
     Max number of different atomic species (ntypx) = 10
     Max number of k-points (npk) =  40000
     Max angular momentum in pseudopotentials (lmaxx) =  4
     file Al.pbe-n-kjpaw_psl.1.0.0.UPF: wavefunction(s)  3S 3P renormalized
     file O.pbe-n-kjpaw_psl.0.1.UPF: wavefunction(s)  2P renormalized
     file C.pbe-n-kjpaw_psl.1.0.0.UPF: wavefunction(s)  2S 2P renormalized

     R & G space division:  proc/nbgrp/npool/nimage =      24
     Subspace diagonalization in iterative solution of the eigenvalue problem:
     one sub-group per band group will be used
     custom distributed-memory algorithm (size of sub-group:  3*  3 procs)


     Parallelization info
     --------------------
     sticks:   dense  smooth     PW     G-vecs:    dense   smooth      PW
     Min         455     227     62               157159    55563    7920
     Max         456     228     63               157166    55578    7931
     Sum       10939    5461   1495              3771945  1333651  190169

     Using Slab Decomposition



     bravais-lattice index     =            0
     lattice parameter (alat)  =      18.1604  a.u.
     unit-cell volume          =   21237.8132 (a.u.)^3
     number of atoms/cell      =          134
     number of atomic types    =            5
     number of electrons       =       626.00
     number of Kohn-Sham states=          313
     kinetic-energy cutoff     =      60.0000  Ry
     charge density cutoff     =     480.0000  Ry
     scf convergence threshold =      1.0E-08
     mixing beta               =       0.3000
     number of iterations used =            8  plain     mixing
     Exchange-correlation=  SLA  PW   PBX  PBC
                           (   1   4   3   4   0   0   0)

     celldm(1)=  18.160371  celldm(2)=   0.000000  celldm(3)=   0.000000
     celldm(4)=   0.000000  celldm(5)=   0.000000  celldm(6)=   0.000000

     crystal axes: (cart. coord. in units of alat)
               a(1) = (   1.000000   0.000000   0.000000 )  
               a(2) = (  -0.500000   0.866025   0.000000 )  
               a(3) = (   0.000000   0.000000   4.094541 )  

     reciprocal axes: (cart. coord. in units 2 pi/alat)
               b(1) = (  1.000000  0.577351 -0.000000 )  
               b(2) = (  0.000000  1.154701  0.000000 )  
               b(3) = (  0.000000 -0.000000  0.244228 )  


     PseudoPot. # 1 for Al read from file:
     ./Al.pbe-n-kjpaw_psl.1.0.0.UPF
     MD5 check sum: cfc449ca30b5f3223ec38ddd88ac046d
     Pseudo is Projector augmented-wave + core cor, Zval =  3.0
     Generated using "atomic" code by A. Dal Corso  v.5.1
     Shape of augmentation charge: PSQ
     Using radial grid of 1135 points,  6 beta functions with: 
                l(1) =   0
                l(2) =   0
                l(3) =   1
                l(4) =   1
                l(5) =   2
                l(6) =   2
     Q(r) pseudized with 0 coefficients 


     PseudoPot. # 2 for O  read from file:
     ./O.pbe-n-kjpaw_psl.0.1.UPF
     MD5 check sum: 0234752ac141de4415c5fc33072bef88
     Pseudo is Projector augmented-wave + core cor, Zval =  6.0
     Generated using "atomic" code by A. Dal Corso  v.5.0.99 svn rev. 10869
     Shape of augmentation charge: BESSEL
     Using radial grid of 1095 points,  4 beta functions with: 
                l(1) =   0
                l(2) =   0
                l(3) =   1
                l(4) =   1
     Q(r) pseudized with 0 coefficients 


     PseudoPot. # 3 for C  read from file:
     ./C.pbe-n-kjpaw_psl.1.0.0.UPF
     MD5 check sum: 5d2aebdfa2cae82b50a7e79e9516da0f
     Pseudo is Projector augmented-wave + core cor, Zval =  4.0
     Generated using "atomic" code by A. Dal Corso  v.5.1
     Shape of augmentation charge: PSQ
     Using radial grid of 1073 points,  4 beta functions with: 
                l(1) =   0
                l(2) =   0
                l(3) =   1
                l(4) =   1
     Q(r) pseudized with 0 coefficients 


     PseudoPot. # 4 for H  read from file:
     ./H.pbe-rrkjus_psl.1.0.0.UPF
     MD5 check sum: f52b6d4d1c606e5624b1dc7b2218f220
     Pseudo is Ultrasoft, Zval =  1.0
     Generated using "atomic" code by A. Dal Corso  v.5.1
     Using radial grid of  929 points,  2 beta functions with: 
                l(1) =   0
                l(2) =   0
     Q(r) pseudized with 0 coefficients 


     PseudoPot. # 5 for F  read from file:
     ./f_pbe_v1.4.uspp.F.UPF
     MD5 check sum: 4c38b6a325caf53ec0e86aed9459de46
     Pseudo is Ultrasoft, Zval =  7.0
     Generated by new atomic code, or converted to UPF format
     Using radial grid of  799 points,  4 beta functions with: 
                l(1) =   0
                l(2) =   0
                l(3) =   1
                l(4) =   1
     Q(r) pseudized with  8 coefficients,  rinner =    0.950   0.950   0.950


     atomic species   valence    mass     pseudopotential
     Al                3.00    26.98154     Al( 1.00)
     O                 6.00    15.99900     O ( 1.00)
     C                 4.00    12.01100     C ( 1.00)
     H                 1.00     1.00800     H ( 1.00)
     F                 7.00    18.99840     F ( 1.00)

     No symmetry found



   Cartesian axes

     site n.     atom                  positions (alat units)
         1        Al     tau(   1) = (   0.0017383   0.2876532   2.4964294  )
         2        Al     tau(   2) = (   0.2514847   0.1429963   2.2975069  )
         3        Al     tau(   3) = (   0.0015365  -0.0013859   2.2507972  )
         4        Al     tau(   4) = (   0.0013723   0.2881154   2.0743810  )
         5        Al     tau(   5) = (   0.0014088   0.0007821   1.5691557  )
         6        Al     tau(   6) = (   0.0013512   0.2895704   1.4664866  )
         7        Al     tau(   7) = (   0.2514215   0.1430119   2.6280412  )
         8        Al     tau(   8) = (   0.0020838  -0.0027588   2.5245693  )
         9        Al     tau(   9) = (   0.2513418   0.1438615   2.0197324  )
        10        Al     tau(  10) = (   0.0014149  -0.0000434   1.8433461  )
        11        Al     tau(  11) = (   0.0013757   0.2889046   1.7966257  )
        12        Al     tau(  12) = (   0.2513123   0.1449093   1.5973569  )
        13        O      tau(  13) = (   0.0979793   0.1428875   2.1609188  )
        14        O      tau(  14) = (   0.1741427   0.2963763   2.3903856  )
        15        O      tau(  15) = (   0.3276409   0.2764465   2.1608976  )
        16        O      tau(  16) = (   0.3284484   0.0114895   2.1602027  )
        17        O      tau(  17) = (   0.4232592   0.1328313   2.3902937  )
        18        O      tau(  18) = (   0.1569510  -0.0014352   2.3901502  )
        19        O      tau(  19) = (  -0.1558408   0.2937369   2.6174040  )
        20        O      tau(  20) = (   0.1664712   0.0120581   1.4769768  )
        21        O      tau(  21) = (   0.0860388   0.4199466   2.6146848  )
        22        O      tau(  22) = (   0.0744044   0.1463895   2.6160379  )
        23        O      tau(  23) = (   0.1784946   0.2852105   1.4774665  )
        24        O      tau(  24) = (   0.4090968   0.1381959   1.4775857  )
        25        O      tau(  25) = (   0.3456485  -0.0001041   1.7034084  )
        26        O      tau(  26) = (  -0.0746232   0.1555152   1.9328726  )
        27        O      tau(  27) = (   0.0788501   0.1353332   1.7033296  )
        28        O      tau(  28) = (   0.3296626   0.2989061   1.7034460  )
        29        O      tau(  29) = (  -0.0756973   0.4207873   1.9330923  )
        30        O      tau(  30) = (   0.1546297   0.2889628   1.9331428  )
        31        Al     tau(  31) = (  -0.2470823   0.7193990   2.4970085  )
        32        Al     tau(  32) = (   0.0017868   0.5757281   2.2995441  )
        33        Al     tau(  33) = (  -0.2477260   0.4314719   2.2510123  )
        34        Al     tau(  34) = (  -0.2483141   0.7208364   2.0742858  )
        35        Al     tau(  35) = (  -0.2485956   0.4337656   1.5694715  )
        36        Al     tau(  36) = (  -0.2485057   0.7225325   1.4670478  )
        37        Al     tau(  37) = (   0.0034014   0.5737428   2.6481735  )
        38        Al     tau(  38) = (  -0.2468593   0.4317652   2.5250985  )
        39        Al     tau(  39) = (   0.0014672   0.5769450   2.0206890  )
        40        Al     tau(  40) = (  -0.2486001   0.4329284   1.8435450  )
        41        Al     tau(  41) = (  -0.2485393   0.7219167   1.7967351  )
        42        Al     tau(  42) = (   0.0013508   0.5780479   1.5976838  )
        43        O      tau(  43) = (  -0.1515537   0.5758346   2.1608046  )
        44        O      tau(  44) = (  -0.0761072   0.7304686   2.3895810  )
        45        O      tau(  45) = (   0.0777505   0.7093097   2.1609409  )
        46        O      tau(  46) = (   0.0785913   0.4440066   2.1608994  )
        47        O      tau(  47) = (   0.1748575   0.5655798   2.3891262  )
        48        O      tau(  48) = (  -0.0938255   0.4308548   2.3890894  )
        49        O      tau(  49) = (  -0.4055655   0.7254390   2.6163080  )
        50        O      tau(  50) = (  -0.0834625   0.4451312   1.4774947  )
        51        O      tau(  51) = (  -0.1640705   0.8531261   2.6170453  )
        52        O      tau(  52) = (  -0.1725061   0.5794443   2.6183908  )
        53        O      tau(  53) = (  -0.0713414   0.7182027   1.4774999  )
        54        O      tau(  54) = (   0.1590708   0.5712013   1.4777159  )
        55        O      tau(  55) = (   0.0957977   0.4329556   1.7036837  )
        56        O      tau(  56) = (  -0.3247298   0.5885045   1.9328982  )
        57        O      tau(  57) = (  -0.1711532   0.5684475   1.7034987  )
        58        O      tau(  58) = (   0.0796149   0.7320473   1.7035305  )
        59        O      tau(  59) = (  -0.3257852   0.8537606   1.9329149  )
        60        O      tau(  60) = (  -0.0953110   0.7219698   1.9330606  )
        61        Al     tau(  61) = (   0.5014704   0.2864337   2.4972145  )
        62        Al     tau(  62) = (   0.7512074   0.1424275   2.2966752  )
        63        Al     tau(  63) = (   0.5010050  -0.0013545   2.2506764  )
        64        Al     tau(  64) = (   0.5015606   0.2879131   2.0744662  )
        65        Al     tau(  65) = (   0.5014587   0.0007669   1.5695125  )
        66        Al     tau(  66) = (   0.5014113   0.2894788   1.4667871  )
        67        Al     tau(  67) = (   0.7518006   0.1417306   2.6194001  )
        68        Al     tau(  68) = (   0.5011551  -0.0035314   2.5248482  )
        69        Al     tau(  69) = (   0.7515470   0.1437905   2.0193294  )
        70        Al     tau(  70) = (   0.5015293  -0.0000834   1.8436040  )
        71        Al     tau(  71) = (   0.5014821   0.2888415   1.7964953  )
        72        Al     tau(  72) = (   0.7514597   0.1450143   1.5972620  )
        73        O      tau(  73) = (   0.5983039   0.1424450   2.1607532  )
        74        O      tau(  74) = (   0.6742843   0.2952824   2.3914635  )
        75        O      tau(  75) = (   0.8272801   0.2758585   2.1603327  )
        76        O      tau(  76) = (   0.8286564   0.0107424   2.1607936  )
        77        O      tau(  77) = (   0.9223289   0.1328923   2.3912645  )
        78        O      tau(  78) = (   0.6575862  -0.0014388   2.3915324  )
        79        O      tau(  79) = (   0.3439558   0.2939980   2.6164592  )
        80        O      tau(  80) = (   0.6665285   0.0120134   1.4772615  )
        81        O      tau(  81) = (   0.5876319   0.4195288   2.6173858  )
        82        O      tau(  82) = (   0.5741217   0.1456703   2.6164200  )
        83        O      tau(  83) = (   0.6785876   0.2851467   1.4773920  )
        84        O      tau(  84) = (   0.9090850   0.1382218   1.4771355  )
        85        O      tau(  85) = (   0.8458319   0.0000035   1.7032723  )
        86        O      tau(  86) = (   0.4253460   0.1556300   1.9329226  )
        87        O      tau(  87) = (   0.5789377   0.1354232   1.7032939  )
        88        O      tau(  88) = (   0.8296460   0.2988516   1.7033124  )
        89        O      tau(  89) = (   0.4245927   0.4207095   1.9330734  )
        90        O      tau(  90) = (   0.6545736   0.2888573   1.9329336  )
        91        Al     tau(  91) = (   0.2510771   0.7183234   2.4973012  )
        92        Al     tau(  92) = (   0.5020370   0.5757603   2.2975258  )
        93        Al     tau(  93) = (   0.2516679   0.4322286   2.2504627  )
        94        Al     tau(  94) = (   0.2515739   0.7205521   2.0744565  )
        95        Al     tau(  95) = (   0.2514354   0.4337494   1.5696519  )
        96        Al     tau(  96) = (   0.2513806   0.7224528   1.4665733  )
        97        Al     tau(  97) = (   0.5013095   0.5744362   2.6264685  )
        98        Al     tau(  98) = (   0.2510703   0.4311990   2.5241811  )
        99        Al     tau(  99) = (   0.5015765   0.5769428   2.0196943  )
       100        Al     tau( 100) = (   0.2514698   0.4329106   1.8437905  )
       101        Al     tau( 101) = (   0.2515310   0.7219066   1.7966003  )
       102        Al     tau( 102) = (   0.5014927   0.5780828   1.5973638  )
       103        O      tau( 103) = (   0.3489263   0.5754501   2.1602615  )
       104        O      tau( 104) = (   0.4243020   0.7290016   2.3902908  )
       105        O      tau( 105) = (   0.5778070   0.7090696   2.1607759  )
       106        O      tau( 106) = (   0.5791475   0.4438461   2.1612847  )
       107        O      tau( 107) = (   0.6740511   0.5656689   2.3914798  )
       108        O      tau( 108) = (   0.4079946   0.4319277   2.3911002  )
       109        O      tau( 109) = (   0.0928598   0.7247192   2.6173691  )
       110        O      tau( 110) = (   0.4165211   0.4450428   1.4773352  )
       111        O      tau( 111) = (   0.3367339   0.8516914   2.6163677  )
       112        O      tau( 112) = (   0.3240895   0.5791468   2.6168988  )
       113        O      tau( 113) = (   0.4285592   0.7180973   1.4772621  )
       114        O      tau( 114) = (   0.6592184   0.5711988   1.4774579  )
       115        O      tau( 115) = (   0.5958510   0.4329645   1.7034021  )
       116        O      tau( 116) = (   0.1753844   0.5885265   1.9331940  )
       117        O      tau( 117) = (   0.3290132   0.5684364   1.7034933  )
       118        O      tau( 118) = (   0.5797703   0.7319109   1.7032292  )
       119        O      tau( 119) = (   0.1745115   0.8537123   1.9329125  )
       120        O      tau( 120) = (   0.4047347   0.7220544   1.9329629  )
       121        C      tau( 121) = (  -0.1021627   0.4198468   3.0578453  )
       122        C      tau( 122) = (   0.0440418   0.4177690   2.9998604  )
       123        H      tau( 123) = (  -0.1740017   0.3921080   2.9734903  )
       124        H      tau( 124) = (  -0.1119860   0.3428992   3.1418307  )
       125        H      tau( 125) = (  -0.1285251   0.5239225   3.0971705  )
       126        C      tau( 126) = (   0.1604283   0.4321014   3.1075910  )
       127        F      tau( 127) = (   0.0628487   0.2974862   2.9248510  )
       128        H      tau( 128) = (   0.1479656   0.3457847   3.1817925  )
       129        C      tau( 129) = (   0.3109145   0.4284637   3.0576412  )
       130        F      tau( 130) = (   0.0542928   0.5298042   2.9025814  )
       131        H      tau( 131) = (   0.1456841   0.5292249   3.1662968  )
       132        F      tau( 132) = (   0.3409954   0.5398976   2.9722243  )
       133        F      tau( 133) = (   0.3405642   0.3081173   2.9852687  )
       134        H      tau( 134) = (   0.3839575   0.4328060   3.1461119  )

     number of k points=    16
                       cart. coord. in units 2pi/alat
        k(    1) = (   0.0000000   0.0000000   0.0000000), wk =   0.1250000
        k(    2) = (   0.0000000   0.2886753   0.0000000), wk =   0.1250000
        k(    3) = (   0.0000000  -0.5773505   0.0000000), wk =   0.1250000
        k(    4) = (   0.0000000  -0.2886753   0.0000000), wk =   0.1250000
        k(    5) = (   0.2500000   0.1443376   0.0000000), wk =   0.1250000
        k(    6) = (   0.2500000   0.4330129   0.0000000), wk =   0.1250000
        k(    7) = (   0.2500000  -0.4330129   0.0000000), wk =   0.1250000
        k(    8) = (   0.2500000  -0.1443376   0.0000000), wk =   0.1250000
        k(    9) = (  -0.5000000  -0.2886753   0.0000000), wk =   0.1250000
        k(   10) = (  -0.5000000   0.0000000   0.0000000), wk =   0.1250000
        k(   11) = (  -0.5000000  -0.8660258   0.0000000), wk =   0.1250000
        k(   12) = (  -0.5000000  -0.5773505   0.0000000), wk =   0.1250000
        k(   13) = (  -0.2500000  -0.1443376   0.0000000), wk =   0.1250000
        k(   14) = (  -0.2500000   0.1443376   0.0000000), wk =   0.1250000
        k(   15) = (  -0.2500000  -0.7216882   0.0000000), wk =   0.1250000
        k(   16) = (  -0.2500000  -0.4330129   0.0000000), wk =   0.1250000

     Dense  grid:  3771945 G-vectors     FFT dimensions: ( 128, 128, 540)

     Smooth grid:  1333651 G-vectors     FFT dimensions: (  90,  90, 375)

     Estimated max dynamical RAM per process >       1.76 GB

     Estimated total dynamical RAM >      42.27 GB

     Atomic positions and unit cell read from directory:
     ./tmp/al2o3_pvdf.save/
     Atomic positions from file used, from input discarded


     The initial density is read from file :
     ./tmp/al2o3_pvdf.save/charge-density


     negative rho (up, down):  4.090E-03 0.000E+00
     Starting wfcs from file
     Checking if some PAW data can be deallocated... 

     total cpu time spent up to now is      134.0 secs

     Self-consistent Calculation

     iteration #  1     ecut=    60.00 Ry     beta= 0.30
     Davidson diagonalization with overlap
     ethr =  1.00E-05,  avg # of iterations =  3.0

     Threshold (ethr) on eigenvalues was too large:
     Diagonalizing with lowered threshold

     Davidson diagonalization with overlap
     ethr =  1.21E-07,  avg # of iterations =  3.9

     negative rho (up, down):  4.082E-03 0.000E+00

     total cpu time spent up to now is      977.9 secs

     total energy              =   -5186.33054693 Ry
     estimated scf accuracy    <       0.00081765 Ry

     iteration #  2     ecut=    60.00 Ry     beta= 0.30
     Davidson diagonalization with overlap
     ethr =  1.31E-07,  avg # of iterations =  2.0

     negative rho (up, down):  4.071E-03 0.000E+00

     total cpu time spent up to now is     1284.9 secs

     total energy              =   -5186.33050783 Ry
     estimated scf accuracy    <       0.00032967 Ry

     iteration #  3     ecut=    60.00 Ry     beta= 0.30
     Davidson diagonalization with overlap
     ethr =  5.27E-08,  avg # of iterations =  3.0

     negative rho (up, down):  4.068E-03 0.000E+00

     total cpu time spent up to now is     1602.0 secs

     total energy              =   -5186.33053714 Ry
     estimated scf accuracy    <       0.00002172 Ry

     iteration #  4     ecut=    60.00 Ry     beta= 0.30
     Davidson diagonalization with overlap
     ethr =  3.47E-09,  avg # of iterations =  3.9

     negative rho (up, down):  4.067E-03 0.000E+00

     total cpu time spent up to now is     1971.5 secs

     total energy              =   -5186.33053985 Ry
     estimated scf accuracy    <       0.00000432 Ry

     iteration #  5     ecut=    60.00 Ry     beta= 0.30
     Davidson diagonalization with overlap
     ethr =  6.90E-10,  avg # of iterations =  4.0

     negative rho (up, down):  4.067E-03 0.000E+00

     total cpu time spent up to now is     2353.8 secs

     total energy              =   -5186.33054048 Ry
     estimated scf accuracy    <       0.00000051 Ry

     iteration #  6     ecut=    60.00 Ry     beta= 0.30
     Davidson diagonalization with overlap
     ethr =  8.18E-11,  avg # of iterations =  4.0

     negative rho (up, down):  4.067E-03 0.000E+00

     total cpu time spent up to now is     2747.5 secs

     total energy              =   -5186.33054059 Ry
     estimated scf accuracy    <       0.00000012 Ry

     iteration #  7     ecut=    60.00 Ry     beta= 0.30
     Davidson diagonalization with overlap
     ethr =  1.90E-11,  avg # of iterations =  3.0

     negative rho (up, down):  4.067E-03 0.000E+00

     total cpu time spent up to now is     3098.8 secs

     total energy              =   -5186.33054061 Ry
     estimated scf accuracy    <       0.00000002 Ry

     iteration #  8     ecut=    60.00 Ry     beta= 0.30
     Davidson diagonalization with overlap
     ethr =  2.49E-12,  avg # of iterations =  4.0

     negative rho (up, down):  4.068E-03 0.000E+00

     total cpu time spent up to now is     3498.8 secs

     End of self-consistent calculation

          k = 0.0000 0.0000 0.0000 (166875 PWs)   bands (ev):

   -27.0419 -26.8723 -25.6049 -25.4814 -20.0193 -19.6850 -19.3066 -19.1105
   -19.1024 -19.0954 -19.0328 -19.0303 -19.0221 -18.8285 -18.8283 -18.8263
   -18.7509 -18.6420 -18.6345 -18.6305 -18.3948 -18.3941 -18.3913 -18.3759
   -18.3715 -18.3394 -18.1192 -18.0613 -18.0547 -18.0514 -17.9801 -17.9742
   -17.9727 -17.9441 -17.9414 -17.9371 -17.9043 -17.7847 -17.7790 -17.7719
   -17.6793 -17.6657 -17.6624 -17.6570 -17.6448 -17.6372 -17.6346 -17.6318
   -17.5390 -17.5359 -17.5311 -17.5270 -17.5216 -17.4889 -17.4866 -17.4845
   -17.4698 -17.4666 -17.4638 -17.4390 -17.4365 -17.3968 -17.3906 -17.3822
   -17.3724 -17.3651 -17.3075 -17.3047 -17.3022 -17.2975 -17.2942 -17.2624
   -17.2610 -17.2463 -17.2439 -17.2407 -16.2570 -14.6279 -12.3771 -11.1638
    -9.5382  -9.3373  -8.9477  -8.8354  -7.9268  -7.5469  -7.3957  -7.3783
    -7.3740  -7.3710  -7.2866  -7.2828  -7.2776  -7.0094  -7.0024  -6.9976
    -6.9260  -6.8338  -6.8272  -6.8243  -6.7192  -6.6970  -6.6520  -6.5649
    -6.5603  -6.5542  -6.3964  -6.3871  -6.3865  -6.3761  -6.3736  -6.3462
    -6.2677  -6.1825  -6.1799  -6.1784  -6.0700  -6.0656  -6.0558  -6.0168
    -6.0156  -5.9454  -5.8757  -5.8097  -5.8067  -5.7962  -5.7943  -5.7915
    -5.7839  -5.6881  -5.6813  -5.6713  -5.6500  -5.5131  -5.5080  -5.4799
    -5.4201  -5.2795  -5.1764  -5.1365  -5.1293  -5.1232  -5.1020  -5.0990
    -5.0891  -4.9877  -4.9784  -4.9747  -4.9593  -4.9555  -4.9307  -4.9149
    -4.9094  -4.9003  -4.8851  -4.8341  -4.8315  -4.8101  -4.7978  -4.7953
    -4.7596  -4.6990  -4.6981  -4.6938  -4.6831  -4.6776  -4.6545  -4.5548
    -4.5491  -4.5450  -4.5360  -4.4572  -4.4545  -4.4470  -4.4246  -4.3649
    -4.3270  -4.3205  -4.3096  -4.1770  -4.1712  -4.1642  -4.1589  -4.0009
    -3.9900  -3.9797  -3.9331  -3.8228  -3.8182  -3.8111  -3.7119  -3.5949
    -3.5569  -3.5482  -3.5334  -3.4611  -3.4175  -3.4163  -3.4123  -3.3492
    -3.3463  -3.3438  -3.2391  -3.2370  -3.2304  -3.2248  -3.2227  -3.2191
    -3.1954  -3.1917  -3.1888  -3.1825  -3.1803  -3.1131  -3.1107  -2.9434
    -2.9387  -2.9295  -2.9234  -2.8981  -2.8863  -2.8701  -2.7202  -2.7174
    -2.7150  -2.6721  -2.6638  -2.6524  -2.6204  -2.6102  -2.6068  -2.5312
    -2.5253  -2.5000  -2.4922  -2.4812  -2.4790  -2.4746  -2.4610  -2.4531
    -2.4494  -2.4435  -2.4394  -2.4358  -2.3867  -2.3827  -2.3786  -2.3516
    -2.3475  -2.3397  -2.2375  -2.2353  -2.2286  -2.1686  -2.1682  -2.1647
    -2.1534  -2.1511  -2.1470  -2.1328  -2.1310  -2.1217  -2.1125  -2.1097
    -2.1066  -2.1015  -2.0968  -2.0958  -2.0897  -2.0330  -2.0175  -2.0120
    -1.9655  -1.9279  -1.9254  -1.9195  -1.7394  -1.7383  -1.7340  -1.7213
    -1.7095  -1.7086  -1.6272  -1.6185  -1.6124  -1.5983  -1.5941  -1.5376
    -1.5360  -1.5155  -1.5134  -1.5046  -1.3970  -1.3932  -1.3429  -1.2949
    -1.2936  -1.2901  -1.2653  -1.2620  -1.2432  -1.2405  -1.2380  -1.1826
    -1.1816  -1.1765  -1.1173  -1.1128  -1.1024  -1.0699  -1.0656  -1.0201
    -1.0117

          k = 0.0000 0.2887 0.0000 (166721 PWs)   bands (ev):

   -27.0419 -26.8723 -25.6049 -25.4814 -19.9499 -19.6184 -19.4361 -19.2462
   -19.2159 -19.2091 -19.1358 -18.9620 -18.9530 -18.8413 -18.8028 -18.7936
   -18.7033 -18.6037 -18.5968 -18.5816 -18.3878 -18.3756 -18.2748 -18.2615
   -18.2446 -18.2266 -18.1270 -18.1161 -18.0843 -18.0525 -18.0263 -18.0041
   -17.9211 -17.8986 -17.8901 -17.8750 -17.8516 -17.8258 -17.7976 -17.7608
   -17.7520 -17.7477 -17.7434 -17.7182 -17.7153 -17.6544 -17.6410 -17.6335
   -17.6055 -17.5773 -17.5727 -17.5686 -17.5637 -17.5169 -17.5136 -17.4875
   -17.4815 -17.4756 -17.4508 -17.4365 -17.4274 -17.4243 -17.3874 -17.3454
   -17.3255 -17.3120 -17.3094 -17.2995 -17.2854 -17.2790 -17.2712 -17.2553
   -17.2485 -17.2363 -17.2336 -17.2220 -16.2570 -14.6279 -12.3771 -11.1637
    -9.5382  -9.3373  -8.9476  -8.8354  -7.9267  -7.4926  -7.3956  -7.3743
    -7.2720  -7.2572  -7.1812  -7.1553  -7.1351  -7.0312  -6.9588  -6.8793
    -6.8696  -6.8224  -6.7642  -6.7504  -6.7481  -6.7328  -6.7178  -6.7023
    -6.6878  -6.6189  -6.5649  -6.3932  -6.3845  -6.3680  -6.3516  -6.3404
    -6.3077  -6.2970  -6.2913  -6.2010  -6.1734  -6.0866  -6.0573  -5.9999
    -5.9785  -5.9722  -5.9314  -5.9156  -5.8915  -5.8709  -5.8352  -5.8047
    -5.7182  -5.6965  -5.6862  -5.6778  -5.6729  -5.5097  -5.4703  -5.4248
    -5.3894  -5.3113  -5.2989  -5.2951  -5.2610  -5.2230  -5.1977  -5.1813
    -5.1635  -5.1297  -5.0892  -5.0696  -5.0582  -5.0455  -5.0005  -4.9825
    -4.9769  -4.9572  -4.9321  -4.8846  -4.8617  -4.8402  -4.8319  -4.8051
    -4.7718  -4.7635  -4.7078  -4.6917  -4.6559  -4.6227  -4.6041  -4.4543
    -4.3823  -4.3637  -4.3091  -4.2976  -4.2417  -4.2362  -4.2251  -4.2124
    -4.2051  -4.1716  -4.1490  -4.1243  -4.1120  -4.0434  -4.0210  -3.9193
    -3.8839  -3.8143  -3.7983  -3.7875  -3.7525  -3.6777  -3.6569  -3.6296
    -3.5982  -3.5739  -3.5534  -3.5382  -3.4684  -3.4518  -3.4451  -3.4284
    -3.4090  -3.4028  -3.3676  -3.3383  -3.3281  -3.2769  -3.2261  -3.2194
    -3.1989  -3.1194  -3.0790  -3.0506  -3.0434  -3.0243  -3.0072  -3.0001
    -2.9928  -2.9241  -2.9196  -2.8844  -2.8496  -2.8381  -2.7896  -2.7807
    -2.7609  -2.7357  -2.7137  -2.6676  -2.6657  -2.6397  -2.6328  -2.6254
    -2.6060  -2.5922  -2.5746  -2.5611  -2.5251  -2.5203  -2.4933  -2.4693
    -2.4570  -2.4428  -2.4147  -2.4047  -2.4013  -2.3898  -2.3622  -2.3529
    -2.3437  -2.3325  -2.2991  -2.2750  -2.2633  -2.2458  -2.2408  -2.2209
    -2.2070  -2.1917  -2.1659  -2.1458  -2.1352  -2.1166  -2.1013  -2.0904
    -2.0673  -2.0107  -1.9854  -1.9822  -1.9384  -1.9247  -1.9190  -1.8962
    -1.8930  -1.8870  -1.8801  -1.8351  -1.7699  -1.7601  -1.7533  -1.7250
    -1.7118  -1.6857  -1.6711  -1.6688  -1.6461  -1.6201  -1.5571  -1.5497
    -1.5393  -1.5202  -1.5093  -1.5023  -1.4839  -1.4691  -1.3924  -1.3269
    -1.3174  -1.2996  -1.2879  -1.2836  -1.2482  -1.2428  -1.2329  -1.2317
    -1.1848  -1.1793  -1.1749  -1.1399  -1.1197  -1.1148  -1.0912  -1.0844
    -1.0295

          k = 0.0000-0.5774 0.0000 (166636 PWs)   bands (ev):

   -27.0419 -26.8723 -25.6049 -25.4814 -19.7519 -19.7446 -19.4300 -19.4216
   -19.2670 -19.2602 -19.0783 -19.0697 -18.9830 -18.9758 -18.7239 -18.7187
   -18.5832 -18.5782 -18.5615 -18.5554 -18.3358 -18.3306 -18.2297 -18.2214
   -18.1134 -18.1085 -18.0912 -18.0895 -18.0462 -18.0436 -17.9693 -17.9660
   -17.9518 -17.9455 -17.9170 -17.9118 -17.8993 -17.8930 -17.8349 -17.8287
   -17.7355 -17.7350 -17.7026 -17.6990 -17.6891 -17.6845 -17.6811 -17.6753
   -17.6668 -17.6610 -17.6477 -17.6421 -17.5682 -17.5670 -17.5630 -17.5554
   -17.4926 -17.4895 -17.4764 -17.4672 -17.3716 -17.3671 -17.3397 -17.3335
   -17.3073 -17.3061 -17.2856 -17.2758 -17.2714 -17.2689 -17.2584 -17.2553
   -17.2433 -17.2365 -17.2185 -17.2113 -16.2570 -14.6279 -12.3772 -11.1637
    -9.5382  -9.3374  -8.9475  -8.8354  -7.9267  -7.4023  -7.3816  -7.3757
    -7.0929  -7.0903  -7.0327  -7.0259  -6.9742  -6.9710  -6.9453  -6.9374
    -6.8795  -6.8785  -6.8214  -6.8141  -6.7215  -6.6719  -6.6633  -6.5986
    -6.5883  -6.5743  -6.5613  -6.5484  -6.5349  -6.4612  -6.4583  -6.3755
    -6.3628  -6.3504  -6.3343  -6.3322  -6.2345  -6.2287  -6.2174  -6.2118
    -6.0388  -6.0276  -6.0026  -5.9868  -5.9061  -5.8342  -5.8318  -5.8254
    -5.8236  -5.5614  -5.5414  -5.5267  -5.5156  -5.5007  -5.4846  -5.4733
    -5.4547  -5.4426  -5.4169  -5.3961  -5.3889  -5.3745  -5.3713  -5.2781
    -5.1803  -5.1776  -5.1334  -5.1313  -5.1213  -5.0437  -5.0223  -4.9661
    -4.9608  -4.9534  -4.9476  -4.9353  -4.9313  -4.9071  -4.8851  -4.8469
    -4.8396  -4.6471  -4.6374  -4.4833  -4.4768  -4.4551  -4.4541  -4.3640
    -4.3509  -4.3405  -4.3124  -4.3030  -4.2531  -4.2438  -4.1519  -4.1365
    -4.0988  -4.0864  -4.0254  -4.0202  -3.9452  -3.9282  -3.9260  -3.9248
    -3.8350  -3.8173  -3.7523  -3.7414  -3.7257  -3.7215  -3.5896  -3.5844
    -3.5286  -3.5176  -3.4934  -3.4870  -3.4733  -3.4635  -3.4521  -3.3228
    -3.3143  -3.3082  -3.2981  -3.2565  -3.2490  -3.2369  -3.2174  -3.1806
    -3.1712  -3.1016  -3.0913  -3.0838  -3.0771  -3.0734  -3.0604  -3.0438
    -3.0332  -2.9463  -2.9328  -2.9032  -2.8831  -2.8425  -2.8303  -2.8266
    -2.8208  -2.7865  -2.7818  -2.7788  -2.7704  -2.6824  -2.6738  -2.6474
    -2.6398  -2.6086  -2.5986  -2.5437  -2.5382  -2.5189  -2.5134  -2.4698
    -2.4633  -2.4603  -2.4489  -2.4189  -2.4137  -2.4111  -2.4036  -2.3767
    -2.3593  -2.3208  -2.3056  -2.2983  -2.2965  -2.2512  -2.2434  -2.2270
    -2.2138  -2.1862  -2.1763  -2.1280  -2.1167  -2.0631  -2.0602  -2.0476
    -2.0355  -2.0306  -2.0255  -1.9800  -1.9644  -1.9128  -1.9108  -1.8959
    -1.8871  -1.8748  -1.8645  -1.8310  -1.8246  -1.7820  -1.7757  -1.7345
    -1.7294  -1.7054  -1.6954  -1.6325  -1.6274  -1.6140  -1.6106  -1.5337
    -1.5296  -1.4900  -1.4803  -1.4759  -1.4723  -1.4593  -1.4578  -1.4211
    -1.3995  -1.3411  -1.3328  -1.2844  -1.2823  -1.2551  -1.2475  -1.1742
    -1.1737  -1.1601  -1.1558  -1.1550  -1.1486  -1.1105  -1.1048  -1.0929
    -1.0767

          k = 0.0000-0.2887 0.0000 (166721 PWs)   bands (ev):

   -27.0419 -26.8723 -25.6049 -25.4814 -19.9499 -19.6184 -19.4361 -19.2462
   -19.2159 -19.2091 -19.1358 -18.9620 -18.9530 -18.8413 -18.8028 -18.7936
   -18.7033 -18.6037 -18.5968 -18.5816 -18.3878 -18.3756 -18.2748 -18.2615
   -18.2446 -18.2266 -18.1270 -18.1161 -18.0843 -18.0525 -18.0263 -18.0041
   -17.9211 -17.8986 -17.8901 -17.8750 -17.8516 -17.8258 -17.7976 -17.7608
   -17.7520 -17.7477 -17.7434 -17.7182 -17.7153 -17.6544 -17.6410 -17.6335
   -17.6055 -17.5773 -17.5727 -17.5686 -17.5637 -17.5169 -17.5136 -17.4875
   -17.4815 -17.4756 -17.4508 -17.4365 -17.4274 -17.4243 -17.3874 -17.3454
   -17.3255 -17.3120 -17.3094 -17.2995 -17.2854 -17.2790 -17.2712 -17.2553
   -17.2485 -17.2363 -17.2336 -17.2220 -16.2570 -14.6279 -12.3771 -11.1637
    -9.5382  -9.3373  -8.9476  -8.8354  -7.9267  -7.4926  -7.3956  -7.3743
    -7.2720  -7.2572  -7.1812  -7.1553  -7.1351  -7.0312  -6.9588  -6.8793
    -6.8696  -6.8224  -6.7642  -6.7504  -6.7481  -6.7328  -6.7178  -6.7023
    -6.6878  -6.6189  -6.5649  -6.3932  -6.3845  -6.3680  -6.3516  -6.3404
    -6.3077  -6.2970  -6.2913  -6.2010  -6.1734  -6.0866  -6.0573  -5.9999
    -5.9785  -5.9722  -5.9314  -5.9156  -5.8915  -5.8709  -5.8352  -5.8047
    -5.7182  -5.6965  -5.6862  -5.6778  -5.6729  -5.5097  -5.4703  -5.4248
    -5.3894  -5.3113  -5.2989  -5.2951  -5.2610  -5.2230  -5.1977  -5.1813
    -5.1635  -5.1297  -5.0892  -5.0696  -5.0582  -5.0455  -5.0005  -4.9825
    -4.9769  -4.9572  -4.9321  -4.8846  -4.8617  -4.8402  -4.8319  -4.8051
    -4.7718  -4.7635  -4.7078  -4.6917  -4.6559  -4.6227  -4.6041  -4.4543
    -4.3823  -4.3637  -4.3091  -4.2976  -4.2417  -4.2362  -4.2251  -4.2124
    -4.2051  -4.1716  -4.1490  -4.1243  -4.1120  -4.0434  -4.0210  -3.9193
    -3.8839  -3.8143  -3.7983  -3.7875  -3.7525  -3.6777  -3.6569  -3.6296
    -3.5982  -3.5739  -3.5534  -3.5382  -3.4684  -3.4518  -3.4451  -3.4284
    -3.4090  -3.4028  -3.3676  -3.3383  -3.3281  -3.2769  -3.2261  -3.2194
    -3.1989  -3.1194  -3.0790  -3.0506  -3.0434  -3.0243  -3.0072  -3.0001
    -2.9928  -2.9241  -2.9196  -2.8844  -2.8496  -2.8381  -2.7896  -2.7807
    -2.7609  -2.7357  -2.7137  -2.6676  -2.6657  -2.6397  -2.6328  -2.6254
    -2.6060  -2.5922  -2.5746  -2.5611  -2.5251  -2.5203  -2.4933  -2.4693
    -2.4570  -2.4428  -2.4147  -2.4047  -2.4013  -2.3898  -2.3622  -2.3529
    -2.3437  -2.3325  -2.2991  -2.2750  -2.2633  -2.2458  -2.2408  -2.2209
    -2.2070  -2.1917  -2.1659  -2.1458  -2.1352  -2.1166  -2.1013  -2.0904
    -2.0673  -2.0107  -1.9854  -1.9822  -1.9384  -1.9247  -1.9190  -1.8962
    -1.8930  -1.8870  -1.8801  -1.8351  -1.7699  -1.7601  -1.7533  -1.7250
    -1.7118  -1.6857  -1.6711  -1.6688  -1.6461  -1.6201  -1.5571  -1.5497
    -1.5393  -1.5202  -1.5093  -1.5023  -1.4839  -1.4691  -1.3924  -1.3269
    -1.3174  -1.2996  -1.2879  -1.2836  -1.2482  -1.2428  -1.2329  -1.2317
    -1.1848  -1.1793  -1.1749  -1.1399  -1.1197  -1.1148  -1.0912  -1.0844
    -1.0295

          k = 0.2500 0.1443 0.0000 (166721 PWs)   bands (ev):

   -27.0419 -26.8723 -25.6049 -25.4814 -19.9500 -19.6184 -19.4364 -19.2463
   -19.2168 -19.2074 -19.1367 -18.9602 -18.9509 -18.8410 -18.8030 -18.7964
   -18.7034 -18.6058 -18.5975 -18.5815 -18.3893 -18.3746 -18.2717 -18.2625
   -18.2414 -18.2262 -18.1277 -18.1170 -18.0844 -18.0540 -18.0285 -18.0051
   -17.9213 -17.8977 -17.8906 -17.8744 -17.8496 -17.8245 -17.7950 -17.7616
   -17.7581 -17.7461 -17.7444 -17.7191 -17.7142 -17.6532 -17.6385 -17.6331
   -17.6012 -17.5771 -17.5739 -17.5679 -17.5637 -17.5202 -17.5147 -17.4856
   -17.4805 -17.4782 -17.4526 -17.4370 -17.4298 -17.4228 -17.3845 -17.3472
   -17.3263 -17.3111 -17.3077 -17.2975 -17.2856 -17.2806 -17.2713 -17.2535
   -17.2492 -17.2404 -17.2332 -17.2204 -16.2570 -14.6280 -12.3766 -11.1640
    -9.5382  -9.3380  -8.9476  -8.8375  -7.9250  -7.4927  -7.3946  -7.3739
    -7.2743  -7.2537  -7.1838  -7.1566  -7.1343  -7.0305  -6.9576  -6.8809
    -6.8672  -6.8253  -6.7649  -6.7542  -6.7474  -6.7296  -6.7180  -6.7039
    -6.6823  -6.6209  -6.5641  -6.3931  -6.3818  -6.3695  -6.3516  -6.3417
    -6.3065  -6.2943  -6.2927  -6.2019  -6.1728  -6.0878  -6.0566  -5.9985
    -5.9804  -5.9611  -5.9340  -5.9140  -5.8932  -5.8757  -5.8412  -5.7991
    -5.7195  -5.6995  -5.6826  -5.6784  -5.6744  -5.5135  -5.4659  -5.4234
    -5.3946  -5.3107  -5.2993  -5.2893  -5.2620  -5.2247  -5.1976  -5.1814
    -5.1613  -5.1292  -5.0890  -5.0709  -5.0601  -5.0461  -5.0060  -4.9830
    -4.9729  -4.9551  -4.9341  -4.8852  -4.8588  -4.8423  -4.8371  -4.8045
    -4.7741  -4.7649  -4.7092  -4.6911  -4.6552  -4.6232  -4.6013  -4.4558
    -4.3820  -4.3596  -4.3133  -4.3025  -4.2406  -4.2372  -4.2244  -4.2113
    -4.2041  -4.1710  -4.1487  -4.1244  -4.1075  -4.0369  -4.0195  -3.9179
    -3.8800  -3.8101  -3.7994  -3.7891  -3.7523  -3.6746  -3.6540  -3.6315
    -3.5992  -3.5742  -3.5560  -3.5371  -3.4684  -3.4549  -3.4431  -3.4330
    -3.4131  -3.4035  -3.3665  -3.3327  -3.3243  -3.2807  -3.2287  -3.2242
    -3.1992  -3.1202  -3.0787  -3.0485  -3.0445  -3.0284  -3.0079  -3.0039
    -2.9864  -2.9321  -2.9137  -2.8768  -2.8551  -2.8402  -2.7917  -2.7798
    -2.7600  -2.7343  -2.7131  -2.6685  -2.6607  -2.6391  -2.6288  -2.6158
    -2.6112  -2.5921  -2.5729  -2.5672  -2.5232  -2.5199  -2.4948  -2.4731
    -2.4580  -2.4412  -2.4123  -2.4050  -2.4010  -2.3927  -2.3614  -2.3541
    -2.3413  -2.3289  -2.2971  -2.2777  -2.2635  -2.2470  -2.2378  -2.2205
    -2.2084  -2.1915  -2.1691  -2.1479  -2.1350  -2.1138  -2.1066  -2.0902
    -2.0660  -2.0053  -1.9882  -1.9840  -1.9409  -1.9226  -1.9185  -1.9029
    -1.8948  -1.8893  -1.8795  -1.8364  -1.7722  -1.7581  -1.7535  -1.7223
    -1.7173  -1.6844  -1.6741  -1.6695  -1.6434  -1.6186  -1.5532  -1.5457
    -1.5384  -1.5210  -1.5108  -1.4994  -1.4839  -1.4648  -1.3968  -1.3257
    -1.3132  -1.3039  -1.2894  -1.2820  -1.2500  -1.2445  -1.2376  -1.2279
    -1.1856  -1.1810  -1.1733  -1.1395  -1.1220  -1.1139  -1.0946  -1.0816
    -1.0241

          k = 0.2500 0.4330 0.0000 (166642 PWs)   bands (ev):

   -27.0419 -26.8723 -25.6049 -25.4814 -19.8145 -19.5578 -19.5564 -19.4885
   -19.2470 -19.2440 -19.1296 -18.9524 -18.9211 -18.9153 -18.8834 -18.7119
   -18.6394 -18.6163 -18.5134 -18.5081 -18.3827 -18.2931 -18.2158 -18.2059
   -18.1922 -18.1115 -18.1019 -18.0936 -18.0411 -18.0095 -17.9854 -17.9734
   -17.9659 -17.8972 -17.8915 -17.8734 -17.8683 -17.8456 -17.8230 -17.8100
   -17.8021 -17.7930 -17.7786 -17.7089 -17.6938 -17.6886 -17.6824 -17.6792
   -17.6511 -17.6363 -17.6119 -17.6010 -17.5914 -17.5829 -17.5452 -17.5405
   -17.5337 -17.4913 -17.4890 -17.4423 -17.3957 -17.3689 -17.3317 -17.3229
   -17.3206 -17.2932 -17.2919 -17.2780 -17.2723 -17.2704 -17.2548 -17.2494
   -17.2408 -17.2273 -17.2228 -17.2152 -16.2570 -14.6280 -12.3766 -11.1639
    -9.5382  -9.3380  -8.9475  -8.8375  -7.9250  -7.4006  -7.3804  -7.2822
    -7.2666  -7.1121  -7.0472  -7.0354  -7.0054  -6.9769  -6.9189  -6.9135
    -6.8304  -6.8157  -6.7665  -6.7316  -6.7222  -6.7044  -6.6908  -6.6313
    -6.6132  -6.6070  -6.5871  -6.5299  -6.5176  -6.4986  -6.4228  -6.4150
    -6.3914  -6.3692  -6.3234  -6.2587  -6.2421  -6.2312  -6.1816  -6.0618
    -6.0529  -6.0301  -6.0105  -5.9815  -5.9307  -5.8949  -5.8468  -5.8260
    -5.7823  -5.6645  -5.5834  -5.5647  -5.5546  -5.5302  -5.5047  -5.4695
    -5.4502  -5.4338  -5.4190  -5.4035  -5.3410  -5.3260  -5.2928  -5.2761
    -5.2101  -5.2009  -5.1620  -5.1298  -5.1225  -5.0456  -5.0311  -4.9865
    -4.9636  -4.9542  -4.9467  -4.9281  -4.8845  -4.8469  -4.7956  -4.7492
    -4.7240  -4.6872  -4.6604  -4.6438  -4.6385  -4.5470  -4.4932  -4.4539
    -4.4152  -4.3587  -4.3526  -4.3006  -4.2477  -4.1773  -4.1449  -4.0881
    -4.0568  -4.0307  -4.0215  -3.9883  -3.9162  -3.9032  -3.8601  -3.8082
    -3.8047  -3.7869  -3.7649  -3.7216  -3.6608  -3.6337  -3.6210  -3.5671
    -3.5596  -3.5318  -3.5067  -3.4649  -3.4505  -3.4398  -3.4183  -3.3989
    -3.3669  -3.2909  -3.2653  -3.2600  -3.2477  -3.2095  -3.1966  -3.1751
    -3.1700  -3.1415  -3.1348  -3.1056  -3.0910  -3.0737  -3.0655  -3.0283
    -3.0104  -2.9942  -2.9280  -2.9041  -2.8956  -2.8894  -2.8667  -2.8565
    -2.8411  -2.8087  -2.7964  -2.7832  -2.7453  -2.7153  -2.6993  -2.6775
    -2.6457  -2.6263  -2.6062  -2.5779  -2.5725  -2.5513  -2.5403  -2.4932
    -2.4903  -2.4797  -2.4511  -2.4422  -2.4351  -2.4148  -2.3754  -2.3195
    -2.3107  -2.2996  -2.2699  -2.2691  -2.2486  -2.2293  -2.2243  -2.2113
    -2.1822  -2.1689  -2.1647  -2.1352  -2.1186  -2.0982  -2.0925  -2.0727
    -2.0104  -2.0058  -1.9930  -1.9878  -1.9268  -1.9212  -1.9152  -1.8930
    -1.8857  -1.8586  -1.8492  -1.8429  -1.8273  -1.8076  -1.7770  -1.7596
    -1.7136  -1.6955  -1.6768  -1.6633  -1.6482  -1.6075  -1.5751  -1.5696
    -1.5295  -1.5260  -1.5098  -1.4868  -1.4722  -1.4544  -1.4417  -1.4211
    -1.3657  -1.3438  -1.3234  -1.3165  -1.3091  -1.2705  -1.2175  -1.1893
    -1.1735  -1.1664  -1.1606  -1.1575  -1.1057  -1.1031  -1.0948  -1.0853
    -1.0410

          k = 0.2500-0.4330 0.0000 (166642 PWs)   bands (ev):

   -27.0419 -26.8723 -25.6049 -25.4814 -19.8144 -19.5621 -19.5521 -19.4885
   -19.2513 -19.2396 -19.1296 -18.9491 -18.9231 -18.9135 -18.8899 -18.7104
   -18.6362 -18.6159 -18.5148 -18.5067 -18.3836 -18.2935 -18.2142 -18.2080
   -18.1946 -18.1127 -18.1004 -18.0926 -18.0424 -18.0127 -17.9864 -17.9693
   -17.9633 -17.8919 -17.8885 -17.8744 -17.8722 -17.8484 -17.8210 -17.8102
   -17.8008 -17.7887 -17.7801 -17.7095 -17.6957 -17.6944 -17.6825 -17.6760
   -17.6518 -17.6381 -17.6128 -17.6047 -17.5897 -17.5835 -17.5484 -17.5400
   -17.5298 -17.4930 -17.4868 -17.4401 -17.3962 -17.3692 -17.3313 -17.3235
   -17.3195 -17.2937 -17.2879 -17.2813 -17.2740 -17.2688 -17.2574 -17.2477
   -17.2386 -17.2300 -17.2201 -17.2163 -16.2570 -14.6280 -12.3766 -11.1639
    -9.5382  -9.3380  -8.9475  -8.8375  -7.9250  -7.3999  -7.3816  -7.2817
    -7.2684  -7.1120  -7.0474  -7.0352  -7.0053  -6.9765  -6.9186  -6.9130
    -6.8285  -6.8140  -6.7691  -6.7333  -6.7215  -6.7053  -6.6871  -6.6318
    -6.6145  -6.6082  -6.5873  -6.5305  -6.5194  -6.5004  -6.4218  -6.4178
    -6.3893  -6.3701  -6.3232  -6.2558  -6.2417  -6.2341  -6.1797  -6.0629
    -6.0478  -6.0284  -6.0096  -5.9852  -5.9191  -5.9018  -5.8460  -5.8272
    -5.7822  -5.6669  -5.5862  -5.5650  -5.5486  -5.5316  -5.5022  -5.4750
    -5.4571  -5.4288  -5.4169  -5.4035  -5.3392  -5.3270  -5.2932  -5.2767
    -5.2100  -5.1996  -5.1595  -5.1350  -5.1209  -5.0503  -5.0297  -4.9854
    -4.9657  -4.9524  -4.9459  -4.9304  -4.8842  -4.8466  -4.7955  -4.7503
    -4.7199  -4.6875  -4.6560  -4.6474  -4.6410  -4.5434  -4.4922  -4.4531
    -4.4192  -4.3586  -4.3477  -4.2987  -4.2481  -4.1791  -4.1474  -4.0904
    -4.0568  -4.0281  -4.0268  -3.9861  -3.9195  -3.9053  -3.8575  -3.8118
    -3.8008  -3.7860  -3.7672  -3.7183  -3.6652  -3.6283  -3.6213  -3.5701
    -3.5563  -3.5299  -3.5063  -3.4620  -3.4559  -3.4407  -3.4145  -3.3998
    -3.3663  -3.2878  -3.2705  -3.2604  -3.2523  -3.2129  -3.1950  -3.1777
    -3.1696  -3.1438  -3.1348  -3.1020  -3.0910  -3.0709  -3.0630  -3.0272
    -3.0119  -2.9925  -2.9286  -2.9023  -2.8942  -2.8902  -2.8649  -2.8541
    -2.8399  -2.8089  -2.8034  -2.7807  -2.7458  -2.7100  -2.7025  -2.6778
    -2.6479  -2.6268  -2.6074  -2.5779  -2.5749  -2.5503  -2.5382  -2.4935
    -2.4896  -2.4752  -2.4502  -2.4410  -2.4346  -2.4181  -2.3789  -2.3165
    -2.3090  -2.3010  -2.2697  -2.2685  -2.2516  -2.2324  -2.2234  -2.2173
    -2.1844  -2.1684  -2.1657  -2.1324  -2.1216  -2.0995  -2.0922  -2.0719
    -2.0100  -2.0011  -1.9932  -1.9837  -1.9260  -1.9202  -1.9126  -1.8932
    -1.8833  -1.8568  -1.8504  -1.8427  -1.8225  -1.8118  -1.7785  -1.7601
    -1.7197  -1.6913  -1.6774  -1.6653  -1.6528  -1.6087  -1.5794  -1.5691
    -1.5290  -1.5196  -1.5086  -1.4919  -1.4756  -1.4536  -1.4329  -1.4195
    -1.3665  -1.3440  -1.3216  -1.3138  -1.3108  -1.2702  -1.2218  -1.1879
    -1.1737  -1.1642  -1.1620  -1.1568  -1.1078  -1.1043  -1.0955  -1.0796
    -1.0454

          k = 0.2500-0.1443 0.0000 (166721 PWs)   bands (ev):

   -27.0419 -26.8723 -25.6049 -25.4814 -19.9499 -19.6183 -19.4367 -19.2463
   -19.2127 -19.2110 -19.1360 -18.9586 -18.9559 -18.8425 -18.7998 -18.7961
   -18.7033 -18.6059 -18.5971 -18.5792 -18.3876 -18.3769 -18.2726 -18.2638
   -18.2450 -18.2268 -18.1233 -18.1167 -18.0848 -18.0513 -18.0267 -18.0065
   -17.9232 -17.8983 -17.8885 -17.8761 -17.8475 -17.8281 -17.7966 -17.7563
   -17.7518 -17.7474 -17.7417 -17.7234 -17.7163 -17.6525 -17.6419 -17.6384
   -17.6013 -17.5756 -17.5736 -17.5682 -17.5634 -17.5194 -17.5104 -17.4887
   -17.4834 -17.4798 -17.4511 -17.4333 -17.4294 -17.4251 -17.3859 -17.3416
   -17.3302 -17.3100 -17.3058 -17.3003 -17.2857 -17.2798 -17.2711 -17.2540
   -17.2495 -17.2390 -17.2316 -17.2223 -16.2570 -14.6280 -12.3766 -11.1640
    -9.5382  -9.3380  -8.9476  -8.8375  -7.9250  -7.4928  -7.3938  -7.3777
    -7.2721  -7.2514  -7.1817  -7.1605  -7.1339  -7.0305  -6.9597  -6.8778
    -6.8698  -6.8257  -6.7643  -6.7535  -6.7461  -6.7313  -6.7177  -6.7049
    -6.6820  -6.6182  -6.5656  -6.3919  -6.3813  -6.3700  -6.3543  -6.3422
    -6.3078  -6.2933  -6.2918  -6.2031  -6.1706  -6.0857  -6.0604  -6.0067
    -5.9794  -5.9591  -5.9243  -5.9180  -5.8891  -5.8716  -5.8378  -5.8050
    -5.7195  -5.6991  -5.6858  -5.6759  -5.6741  -5.5162  -5.4662  -5.4227
    -5.3927  -5.3130  -5.3019  -5.2873  -5.2595  -5.2258  -5.1977  -5.1824
    -5.1624  -5.1298  -5.0910  -5.0694  -5.0606  -5.0457  -4.9989  -4.9835
    -4.9745  -4.9583  -4.9354  -4.8853  -4.8607  -4.8398  -4.8360  -4.8032
    -4.7716  -4.7661  -4.7046  -4.6970  -4.6535  -4.6244  -4.6034  -4.4541
    -4.3825  -4.3604  -4.3106  -4.2991  -4.2432  -4.2401  -4.2223  -4.2119
    -4.2043  -4.1688  -4.1461  -4.1292  -4.1076  -4.0372  -4.0241  -3.9173
    -3.8816  -3.8133  -3.7997  -3.7920  -3.7497  -3.6768  -3.6502  -3.6299
    -3.5989  -3.5750  -3.5536  -3.5345  -3.4665  -3.4530  -3.4448  -3.4317
    -3.4078  -3.4054  -3.3683  -3.3379  -3.3280  -3.2801  -3.2294  -3.2225
    -3.2021  -3.1157  -3.0814  -3.0494  -3.0410  -3.0305  -3.0068  -3.0029
    -2.9827  -2.9291  -2.9114  -2.8876  -2.8522  -2.8410  -2.7904  -2.7787
    -2.7600  -2.7347  -2.7076  -2.6705  -2.6642  -2.6409  -2.6306  -2.6214
    -2.6087  -2.5928  -2.5759  -2.5637  -2.5210  -2.5166  -2.4947  -2.4691
    -2.4553  -2.4468  -2.4105  -2.4067  -2.4039  -2.3927  -2.3592  -2.3566
    -2.3389  -2.3349  -2.2961  -2.2796  -2.2597  -2.2479  -2.2373  -2.2214
    -2.2048  -2.1936  -2.1676  -2.1463  -2.1384  -2.1172  -2.1055  -2.0841
    -2.0681  -2.0094  -1.9869  -1.9828  -1.9375  -1.9242  -1.9197  -1.9003
    -1.8960  -1.8862  -1.8813  -1.8322  -1.7663  -1.7640  -1.7538  -1.7253
    -1.7192  -1.6871  -1.6731  -1.6696  -1.6425  -1.6187  -1.5574  -1.5489
    -1.5358  -1.5217  -1.5117  -1.4999  -1.4814  -1.4623  -1.3949  -1.3269
    -1.3142  -1.3033  -1.2863  -1.2814  -1.2468  -1.2426  -1.2369  -1.2312
    -1.1846  -1.1817  -1.1729  -1.1415  -1.1209  -1.1124  -1.0936  -1.0838
    -1.0278

          k =-0.5000-0.2887 0.0000 (166636 PWs)   bands (ev):

   -27.0419 -26.8723 -25.6049 -25.4814 -19.7534 -19.7433 -19.4321 -19.4196
   -19.2679 -19.2586 -19.0792 -19.0687 -18.9825 -18.9740 -18.7250 -18.7183
   -18.5840 -18.5778 -18.5639 -18.5555 -18.3398 -18.3313 -18.2324 -18.2189
   -18.1127 -18.1044 -18.0886 -18.0863 -18.0491 -18.0417 -17.9704 -17.9640
   -17.9520 -17.9428 -17.9246 -17.9081 -17.8997 -17.8981 -17.8352 -17.8295
   -17.7356 -17.7334 -17.7051 -17.6997 -17.6847 -17.6833 -17.6814 -17.6751
   -17.6704 -17.6602 -17.6468 -17.6406 -17.5678 -17.5662 -17.5602 -17.5503
   -17.4922 -17.4900 -17.4799 -17.4712 -17.3746 -17.3686 -17.3382 -17.3321
   -17.3054 -17.3050 -17.2868 -17.2765 -17.2722 -17.2699 -17.2569 -17.2491
   -17.2461 -17.2371 -17.2260 -17.2070 -16.2570 -14.6280 -12.3761 -11.1642
    -9.5382  -9.3387  -8.9475  -8.8396  -7.9233  -7.3996  -7.3835  -7.3747
    -7.0912  -7.0901  -7.0323  -7.0230  -6.9750  -6.9715  -6.9502  -6.9417
    -6.8815  -6.8795  -6.8206  -6.8113  -6.7215  -6.6689  -6.6594  -6.6029
    -6.5875  -6.5743  -6.5578  -6.5517  -6.5300  -6.4610  -6.4593  -6.3757
    -6.3623  -6.3497  -6.3348  -6.3333  -6.2282  -6.2261  -6.2205  -6.2083
    -6.0433  -6.0239  -6.0006  -5.9872  -5.9022  -5.8385  -5.8321  -5.8298
    -5.8238  -5.5737  -5.5370  -5.5289  -5.5142  -5.4921  -5.4873  -5.4780
    -5.4545  -5.4453  -5.4172  -5.3946  -5.3877  -5.3738  -5.3687  -5.2788
    -5.1824  -5.1794  -5.1375  -5.1292  -5.1181  -5.0487  -5.0226  -4.9691
    -4.9587  -4.9510  -4.9449  -4.9368  -4.9281  -4.9021  -4.8854  -4.8512
    -4.8424  -4.6496  -4.6437  -4.4866  -4.4803  -4.4586  -4.4574  -4.3677
    -4.3476  -4.3360  -4.3135  -4.3056  -4.2585  -4.2415  -4.1465  -4.1281
    -4.0925  -4.0800  -4.0196  -4.0154  -3.9431  -3.9315  -3.9229  -3.9206
    -3.8331  -3.8118  -3.7544  -3.7397  -3.7266  -3.7199  -3.5884  -3.5815
    -3.5263  -3.5146  -3.4949  -3.4909  -3.4697  -3.4683  -3.4518  -3.3251
    -3.3145  -3.3088  -3.3017  -3.2674  -3.2522  -3.2461  -3.2283  -3.1777
    -3.1673  -3.1051  -3.0913  -3.0824  -3.0815  -3.0704  -3.0575  -3.0447
    -3.0319  -2.9464  -2.9312  -2.9018  -2.8815  -2.8417  -2.8289  -2.8228
    -2.8195  -2.7869  -2.7828  -2.7739  -2.7674  -2.6849  -2.6767  -2.6449
    -2.6347  -2.6060  -2.5968  -2.5449  -2.5404  -2.5200  -2.5130  -2.4706
    -2.4649  -2.4620  -2.4464  -2.4174  -2.4153  -2.4098  -2.4047  -2.3737
    -2.3633  -2.3227  -2.3050  -2.2979  -2.2945  -2.2530  -2.2429  -2.2326
    -2.2163  -2.1834  -2.1720  -2.1296  -2.1177  -2.0589  -2.0517  -2.0459
    -2.0410  -2.0349  -2.0226  -1.9795  -1.9631  -1.9181  -1.9143  -1.8970
    -1.8912  -1.8813  -1.8674  -1.8368  -1.8268  -1.7826  -1.7778  -1.7340
    -1.7251  -1.7059  -1.6966  -1.6331  -1.6250  -1.6194  -1.6115  -1.5301
    -1.5262  -1.4830  -1.4775  -1.4704  -1.4666  -1.4607  -1.4573  -1.4264
    -1.3969  -1.3388  -1.3322  -1.2865  -1.2830  -1.2617  -1.2496  -1.1747
    -1.1716  -1.1583  -1.1561  -1.1529  -1.1486  -1.1085  -1.1075  -1.0933
    -1.0746

          k =-0.5000 0.0000 0.0000 (166642 PWs)   bands (ev):

   -27.0419 -26.8723 -25.6049 -25.4814 -19.8145 -19.5607 -19.5534 -19.4885
   -19.2495 -19.2415 -19.1296 -18.9485 -18.9222 -18.9143 -18.8868 -18.7117
   -18.6403 -18.6163 -18.5141 -18.5073 -18.3838 -18.2922 -18.2128 -18.2075
   -18.1917 -18.1155 -18.1017 -18.0928 -18.0421 -18.0139 -17.9836 -17.9699
   -17.9634 -17.8949 -17.8867 -17.8776 -17.8729 -17.8486 -17.8180 -17.8082
   -17.8021 -17.7908 -17.7798 -17.7078 -17.6976 -17.6920 -17.6830 -17.6749
   -17.6504 -17.6372 -17.6129 -17.6003 -17.5921 -17.5820 -17.5455 -17.5417
   -17.5346 -17.4928 -17.4872 -17.4425 -17.3978 -17.3679 -17.3283 -17.3253
   -17.3208 -17.2939 -17.2887 -17.2809 -17.2700 -17.2692 -17.2549 -17.2492
   -17.2384 -17.2346 -17.2202 -17.2149 -16.2570 -14.6280 -12.3761 -11.1642
    -9.5382  -9.3387  -8.9475  -8.8396  -7.9233  -7.3986  -7.3824  -7.2826
    -7.2653  -7.1113  -7.0494  -7.0360  -7.0078  -6.9762  -6.9188  -6.9138
    -6.8277  -6.8154  -6.7677  -6.7301  -6.7201  -6.7078  -6.6900  -6.6279
    -6.6160  -6.6074  -6.5861  -6.5268  -6.5193  -6.5016  -6.4235  -6.4156
    -6.3891  -6.3687  -6.3230  -6.2602  -6.2411  -6.2316  -6.1751  -6.0644
    -6.0463  -6.0348  -6.0102  -5.9816  -5.9183  -5.9063  -5.8458  -5.8272
    -5.7838  -5.6655  -5.5837  -5.5680  -5.5551  -5.5370  -5.5008  -5.4712
    -5.4467  -5.4303  -5.4183  -5.4010  -5.3383  -5.3295  -5.2911  -5.2784
    -5.2083  -5.2000  -5.1676  -5.1279  -5.1218  -5.0487  -5.0329  -4.9852
    -4.9656  -4.9533  -4.9429  -4.9315  -4.8844  -4.8464  -4.7986  -4.7485
    -4.7236  -4.6888  -4.6617  -4.6463  -4.6383  -4.5473  -4.4896  -4.4526
    -4.4171  -4.3668  -4.3451  -4.2984  -4.2454  -4.1772  -4.1476  -4.0866
    -4.0534  -4.0299  -4.0210  -3.9863  -3.9189  -3.9047  -3.8551  -3.8102
    -3.8028  -3.7871  -3.7668  -3.7174  -3.6602  -3.6324  -3.6215  -3.5670
    -3.5606  -3.5305  -3.5096  -3.4685  -3.4517  -3.4412  -3.4160  -3.3981
    -3.3665  -3.2870  -3.2680  -3.2632  -3.2523  -3.2172  -3.1944  -3.1785
    -3.1682  -3.1429  -3.1325  -3.1039  -3.0903  -3.0707  -3.0634  -3.0263
    -3.0118  -2.9925  -2.9278  -2.9058  -2.8932  -2.8883  -2.8641  -2.8533
    -2.8408  -2.8067  -2.8009  -2.7813  -2.7473  -2.7114  -2.7011  -2.6753
    -2.6480  -2.6271  -2.6096  -2.5775  -2.5713  -2.5510  -2.5345  -2.4966
    -2.4875  -2.4819  -2.4491  -2.4428  -2.4323  -2.4174  -2.3740  -2.3206
    -2.3139  -2.2984  -2.2707  -2.2692  -2.2540  -2.2293  -2.2257  -2.2140
    -2.1812  -2.1668  -2.1642  -2.1359  -2.1247  -2.0985  -2.0920  -2.0740
    -2.0111  -2.0023  -1.9915  -1.9861  -1.9253  -1.9212  -1.9111  -1.8986
    -1.8850  -1.8580  -1.8504  -1.8423  -1.8272  -1.8117  -1.7788  -1.7589
    -1.7178  -1.7002  -1.6809  -1.6589  -1.6466  -1.6113  -1.5714  -1.5657
    -1.5267  -1.5240  -1.5076  -1.4892  -1.4736  -1.4471  -1.4379  -1.4228
    -1.3654  -1.3441  -1.3242  -1.3158  -1.3091  -1.2723  -1.2225  -1.1901
    -1.1706  -1.1657  -1.1605  -1.1562  -1.1079  -1.1038  -1.0969  -1.0850
    -1.0378

          k =-0.5000-0.8660 0.0000 (166636 PWs)   bands (ev):

   -27.0419 -26.8723 -25.6049 -25.4814 -19.7492 -19.7476 -19.4275 -19.4244
   -19.2640 -19.2620 -19.0772 -19.0711 -18.9806 -18.9780 -18.7205 -18.7191
   -18.5828 -18.5790 -18.5628 -18.5596 -18.3348 -18.3321 -18.2303 -18.2205
   -18.1106 -18.1079 -18.0901 -18.0879 -18.0499 -18.0453 -17.9707 -17.9656
   -17.9473 -17.9405 -17.9198 -17.9115 -17.8979 -17.8973 -17.8341 -17.8334
   -17.7326 -17.7318 -17.7029 -17.6992 -17.6878 -17.6831 -17.6791 -17.6753
   -17.6650 -17.6627 -17.6498 -17.6423 -17.5724 -17.5674 -17.5607 -17.5559
   -17.4952 -17.4901 -17.4795 -17.4684 -17.3688 -17.3664 -17.3375 -17.3364
   -17.3071 -17.3049 -17.2807 -17.2780 -17.2730 -17.2668 -17.2604 -17.2551
   -17.2411 -17.2358 -17.2231 -17.2099 -16.2570 -14.6280 -12.3761 -11.1642
    -9.5382  -9.3387  -8.9475  -8.8396  -7.9233  -7.3970  -7.3847  -7.3785
    -7.0923  -7.0900  -7.0268  -7.0263  -6.9738  -6.9706  -6.9440  -6.9408
    -6.8826  -6.8813  -6.8206  -6.8175  -6.7208  -6.6686  -6.6643  -6.5963
    -6.5872  -6.5757  -6.5689  -6.5434  -6.5385  -6.4609  -6.4606  -6.3766
    -6.3595  -6.3476  -6.3352  -6.3289  -6.2326  -6.2251  -6.2174  -6.2090
    -6.0359  -6.0233  -6.0020  -5.9869  -5.8965  -5.8392  -5.8343  -5.8260
    -5.8235  -5.5657  -5.5456  -5.5310  -5.5164  -5.4924  -5.4873  -5.4785
    -5.4527  -5.4429  -5.4191  -5.3924  -5.3890  -5.3748  -5.3702  -5.2812
    -5.1844  -5.1797  -5.1323  -5.1278  -5.1251  -5.0367  -5.0306  -4.9669
    -4.9614  -4.9504  -4.9438  -4.9419  -4.9234  -4.9071  -4.8844  -4.8512
    -4.8476  -4.6468  -4.6450  -4.4857  -4.4793  -4.4555  -4.4528  -4.3629
    -4.3459  -4.3388  -4.3112  -4.3030  -4.2518  -4.2455  -4.1432  -4.1389
    -4.0963  -4.0906  -4.0182  -4.0150  -3.9414  -3.9307  -3.9241  -3.9213
    -3.8261  -3.8178  -3.7503  -3.7495  -3.7272  -3.7211  -3.5859  -3.5780
    -3.5272  -3.5160  -3.4981  -3.4951  -3.4701  -3.4655  -3.4488  -3.3237
    -3.3172  -3.3102  -3.3022  -3.2699  -3.2477  -3.2400  -3.2283  -3.1787
    -3.1753  -3.0953  -3.0909  -3.0782  -3.0770  -3.0743  -3.0642  -3.0354
    -3.0314  -2.9395  -2.9380  -2.8961  -2.8882  -2.8355  -2.8271  -2.8254
    -2.8187  -2.7887  -2.7867  -2.7734  -2.7695  -2.6811  -2.6797  -2.6446
    -2.6358  -2.6068  -2.5988  -2.5454  -2.5390  -2.5192  -2.5128  -2.4673
    -2.4630  -2.4575  -2.4521  -2.4264  -2.4192  -2.4118  -2.4066  -2.3757
    -2.3678  -2.3138  -2.3132  -2.2966  -2.2906  -2.2467  -2.2426  -2.2283
    -2.2193  -2.1817  -2.1789  -2.1267  -2.1188  -2.0606  -2.0579  -2.0403
    -2.0373  -2.0325  -2.0245  -1.9810  -1.9657  -1.9148  -1.9111  -1.8945
    -1.8889  -1.8760  -1.8632  -1.8362  -1.8322  -1.7858  -1.7827  -1.7286
    -1.7276  -1.7046  -1.6977  -1.6275  -1.6247  -1.6216  -1.6203  -1.5324
    -1.5283  -1.4946  -1.4758  -1.4680  -1.4632  -1.4603  -1.4551  -1.4098
    -1.4037  -1.3383  -1.3319  -1.2842  -1.2824  -1.2594  -1.2504  -1.1744
    -1.1726  -1.1608  -1.1590  -1.1569  -1.1432  -1.1121  -1.1080  -1.0935
    -1.0730

          k =-0.5000-0.5774 0.0000 (166642 PWs)   bands (ev):

   -27.0419 -26.8723 -25.6049 -25.4814 -19.8145 -19.5607 -19.5534 -19.4885
   -19.2495 -19.2415 -19.1296 -18.9485 -18.9222 -18.9143 -18.8868 -18.7117
   -18.6403 -18.6163 -18.5141 -18.5073 -18.3838 -18.2922 -18.2128 -18.2075
   -18.1917 -18.1155 -18.1017 -18.0928 -18.0421 -18.0139 -17.9836 -17.9699
   -17.9634 -17.8949 -17.8867 -17.8776 -17.8729 -17.8486 -17.8180 -17.8082
   -17.8021 -17.7908 -17.7798 -17.7078 -17.6976 -17.6920 -17.6830 -17.6749
   -17.6504 -17.6372 -17.6129 -17.6003 -17.5921 -17.5820 -17.5455 -17.5417
   -17.5346 -17.4928 -17.4872 -17.4425 -17.3978 -17.3679 -17.3283 -17.3253
   -17.3208 -17.2939 -17.2887 -17.2809 -17.2700 -17.2692 -17.2549 -17.2492
   -17.2384 -17.2346 -17.2202 -17.2149 -16.2570 -14.6280 -12.3761 -11.1642
    -9.5382  -9.3387  -8.9475  -8.8396  -7.9233  -7.3986  -7.3824  -7.2826
    -7.2653  -7.1113  -7.0494  -7.0360  -7.0078  -6.9762  -6.9188  -6.9138
    -6.8277  -6.8154  -6.7677  -6.7301  -6.7201  -6.7078  -6.6900  -6.6279
    -6.6160  -6.6074  -6.5861  -6.5268  -6.5193  -6.5016  -6.4235  -6.4156
    -6.3891  -6.3687  -6.3230  -6.2602  -6.2411  -6.2316  -6.1751  -6.0644
    -6.0463  -6.0348  -6.0102  -5.9816  -5.9183  -5.9063  -5.8458  -5.8272
    -5.7838  -5.6655  -5.5837  -5.5680  -5.5551  -5.5370  -5.5008  -5.4712
    -5.4467  -5.4303  -5.4183  -5.4010  -5.3383  -5.3295  -5.2911  -5.2784
    -5.2083  -5.2000  -5.1676  -5.1279  -5.1218  -5.0487  -5.0329  -4.9852
    -4.9656  -4.9533  -4.9429  -4.9315  -4.8844  -4.8464  -4.7986  -4.7485
    -4.7236  -4.6888  -4.6617  -4.6463  -4.6383  -4.5473  -4.4896  -4.4526
    -4.4171  -4.3668  -4.3451  -4.2984  -4.2454  -4.1772  -4.1476  -4.0866
    -4.0534  -4.0299  -4.0210  -3.9863  -3.9189  -3.9047  -3.8551  -3.8102
    -3.8028  -3.7871  -3.7668  -3.7174  -3.6602  -3.6324  -3.6215  -3.5670
    -3.5606  -3.5305  -3.5096  -3.4685  -3.4517  -3.4412  -3.4160  -3.3981
    -3.3665  -3.2870  -3.2680  -3.2632  -3.2523  -3.2172  -3.1944  -3.1785
    -3.1682  -3.1429  -3.1325  -3.1039  -3.0903  -3.0707  -3.0634  -3.0263
    -3.0118  -2.9925  -2.9278  -2.9058  -2.8932  -2.8883  -2.8641  -2.8533
    -2.8408  -2.8067  -2.8009  -2.7813  -2.7473  -2.7114  -2.7011  -2.6753
    -2.6480  -2.6271  -2.6096  -2.5775  -2.5713  -2.5510  -2.5345  -2.4966
    -2.4875  -2.4819  -2.4491  -2.4428  -2.4323  -2.4174  -2.3740  -2.3206
    -2.3139  -2.2984  -2.2707  -2.2692  -2.2540  -2.2293  -2.2257  -2.2140
    -2.1812  -2.1668  -2.1642  -2.1359  -2.1247  -2.0985  -2.0920  -2.0740
    -2.0111  -2.0023  -1.9915  -1.9861  -1.9253  -1.9212  -1.9111  -1.8986
    -1.8850  -1.8580  -1.8504  -1.8423  -1.8272  -1.8117  -1.7788  -1.7589
    -1.7178  -1.7002  -1.6809  -1.6589  -1.6466  -1.6113  -1.5714  -1.5657
    -1.5267  -1.5240  -1.5076  -1.4892  -1.4736  -1.4471  -1.4379  -1.4228
    -1.3654  -1.3441  -1.3242  -1.3158  -1.3091  -1.2723  -1.2225  -1.1901
    -1.1706  -1.1657  -1.1605  -1.1562  -1.1079  -1.1038  -1.0969  -1.0850
    -1.0378

          k =-0.2500-0.1443 0.0000 (166721 PWs)   bands (ev):

   -27.0419 -26.8723 -25.6049 -25.4814 -19.9500 -19.6184 -19.4364 -19.2463
   -19.2168 -19.2074 -19.1367 -18.9602 -18.9509 -18.8410 -18.8030 -18.7964
   -18.7034 -18.6058 -18.5975 -18.5815 -18.3893 -18.3746 -18.2717 -18.2625
   -18.2414 -18.2262 -18.1277 -18.1170 -18.0844 -18.0540 -18.0285 -18.0051
   -17.9213 -17.8977 -17.8906 -17.8744 -17.8496 -17.8245 -17.7950 -17.7616
   -17.7581 -17.7461 -17.7444 -17.7191 -17.7142 -17.6532 -17.6385 -17.6331
   -17.6012 -17.5771 -17.5739 -17.5679 -17.5637 -17.5202 -17.5147 -17.4856
   -17.4805 -17.4782 -17.4526 -17.4370 -17.4298 -17.4228 -17.3845 -17.3472
   -17.3263 -17.3111 -17.3077 -17.2975 -17.2856 -17.2806 -17.2713 -17.2535
   -17.2492 -17.2404 -17.2332 -17.2204 -16.2570 -14.6280 -12.3766 -11.1640
    -9.5382  -9.3380  -8.9476  -8.8375  -7.9250  -7.4927  -7.3946  -7.3739
    -7.2743  -7.2537  -7.1838  -7.1566  -7.1343  -7.0305  -6.9576  -6.8809
    -6.8672  -6.8253  -6.7649  -6.7542  -6.7474  -6.7296  -6.7180  -6.7039
    -6.6823  -6.6209  -6.5641  -6.3931  -6.3818  -6.3695  -6.3516  -6.3417
    -6.3065  -6.2943  -6.2927  -6.2019  -6.1728  -6.0878  -6.0566  -5.9985
    -5.9804  -5.9611  -5.9340  -5.9140  -5.8932  -5.8757  -5.8412  -5.7991
    -5.7195  -5.6995  -5.6826  -5.6784  -5.6744  -5.5135  -5.4659  -5.4234
    -5.3946  -5.3107  -5.2993  -5.2893  -5.2620  -5.2247  -5.1976  -5.1814
    -5.1613  -5.1292  -5.0890  -5.0709  -5.0601  -5.0461  -5.0060  -4.9830
    -4.9729  -4.9551  -4.9341  -4.8852  -4.8588  -4.8423  -4.8371  -4.8045
    -4.7741  -4.7649  -4.7092  -4.6911  -4.6552  -4.6232  -4.6013  -4.4558
    -4.3820  -4.3596  -4.3133  -4.3025  -4.2406  -4.2372  -4.2244  -4.2113
    -4.2041  -4.1710  -4.1487  -4.1244  -4.1075  -4.0369  -4.0195  -3.9179
    -3.8800  -3.8101  -3.7994  -3.7891  -3.7523  -3.6746  -3.6540  -3.6315
    -3.5992  -3.5742  -3.5560  -3.5371  -3.4684  -3.4549  -3.4431  -3.4330
    -3.4131  -3.4035  -3.3665  -3.3327  -3.3243  -3.2807  -3.2287  -3.2242
    -3.1992  -3.1202  -3.0787  -3.0485  -3.0445  -3.0284  -3.0079  -3.0039
    -2.9864  -2.9321  -2.9137  -2.8768  -2.8551  -2.8402  -2.7917  -2.7798
    -2.7600  -2.7343  -2.7131  -2.6685  -2.6607  -2.6391  -2.6288  -2.6158
    -2.6112  -2.5921  -2.5729  -2.5672  -2.5232  -2.5199  -2.4948  -2.4731
    -2.4580  -2.4412  -2.4123  -2.4050  -2.4010  -2.3927  -2.3614  -2.3541
    -2.3413  -2.3289  -2.2971  -2.2777  -2.2635  -2.2470  -2.2378  -2.2205
    -2.2084  -2.1915  -2.1691  -2.1479  -2.1350  -2.1138  -2.1066  -2.0902
    -2.0660  -2.0053  -1.9882  -1.9840  -1.9409  -1.9226  -1.9185  -1.9029
    -1.8948  -1.8893  -1.8795  -1.8364  -1.7722  -1.7581  -1.7535  -1.7223
    -1.7173  -1.6844  -1.6741  -1.6695  -1.6434  -1.6186  -1.5532  -1.5457
    -1.5384  -1.5210  -1.5108  -1.4994  -1.4839  -1.4648  -1.3968  -1.3257
    -1.3132  -1.3039  -1.2894  -1.2820  -1.2500  -1.2445  -1.2376  -1.2279
    -1.1856  -1.1810  -1.1733  -1.1395  -1.1220  -1.1139  -1.0946  -1.0816
    -1.0241

          k =-0.2500 0.1443 0.0000 (166721 PWs)   bands (ev):

   -27.0419 -26.8723 -25.6049 -25.4814 -19.9499 -19.6183 -19.4367 -19.2463
   -19.2127 -19.2110 -19.1360 -18.9586 -18.9559 -18.8425 -18.7998 -18.7961
   -18.7033 -18.6059 -18.5971 -18.5792 -18.3876 -18.3769 -18.2726 -18.2638
   -18.2450 -18.2268 -18.1233 -18.1167 -18.0848 -18.0513 -18.0267 -18.0065
   -17.9232 -17.8983 -17.8885 -17.8761 -17.8475 -17.8281 -17.7966 -17.7563
   -17.7518 -17.7474 -17.7417 -17.7234 -17.7163 -17.6525 -17.6419 -17.6384
   -17.6013 -17.5756 -17.5736 -17.5682 -17.5634 -17.5194 -17.5104 -17.4887
   -17.4834 -17.4798 -17.4511 -17.4333 -17.4294 -17.4251 -17.3859 -17.3416
   -17.3302 -17.3100 -17.3058 -17.3003 -17.2857 -17.2798 -17.2711 -17.2540
   -17.2495 -17.2390 -17.2316 -17.2223 -16.2570 -14.6280 -12.3766 -11.1640
    -9.5382  -9.3380  -8.9476  -8.8375  -7.9250  -7.4928  -7.3938  -7.3777
    -7.2721  -7.2514  -7.1817  -7.1605  -7.1339  -7.0305  -6.9597  -6.8778
    -6.8698  -6.8257  -6.7643  -6.7535  -6.7461  -6.7313  -6.7177  -6.7049
    -6.6820  -6.6182  -6.5656  -6.3919  -6.3813  -6.3700  -6.3543  -6.3422
    -6.3078  -6.2933  -6.2918  -6.2031  -6.1706  -6.0857  -6.0604  -6.0067
    -5.9794  -5.9591  -5.9243  -5.9180  -5.8891  -5.8716  -5.8378  -5.8050
    -5.7195  -5.6991  -5.6858  -5.6759  -5.6741  -5.5162  -5.4662  -5.4227
    -5.3927  -5.3130  -5.3019  -5.2873  -5.2595  -5.2258  -5.1977  -5.1824
    -5.1624  -5.1298  -5.0910  -5.0694  -5.0606  -5.0457  -4.9989  -4.9835
    -4.9745  -4.9583  -4.9354  -4.8853  -4.8607  -4.8398  -4.8360  -4.8032
    -4.7716  -4.7661  -4.7046  -4.6970  -4.6535  -4.6244  -4.6034  -4.4541
    -4.3825  -4.3604  -4.3106  -4.2991  -4.2432  -4.2401  -4.2223  -4.2119
    -4.2043  -4.1688  -4.1461  -4.1292  -4.1076  -4.0372  -4.0241  -3.9173
    -3.8816  -3.8133  -3.7997  -3.7920  -3.7497  -3.6768  -3.6502  -3.6299
    -3.5989  -3.5750  -3.5536  -3.5345  -3.4665  -3.4530  -3.4448  -3.4317
    -3.4078  -3.4054  -3.3683  -3.3379  -3.3280  -3.2801  -3.2294  -3.2225
    -3.2021  -3.1157  -3.0814  -3.0494  -3.0410  -3.0305  -3.0068  -3.0029
    -2.9827  -2.9291  -2.9114  -2.8876  -2.8522  -2.8410  -2.7904  -2.7787
    -2.7600  -2.7347  -2.7076  -2.6705  -2.6642  -2.6409  -2.6306  -2.6214
    -2.6087  -2.5928  -2.5759  -2.5637  -2.5210  -2.5166  -2.4947  -2.4691
    -2.4553  -2.4468  -2.4105  -2.4067  -2.4039  -2.3927  -2.3592  -2.3566
    -2.3389  -2.3349  -2.2961  -2.2796  -2.2597  -2.2479  -2.2373  -2.2214
    -2.2048  -2.1936  -2.1676  -2.1463  -2.1384  -2.1172  -2.1055  -2.0841
    -2.0681  -2.0094  -1.9869  -1.9828  -1.9375  -1.9242  -1.9197  -1.9003
    -1.8960  -1.8862  -1.8813  -1.8322  -1.7663  -1.7640  -1.7538  -1.7253
    -1.7192  -1.6871  -1.6731  -1.6696  -1.6425  -1.6187  -1.5574  -1.5489
    -1.5358  -1.5217  -1.5117  -1.4999  -1.4814  -1.4623  -1.3949  -1.3269
    -1.3142  -1.3033  -1.2863  -1.2814  -1.2468  -1.2426  -1.2369  -1.2312
    -1.1846  -1.1817  -1.1729  -1.1415  -1.1209  -1.1124  -1.0936  -1.0838
    -1.0278

          k =-0.2500-0.7217 0.0000 (166642 PWs)   bands (ev):

   -27.0419 -26.8723 -25.6049 -25.4814 -19.8144 -19.5621 -19.5521 -19.4885
   -19.2513 -19.2396 -19.1296 -18.9491 -18.9231 -18.9135 -18.8899 -18.7104
   -18.6362 -18.6159 -18.5148 -18.5067 -18.3836 -18.2935 -18.2142 -18.2080
   -18.1946 -18.1127 -18.1004 -18.0926 -18.0424 -18.0127 -17.9864 -17.9693
   -17.9633 -17.8919 -17.8885 -17.8744 -17.8722 -17.8484 -17.8210 -17.8102
   -17.8008 -17.7887 -17.7801 -17.7095 -17.6957 -17.6944 -17.6825 -17.6760
   -17.6518 -17.6381 -17.6128 -17.6047 -17.5897 -17.5835 -17.5484 -17.5400
   -17.5298 -17.4930 -17.4868 -17.4401 -17.3962 -17.3692 -17.3313 -17.3235
   -17.3195 -17.2937 -17.2879 -17.2813 -17.2740 -17.2688 -17.2574 -17.2477
   -17.2386 -17.2300 -17.2201 -17.2163 -16.2570 -14.6280 -12.3766 -11.1639
    -9.5382  -9.3380  -8.9475  -8.8375  -7.9250  -7.3999  -7.3816  -7.2817
    -7.2684  -7.1120  -7.0474  -7.0352  -7.0053  -6.9765  -6.9186  -6.9130
    -6.8285  -6.8140  -6.7691  -6.7333  -6.7215  -6.7053  -6.6871  -6.6318
    -6.6145  -6.6082  -6.5873  -6.5305  -6.5194  -6.5004  -6.4218  -6.4178
    -6.3893  -6.3701  -6.3232  -6.2558  -6.2417  -6.2341  -6.1797  -6.0629
    -6.0478  -6.0284  -6.0096  -5.9852  -5.9191  -5.9018  -5.8460  -5.8272
    -5.7822  -5.6669  -5.5862  -5.5650  -5.5486  -5.5316  -5.5022  -5.4750
    -5.4571  -5.4288  -5.4169  -5.4035  -5.3392  -5.3270  -5.2932  -5.2767
    -5.2100  -5.1996  -5.1595  -5.1350  -5.1209  -5.0503  -5.0297  -4.9854
    -4.9657  -4.9524  -4.9459  -4.9304  -4.8842  -4.8466  -4.7955  -4.7503
    -4.7199  -4.6875  -4.6560  -4.6474  -4.6410  -4.5434  -4.4922  -4.4531
    -4.4192  -4.3586  -4.3477  -4.2987  -4.2481  -4.1791  -4.1474  -4.0904
    -4.0568  -4.0281  -4.0268  -3.9861  -3.9195  -3.9053  -3.8575  -3.8118
    -3.8008  -3.7860  -3.7672  -3.7183  -3.6652  -3.6283  -3.6213  -3.5701
    -3.5563  -3.5299  -3.5063  -3.4620  -3.4559  -3.4407  -3.4145  -3.3998
    -3.3663  -3.2878  -3.2705  -3.2604  -3.2523  -3.2129  -3.1950  -3.1777
    -3.1696  -3.1438  -3.1348  -3.1020  -3.0910  -3.0709  -3.0630  -3.0272
    -3.0119  -2.9925  -2.9286  -2.9023  -2.8942  -2.8902  -2.8649  -2.8541
    -2.8399  -2.8089  -2.8034  -2.7807  -2.7458  -2.7100  -2.7025  -2.6778
    -2.6479  -2.6268  -2.6074  -2.5779  -2.5749  -2.5503  -2.5382  -2.4935
    -2.4896  -2.4752  -2.4502  -2.4410  -2.4346  -2.4181  -2.3789  -2.3165
    -2.3090  -2.3010  -2.2697  -2.2685  -2.2516  -2.2324  -2.2234  -2.2173
    -2.1844  -2.1684  -2.1657  -2.1324  -2.1216  -2.0995  -2.0922  -2.0719
    -2.0100  -2.0011  -1.9932  -1.9837  -1.9260  -1.9202  -1.9126  -1.8932
    -1.8833  -1.8568  -1.8504  -1.8427  -1.8225  -1.8118  -1.7785  -1.7601
    -1.7197  -1.6913  -1.6774  -1.6653  -1.6528  -1.6087  -1.5794  -1.5691
    -1.5290  -1.5196  -1.5086  -1.4919  -1.4756  -1.4536  -1.4329  -1.4195
    -1.3665  -1.3440  -1.3216  -1.3138  -1.3108  -1.2702  -1.2218  -1.1879
    -1.1737  -1.1642  -1.1620  -1.1568  -1.1078  -1.1043  -1.0955  -1.0796
    -1.0454

          k =-0.2500-0.4330 0.0000 (166642 PWs)   bands (ev):

   -27.0419 -26.8723 -25.6049 -25.4814 -19.8145 -19.5578 -19.5564 -19.4885
   -19.2470 -19.2440 -19.1296 -18.9524 -18.9211 -18.9153 -18.8834 -18.7119
   -18.6394 -18.6163 -18.5134 -18.5081 -18.3827 -18.2931 -18.2158 -18.2059
   -18.1922 -18.1115 -18.1019 -18.0936 -18.0411 -18.0095 -17.9854 -17.9734
   -17.9659 -17.8972 -17.8915 -17.8734 -17.8683 -17.8456 -17.8230 -17.8100
   -17.8021 -17.7930 -17.7786 -17.7089 -17.6938 -17.6886 -17.6824 -17.6792
   -17.6511 -17.6363 -17.6119 -17.6010 -17.5914 -17.5829 -17.5452 -17.5405
   -17.5337 -17.4913 -17.4890 -17.4423 -17.3957 -17.3689 -17.3317 -17.3229
   -17.3206 -17.2932 -17.2919 -17.2780 -17.2723 -17.2704 -17.2548 -17.2494
   -17.2408 -17.2273 -17.2228 -17.2152 -16.2570 -14.6280 -12.3766 -11.1639
    -9.5382  -9.3380  -8.9475  -8.8375  -7.9250  -7.4006  -7.3804  -7.2822
    -7.2666  -7.1121  -7.0472  -7.0354  -7.0054  -6.9769  -6.9189  -6.9135
    -6.8304  -6.8157  -6.7665  -6.7316  -6.7222  -6.7044  -6.6908  -6.6313
    -6.6132  -6.6070  -6.5871  -6.5299  -6.5176  -6.4986  -6.4228  -6.4150
    -6.3914  -6.3692  -6.3234  -6.2587  -6.2421  -6.2312  -6.1816  -6.0618
    -6.0529  -6.0301  -6.0105  -5.9815  -5.9307  -5.8949  -5.8468  -5.8260
    -5.7823  -5.6645  -5.5834  -5.5647  -5.5546  -5.5302  -5.5047  -5.4695
    -5.4502  -5.4338  -5.4190  -5.4035  -5.3410  -5.3260  -5.2928  -5.2761
    -5.2101  -5.2009  -5.1620  -5.1298  -5.1225  -5.0456  -5.0311  -4.9865
    -4.9636  -4.9542  -4.9467  -4.9281  -4.8845  -4.8469  -4.7956  -4.7492
    -4.7240  -4.6872  -4.6604  -4.6438  -4.6385  -4.5470  -4.4932  -4.4539
    -4.4152  -4.3587  -4.3526  -4.3006  -4.2477  -4.1773  -4.1449  -4.0881
    -4.0568  -4.0307  -4.0215  -3.9883  -3.9162  -3.9032  -3.8601  -3.8082
    -3.8047  -3.7869  -3.7649  -3.7216  -3.6608  -3.6337  -3.6210  -3.5671
    -3.5596  -3.5318  -3.5067  -3.4649  -3.4505  -3.4398  -3.4183  -3.3989
    -3.3669  -3.2909  -3.2653  -3.2600  -3.2477  -3.2095  -3.1966  -3.1751
    -3.1700  -3.1415  -3.1348  -3.1056  -3.0910  -3.0737  -3.0655  -3.0283
    -3.0104  -2.9942  -2.9280  -2.9041  -2.8956  -2.8894  -2.8667  -2.8565
    -2.8411  -2.8087  -2.7964  -2.7832  -2.7453  -2.7153  -2.6993  -2.6775
    -2.6457  -2.6263  -2.6062  -2.5779  -2.5725  -2.5513  -2.5403  -2.4932
    -2.4903  -2.4797  -2.4511  -2.4422  -2.4351  -2.4148  -2.3754  -2.3195
    -2.3107  -2.2996  -2.2699  -2.2691  -2.2486  -2.2293  -2.2243  -2.2113
    -2.1822  -2.1689  -2.1647  -2.1352  -2.1186  -2.0982  -2.0925  -2.0727
    -2.0104  -2.0058  -1.9930  -1.9878  -1.9268  -1.9212  -1.9152  -1.8930
    -1.8857  -1.8586  -1.8492  -1.8429  -1.8273  -1.8076  -1.7770  -1.7596
    -1.7136  -1.6955  -1.6768  -1.6633  -1.6482  -1.6075  -1.5751  -1.5696
    -1.5295  -1.5260  -1.5098  -1.4868  -1.4722  -1.4544  -1.4417  -1.4211
    -1.3657  -1.3438  -1.3234  -1.3165  -1.3091  -1.2705  -1.2175  -1.1893
    -1.1735  -1.1664  -1.1606  -1.1575  -1.1057  -1.1031  -1.0948  -1.0853
    -1.0410

     highest occupied level (ev):    -1.0117

!    total energy              =   -5186.33054062 Ry
     estimated scf accuracy    <          2.7E-09 Ry

     The total energy is the sum of the following terms:
     one-electron contribution =  -82882.62032278 Ry
     hartree contribution      =   41710.51882200 Ry
     xc contribution           =    -736.59252266 Ry
     ewald contribution        =   39094.99519477 Ry
     one-center paw contrib.   =   -2372.63171196 Ry

     convergence has been achieved in   8 iterations

     negative rho (up, down):  4.068E-03 0.000E+00

     Forces acting on atoms (cartesian axes, Ry/au):

     atom    1 type  1   force =    -0.00050946   -0.00032359   -0.00004575
     atom    2 type  1   force =     0.00017381   -0.00009159    0.00032011
     atom    3 type  1   force =     0.00068696   -0.00053843   -0.00065124
     atom    4 type  1   force =     0.00002090   -0.00076030    0.00052126
     atom    5 type  1   force =    -0.00015551   -0.00034192   -0.00003753
     atom    6 type  1   force =     0.00014531   -0.00027949   -0.00012939
     atom    7 type  1   force =     0.00038082   -0.00028408   -0.00064480
     atom    8 type  1   force =     0.00015389    0.00043288    0.00031508
     atom    9 type  1   force =     0.00053081    0.00005789    0.00040048
     atom   10 type  1   force =     0.00035342   -0.00006929   -0.00056100
     atom   11 type  1   force =     0.00086721   -0.00028040    0.00058284
     atom   12 type  1   force =     0.00027484    0.00003989   -0.00021713
     atom   13 type  2   force =     0.00015374   -0.00058931   -0.00017888
     atom   14 type  2   force =     0.00065816   -0.00018095   -0.00054182
     atom   15 type  2   force =     0.00007669   -0.00044877   -0.00041903
     atom   16 type  2   force =    -0.00034187   -0.00040606    0.00015962
     atom   17 type  2   force =     0.00045099   -0.00015315    0.00027696
     atom   18 type  2   force =     0.00093082    0.00051439    0.00080995
     atom   19 type  2   force =     0.00090412   -0.00017298   -0.00055793
     atom   20 type  2   force =     0.00036304   -0.00006310    0.00079897
     atom   21 type  2   force =     0.00065077    0.00035476    0.00007196
     atom   22 type  2   force =    -0.00009065    0.00067108    0.00014539
     atom   23 type  2   force =     0.00005660   -0.00034676   -0.00014852
     atom   24 type  2   force =    -0.00004661   -0.00004082   -0.00054366
     atom   25 type  2   force =     0.00043108   -0.00010521   -0.00019540
     atom   26 type  2   force =    -0.00004094   -0.00017428    0.00030784
     atom   27 type  2   force =     0.00035410   -0.00017686   -0.00051548
     atom   28 type  2   force =    -0.00057176   -0.00000372    0.00005990
     atom   29 type  2   force =    -0.00012493   -0.00016282    0.00071384
     atom   30 type  2   force =    -0.00015072   -0.00043108   -0.00021936
     atom   31 type  1   force =     0.00013871   -0.00059824    0.00067453
     atom   32 type  1   force =     0.00003215    0.00042529    0.00138710
     atom   33 type  1   force =     0.00053163    0.00088859   -0.00094803
     atom   34 type  1   force =    -0.00045343   -0.00004818    0.00085033
     atom   35 type  1   force =     0.00004604   -0.00020560    0.00004994
     atom   36 type  1   force =    -0.00015035   -0.00016103   -0.00057398
     atom   37 type  1   force =    -0.00020194   -0.00004151   -0.00036235
     atom   38 type  1   force =    -0.00010145    0.00030464    0.00113418
     atom   39 type  1   force =     0.00006301   -0.00038697    0.00044682
     atom   40 type  1   force =     0.00056297   -0.00003094   -0.00020292
     atom   41 type  1   force =     0.00020468   -0.00038735    0.00092079
     atom   42 type  1   force =     0.00024692   -0.00035973   -0.00079388
     atom   43 type  2   force =    -0.00054418    0.00028803    0.00000704
     atom   44 type  2   force =     0.00021473   -0.00031009    0.00051092
     atom   45 type  2   force =     0.00025716   -0.00005715    0.00071970
     atom   46 type  2   force =    -0.00032892   -0.00009493   -0.00001938
     atom   47 type  2   force =     0.00019727   -0.00001088   -0.00062972
     atom   48 type  2   force =    -0.00002656   -0.00022399    0.00058897
     atom   49 type  2   force =     0.00093275    0.00009702    0.00063736
     atom   50 type  2   force =     0.00008011   -0.00036859   -0.00061139
     atom   51 type  2   force =    -0.00000256   -0.00102182    0.00045278
     atom   52 type  2   force =    -0.00071192    0.00086113    0.00024884
     atom   53 type  2   force =    -0.00021750   -0.00039466    0.00021316
     atom   54 type  2   force =     0.00004091   -0.00002227   -0.00029779
     atom   55 type  2   force =     0.00037394    0.00025159   -0.00020722
     atom   56 type  2   force =     0.00009456    0.00013322    0.00083858
     atom   57 type  2   force =     0.00081366   -0.00022179   -0.00025881
     atom   58 type  2   force =    -0.00021436   -0.00074258    0.00007263
     atom   59 type  2   force =     0.00016228    0.00000514    0.00053726
     atom   60 type  2   force =     0.00007025   -0.00008981    0.00068801
     atom   61 type  1   force =     0.00112566   -0.00048521   -0.00068410
     atom   62 type  1   force =    -0.00003433    0.00031256   -0.00033617
     atom   63 type  1   force =    -0.00092111   -0.00032254    0.00007153
     atom   64 type  1   force =     0.00029153   -0.00030413   -0.00037490
     atom   65 type  1   force =     0.00009177   -0.00014998   -0.00002853
     atom   66 type  1   force =    -0.00007362   -0.00007451   -0.00014728
     atom   67 type  1   force =     0.00005846    0.00032141    0.00006762
     atom   68 type  1   force =     0.00026271   -0.00035034    0.00073632
     atom   69 type  1   force =    -0.00012302    0.00004722    0.00088704
     atom   70 type  1   force =    -0.00038340   -0.00048680   -0.00035327
     atom   71 type  1   force =    -0.00026176    0.00024844    0.00072893
     atom   72 type  1   force =    -0.00014292   -0.00017045   -0.00031507
     atom   73 type  2   force =    -0.00028061   -0.00032103    0.00012513
     atom   74 type  2   force =     0.00042945   -0.00006739    0.00001325
     atom   75 type  2   force =    -0.00014656    0.00034814    0.00002064
     atom   76 type  2   force =     0.00068380    0.00055515    0.00009162
     atom   77 type  2   force =    -0.00000117    0.00024211   -0.00055804
     atom   78 type  2   force =    -0.00014473   -0.00002281   -0.00005583
     atom   79 type  2   force =    -0.00051291    0.00051532    0.00013344
     atom   80 type  2   force =     0.00016286   -0.00007226   -0.00063751
     atom   81 type  2   force =    -0.00009800   -0.00014749    0.00041095
     atom   82 type  2   force =     0.00012564    0.00021894    0.00015118
     atom   83 type  2   force =    -0.00008934   -0.00046387   -0.00060293
     atom   84 type  2   force =    -0.00021860    0.00007374    0.00032250
     atom   85 type  2   force =     0.00025136   -0.00028253    0.00025428
     atom   86 type  2   force =     0.00020271   -0.00036568    0.00044578
     atom   87 type  2   force =     0.00001195   -0.00091415    0.00071652
     atom   88 type  2   force =     0.00000997    0.00009695    0.00030802
     atom   89 type  2   force =     0.00014527   -0.00011986   -0.00010791
     atom   90 type  2   force =     0.00021517    0.00014819    0.00044013
     atom   91 type  1   force =     0.00014241    0.00078469   -0.00057265
     atom   92 type  1   force =    -0.00014697   -0.00050181    0.00004922
     atom   93 type  1   force =    -0.00039838   -0.00011632    0.00007833
     atom   94 type  1   force =     0.00024372    0.00083665   -0.00001176
     atom   95 type  1   force =    -0.00007913   -0.00018060    0.00001880
     atom   96 type  1   force =    -0.00006802   -0.00012379   -0.00000121
     atom   97 type  1   force =    -0.00028690    0.00030896   -0.00041436
     atom   98 type  1   force =    -0.00011916   -0.00003509   -0.00103474
     atom   99 type  1   force =    -0.00049273    0.00009853    0.00071430
     atom  100 type  1   force =    -0.00014588    0.00028402   -0.00005439
     atom  101 type  1   force =    -0.00053426   -0.00016876    0.00058790
     atom  102 type  1   force =    -0.00041922   -0.00029701   -0.00033083
     atom  103 type  2   force =     0.00032954    0.00078614    0.00038171
     atom  104 type  2   force =    -0.00020489    0.00023850    0.00048582
     atom  105 type  2   force =    -0.00034540    0.00053072   -0.00037803
     atom  106 type  2   force =    -0.00011843   -0.00001023   -0.00035642
     atom  107 type  2   force =    -0.00017188    0.00010945   -0.00008836
     atom  108 type  2   force =     0.00035483    0.00020439   -0.00126227
     atom  109 type  2   force =    -0.00057492    0.00049205    0.00068518
     atom  110 type  2   force =     0.00017376    0.00000479   -0.00006592
     atom  111 type  2   force =    -0.00055790    0.00006331    0.00003910
     atom  112 type  2   force =    -0.00021880   -0.00002614   -0.00044516
     atom  113 type  2   force =    -0.00021854   -0.00036489   -0.00037847
     atom  114 type  2   force =    -0.00030074    0.00001431    0.00001405
     atom  115 type  2   force =     0.00005505    0.00021482    0.00001468
     atom  116 type  2   force =    -0.00011509    0.00025174    0.00012705
     atom  117 type  2   force =    -0.00034851   -0.00091649    0.00049170
     atom  118 type  2   force =    -0.00015924   -0.00028216   -0.00048919
     atom  119 type  2   force =    -0.00013972    0.00037372    0.00032872
     atom  120 type  2   force =    -0.00018529    0.00013815    0.00043226
     atom  121 type  3   force =    -0.00025526    0.00018355   -0.00035868
     atom  122 type  3   force =    -0.00022136   -0.00002616   -0.00126486
     atom  123 type  4   force =    -0.00065443    0.00156465   -0.00002056
     atom  124 type  4   force =    -0.00022135    0.00130941   -0.00156003
     atom  125 type  4   force =     0.00107445   -0.00192984    0.00111425
     atom  126 type  3   force =    -0.00080792    0.00132055   -0.00071261
     atom  127 type  5   force =    -0.00089519    0.00137891   -0.00066658
     atom  128 type  4   force =    -0.00047925    0.00126020   -0.00156507
     atom  129 type  3   force =    -0.00007457   -0.00043011    0.00003526
     atom  130 type  5   force =     0.00001901   -0.00019985   -0.00098770
     atom  131 type  4   force =    -0.00111340    0.00057135   -0.00120772
     atom  132 type  5   force =     0.00019355   -0.00092584    0.00038857
     atom  133 type  5   force =     0.00033139    0.00032885    0.00017939
     atom  134 type  4   force =    -0.00117741    0.00175305    0.00038723

     Total force =     0.009870     Total SCF correction =     0.000093


     Computing stress (Cartesian axis) and pressure


     negative rho (up, down):  4.068E-03 0.000E+00
          total   stress  (Ry/bohr**3)                   (kbar)     P=       14.19
   0.00015262  -0.00000042  -0.00000300           22.45       -0.06       -0.44
  -0.00000042   0.00015129   0.00000974           -0.06       22.26        1.43
  -0.00000300   0.00000974  -0.00001455           -0.44        1.43       -2.14


     Writing all to output data dir ./tmp/al2o3_pvdf.save/ :
     XML data file, charge density, pseudopotentials, collected wavefunctions

     init_run     :     17.42s CPU    133.43s WALL (       1 calls)
     electrons    :   3253.63s CPU   3365.25s WALL (       1 calls)
     forces       :     87.26s CPU     89.34s WALL (       1 calls)
     stress       :    294.07s CPU    298.92s WALL (       1 calls)

     Called by init_run:
     wfcinit      :     11.03s CPU    125.41s WALL (       1 calls)
     potinit      :      2.15s CPU      2.82s WALL (       1 calls)
     hinit0       :      1.32s CPU      1.46s WALL (       1 calls)

     Called by electrons:
     c_bands      :   2886.16s CPU   2973.53s WALL (       9 calls)
     sum_band     :    339.87s CPU    357.54s WALL (       9 calls)
     v_of_rho     :      2.75s CPU      2.91s WALL (       9 calls)
     newd         :     12.16s CPU     19.05s WALL (       9 calls)
     PAW_pot      :     14.85s CPU     14.89s WALL (       9 calls)
     mix_rho      :      0.43s CPU      0.49s WALL (       9 calls)

     Called by c_bands:
     init_us_2    :     33.40s CPU     33.58s WALL (     320 calls)
     cegterg      :   2823.19s CPU   2909.95s WALL (     144 calls)

     Called by *egterg:
     cdiaghg      :    170.02s CPU    174.86s WALL (     605 calls)
     h_psi        :   1510.82s CPU   1570.50s WALL (     637 calls)
     s_psi        :    429.40s CPU    429.70s WALL (     637 calls)
     g_psi        :      2.84s CPU      2.84s WALL (     493 calls)

     Called by h_psi:
     h_psi:calbec :    448.39s CPU    450.59s WALL (     637 calls)
     vloc_psi     :    628.93s CPU    680.62s WALL (     637 calls)
                                        0.00s GPU  (     637 calls)
     add_vuspsi   :    430.50s CPU    430.85s WALL (     637 calls)

     General routines
     calbec       :    937.87s CPU    942.48s WALL (    1053 calls)
     fft          :      3.37s CPU      3.67s WALL (     141 calls)
     ffts         :      0.30s CPU      0.31s WALL (      18 calls)
     fftw         :    646.34s CPU    705.38s WALL (  275652 calls)
     interpolate  :      0.41s CPU      0.43s WALL (       9 calls)

     Parallel routines

     PWSCF        :      1h 0m CPU      1h 5m WALL


   This run was terminated on:  17:15:36  10Jul2026            

=------------------------------------------------------------------------------=
   JOB DONE.
=------------------------------------------------------------------------------=
