14
Lattice="19.9999996430165 0.0 0.0 0.0 19.9999996430165 0.0 0.0 0.0 19.9999996430165" Properties=species:S:1:pos:R:3:forces:R:3 energy=-3746.7417019794366 stress="8.263418536795066e-06 -1.8363152303989035e-06 5.5089456911967096e-06 -1.8363152303989035e-06 1.1936048997592873e-05 -0.0 5.5089456911967096e-06 -0.0 1.744499468878958e-05" free_energy=-3746.7417019794366 pbc="T T T"
C       -8.18598020       4.87937573       0.18014375      -0.00123619       0.00201986      -0.00112126
C       -6.82647420       5.07183081      -0.45727505      -0.00103256      -0.00336737       0.01397883
H       -8.95781328       5.07366308      -0.57411288       0.00476271      -0.00186379       0.00491286
H       -8.29281044       3.85064834       0.54524320      -0.00214353       0.00872607       0.00939095
H       -8.31754533       5.57848849       1.01511400      -0.00205045      -0.01289691       0.00131435
C       -5.64963879       4.84317580       0.49407074      -0.00549856       0.00301873      -0.00068031
F       -6.72487920       4.21204744      -1.54760098       0.00777142       0.01345998      -0.00008253
H       -5.73822129       3.83045466       0.91336774      -0.00929094      -0.00072351      -0.01549990
C       -4.23488236       4.98167710      -0.04890121      -0.01131414      -0.00254642       0.00628583
F       -6.76323527       6.36204090      -0.97794276       0.00832883      -0.00982264      -0.00603078
H       -5.74807715       5.54829126       1.33226058      -0.00735593       0.00569062      -0.01411613
F       -4.00168774       6.24056223      -0.56670811       0.00431020      -0.00130561       0.01157871
F       -3.97829221       4.06910782      -1.05377904       0.00399781      -0.00529802       0.01089942
H       -3.48895221       4.81111440       0.74541605       0.01075107       0.00490926      -0.02082979
