
     Program PWSCF v.7.5 starts on 22Jun2026 at 19:53:50 

     This program is part of the open-source Quantum ESPRESSO suite
     for quantum simulation of materials; please cite
         "P. Giannozzi et al., J. Phys.:Condens. Matter 21 395502 (2009);
         "P. Giannozzi et al., J. Phys.:Condens. Matter 29 465901 (2017);
         "P. Giannozzi et al., J. Chem. Phys. 152 154105 (2020);
          URL http://www.quantum-espresso.org", 
     in publications or presentations arising from this work. More details at
     http://www.quantum-espresso.org/quote

     Parallel version (MPI), running on    24 processors

     MPI processes distributed on     1 nodes
     250718 MiB available memory on the printing compute node when the environment starts

     Reading input from cu_pvdf_relax.in

     Current dimensions of program PWSCF are:
     Max number of different atomic species (ntypx) = 10
     Max number of k-points (npk) =  40000
     Max angular momentum in pseudopotentials (lmaxx) =  4
     file Cu.paw.z_11.ld1.psl.v1.0.0-low.upf: wavefunction(s)  4S 3D renormalized
     file C.pbe-n-kjpaw_psl.1.0.0.UPF: wavefunction(s)  2S 2P renormalized

     R & G space division:  proc/nbgrp/npool/nimage =      24
     Subspace diagonalization in iterative solution of the eigenvalue problem:
     one sub-group per band group will be used
     custom distributed-memory algorithm (size of sub-group:  4*  4 procs)


     Parallelization info
     --------------------
     sticks:   dense  smooth     PW     G-vecs:    dense   smooth      PW
     Min         513     256     68               172843    61112    8402
     Max         514     257     69               172858    61139    8419
     Sum       12319    6157   1639              4148395  1466949  201767

     Using Slab Decomposition



     bravais-lattice index     =            0
     lattice parameter (alat)  =      19.2953  a.u.
     unit-cell volume          =   23358.7195 (a.u.)^3
     number of atoms/cell      =           94
     number of atomic types    =            4
     number of electrons       =       930.00
     number of Kohn-Sham states=          558
     kinetic-energy cutoff     =      60.0000  Ry
     charge density cutoff     =     480.0000  Ry
     scf convergence threshold =      1.0E-08
     mixing beta               =       0.3000
     number of iterations used =            8  plain     mixing
     energy convergence thresh.=      1.0E-04
     force convergence thresh. =      1.0E-03
     Exchange-correlation=  SLA  PW   PBX  PBC
                           (   1   4   3   4   0   0   0)
     nstep                     =           50


     celldm(1)=  19.295279  celldm(2)=   0.000000  celldm(3)=   0.000000
     celldm(4)=   0.000000  celldm(5)=   0.000000  celldm(6)=   0.000000

     crystal axes: (cart. coord. in units of alat)
               a(1) = (   1.000000   0.000000   0.000000 )  
               a(2) = (   0.500000   0.866025   0.000000 )  
               a(3) = (   0.000000   0.000000   3.754613 )  

     reciprocal axes: (cart. coord. in units 2 pi/alat)
               b(1) = (  1.000000 -0.577350  0.000000 )  
               b(2) = (  0.000000  1.154701  0.000000 )  
               b(3) = (  0.000000  0.000000  0.266339 )  


     PseudoPot. # 1 for Cu read from file:
     ./Cu.paw.z_11.ld1.psl.v1.0.0-low.upf
     MD5 check sum: 619f40885d92a09a85a8b37550532d0c
     Pseudo is Projector augmented-wave + core cor, Zval = 11.0
     Generated using &quot;atomic&quot; code by A. Dal Corso  v.6.3MaX
     Shape of augmentation charge: PSQ
     Using radial grid of 1199 points,  6 beta functions with: 
                l(1) =   0
                l(2) =   0
                l(3) =   1
                l(4) =   1
                l(5) =   2
                l(6) =   2
     Q(r) pseudized with 0 coefficients 


     PseudoPot. # 2 for C  read from file:
     ./C.pbe-n-kjpaw_psl.1.0.0.UPF
     MD5 check sum: 5d2aebdfa2cae82b50a7e79e9516da0f
     Pseudo is Projector augmented-wave + core cor, Zval =  4.0
     Generated using "atomic" code by A. Dal Corso  v.5.1
     Shape of augmentation charge: PSQ
     Using radial grid of 1073 points,  4 beta functions with: 
                l(1) =   0
                l(2) =   0
                l(3) =   1
                l(4) =   1
     Q(r) pseudized with 0 coefficients 


     PseudoPot. # 3 for H  read from file:
     ./H.pbe-rrkjus_psl.1.0.0.UPF
     MD5 check sum: f52b6d4d1c606e5624b1dc7b2218f220
     Pseudo is Ultrasoft, Zval =  1.0
     Generated using "atomic" code by A. Dal Corso  v.5.1
     Using radial grid of  929 points,  2 beta functions with: 
                l(1) =   0
                l(2) =   0
     Q(r) pseudized with 0 coefficients 


     PseudoPot. # 4 for F  read from file:
     ./f_pbe_v1.4.uspp.F.UPF
     MD5 check sum: 4c38b6a325caf53ec0e86aed9459de46
     Pseudo is Ultrasoft, Zval =  7.0
     Generated by new atomic code, or converted to UPF format
     Using radial grid of  799 points,  4 beta functions with: 
                l(1) =   0
                l(2) =   0
                l(3) =   1
                l(4) =   1
     Q(r) pseudized with  8 coefficients,  rinner =    0.950   0.950   0.950


     atomic species   valence    mass     pseudopotential
     Cu               11.00    63.54600     Cu( 1.00)
     C                 4.00    12.01100     C ( 1.00)
     H                 1.00     1.00800     H ( 1.00)
     F                 7.00    18.99800     F ( 1.00)

     No symmetry found



   Cartesian axes

     site n.     atom                  positions (alat units)
         1        Cu     tau(   1) = (   1.0000000   0.1443376   1.4690584  )
         2        Cu     tau(   2) = (   0.2500000   0.1443376   1.4690584  )
         3        Cu     tau(   3) = (   0.5000000   0.1443376   1.4690584  )
         4        Cu     tau(   4) = (   0.7500000   0.1443376   1.4690584  )
         5        Cu     tau(   5) = (   1.1250000   0.3608439   1.4690584  )
         6        Cu     tau(   6) = (   0.3750000   0.3608439   1.4690584  )
         7        Cu     tau(   7) = (   0.6250000   0.3608439   1.4690584  )
         8        Cu     tau(   8) = (   0.8750000   0.3608439   1.4690584  )
         9        Cu     tau(   9) = (   1.2500000   0.5773503   1.4690584  )
        10        Cu     tau(  10) = (   0.5000000   0.5773503   1.4690584  )
        11        Cu     tau(  11) = (   0.7500000   0.5773503   1.4690584  )
        12        Cu     tau(  12) = (   1.0000000   0.5773503   1.4690584  )
        13        Cu     tau(  13) = (   1.3750000   0.7938566   1.4690584  )
        14        Cu     tau(  14) = (   0.6250000   0.7938566   1.4690584  )
        15        Cu     tau(  15) = (   0.8750000   0.7938566   1.4690584  )
        16        Cu     tau(  16) = (   1.1250000   0.7938566   1.4690584  )
        17        Cu     tau(  17) = (   0.0000000   0.0000000   1.6731825  )
        18        Cu     tau(  18) = (   0.2500000   0.0000000   1.6731825  )
        19        Cu     tau(  19) = (   0.5000000   0.0000000   1.6731825  )
        20        Cu     tau(  20) = (   0.7500000   0.0000000   1.6731825  )
        21        Cu     tau(  21) = (   0.1250000   0.2165064   1.6731825  )
        22        Cu     tau(  22) = (   0.3750000   0.2165064   1.6731825  )
        23        Cu     tau(  23) = (   0.6250000   0.2165064   1.6731825  )
        24        Cu     tau(  24) = (   0.8750000   0.2165064   1.6731825  )
        25        Cu     tau(  25) = (   0.2500000   0.4330127   1.6731825  )
        26        Cu     tau(  26) = (   0.5000000   0.4330127   1.6731825  )
        27        Cu     tau(  27) = (   0.7500000   0.4330127   1.6731825  )
        28        Cu     tau(  28) = (   1.0000000   0.4330127   1.6731825  )
        29        Cu     tau(  29) = (   0.3750000   0.6495191   1.6731825  )
        30        Cu     tau(  30) = (   0.6250000   0.6495191   1.6731825  )
        31        Cu     tau(  31) = (   0.8750000   0.6495191   1.6731825  )
        32        Cu     tau(  32) = (   1.1250000   0.6495191   1.6731825  )
        33        Cu     tau(  33) = (   0.1250000   0.0721688   1.8773067  )
        34        Cu     tau(  34) = (   0.3750000   0.0721688   1.8773067  )
        35        Cu     tau(  35) = (   0.6250000   0.0721688   1.8773067  )
        36        Cu     tau(  36) = (   0.8750000   0.0721688   1.8773067  )
        37        Cu     tau(  37) = (   0.2500000   0.2886751   1.8773067  )
        38        Cu     tau(  38) = (   0.5000000   0.2886751   1.8773067  )
        39        Cu     tau(  39) = (   0.7500000   0.2886751   1.8773067  )
        40        Cu     tau(  40) = (   1.0000000   0.2886751   1.8773067  )
        41        Cu     tau(  41) = (   0.3750000   0.5051815   1.8773067  )
        42        Cu     tau(  42) = (   0.6250000   0.5051815   1.8773067  )
        43        Cu     tau(  43) = (   0.8750000   0.5051815   1.8773067  )
        44        Cu     tau(  44) = (   1.1250000   0.5051815   1.8773067  )
        45        Cu     tau(  45) = (   0.5000000   0.7216878   1.8773067  )
        46        Cu     tau(  46) = (   0.7500000   0.7216878   1.8773067  )
        47        Cu     tau(  47) = (   1.0000000   0.7216878   1.8773067  )
        48        Cu     tau(  48) = (   1.2500000   0.7216878   1.8773067  )
        49        Cu     tau(  49) = (   1.0000000   0.1443376   2.0814308  )
        50        Cu     tau(  50) = (   0.2500000   0.1443376   2.0814308  )
        51        Cu     tau(  51) = (   0.5000000   0.1443376   2.0814308  )
        52        Cu     tau(  52) = (   0.7500000   0.1443376   2.0814308  )
        53        Cu     tau(  53) = (   1.1250000   0.3608439   2.0814308  )
        54        Cu     tau(  54) = (   0.3750000   0.3608439   2.0814308  )
        55        Cu     tau(  55) = (   0.6250000   0.3608439   2.0814308  )
        56        Cu     tau(  56) = (   0.8750000   0.3608439   2.0814308  )
        57        Cu     tau(  57) = (   1.2500000   0.5773503   2.0814308  )
        58        Cu     tau(  58) = (   0.5000000   0.5773503   2.0814308  )
        59        Cu     tau(  59) = (   0.7500000   0.5773503   2.0814308  )
        60        Cu     tau(  60) = (   1.0000000   0.5773503   2.0814308  )
        61        Cu     tau(  61) = (   1.3750000   0.7938566   2.0814308  )
        62        Cu     tau(  62) = (   0.6250000   0.7938566   2.0814308  )
        63        Cu     tau(  63) = (   0.8750000   0.7938566   2.0814308  )
        64        Cu     tau(  64) = (   1.1250000   0.7938566   2.0814308  )
        65        Cu     tau(  65) = (   0.0000000   0.0000000   2.2855550  )
        66        Cu     tau(  66) = (   0.2500000   0.0000000   2.2855550  )
        67        Cu     tau(  67) = (   0.5000000   0.0000000   2.2855550  )
        68        Cu     tau(  68) = (   0.7500000   0.0000000   2.2855550  )
        69        Cu     tau(  69) = (   0.1250000   0.2165064   2.2855550  )
        70        Cu     tau(  70) = (   0.3750000   0.2165064   2.2855550  )
        71        Cu     tau(  71) = (   0.6250000   0.2165064   2.2855550  )
        72        Cu     tau(  72) = (   0.8750000   0.2165064   2.2855550  )
        73        Cu     tau(  73) = (   0.2500000   0.4330127   2.2855550  )
        74        Cu     tau(  74) = (   0.5000000   0.4330127   2.2855550  )
        75        Cu     tau(  75) = (   0.7500000   0.4330127   2.2855550  )
        76        Cu     tau(  76) = (   1.0000000   0.4330127   2.2855550  )
        77        Cu     tau(  77) = (   0.3750000   0.6495191   2.2855550  )
        78        Cu     tau(  78) = (   0.6250000   0.6495191   2.2855550  )
        79        Cu     tau(  79) = (   0.8750000   0.6495191   2.2855550  )
        80        Cu     tau(  80) = (   1.1250000   0.6495191   2.2855550  )
        81        C      tau(  81) = (   0.3735345   0.4778725   2.7598852  )
        82        C      tau(  82) = (   0.5066808   0.4967211   2.6974581  )
        83        H      tau(  83) = (   0.2979433   0.4969005   2.6860154  )
        84        H      tau(  84) = (   0.3630719   0.3771218   2.7956420  )
        85        H      tau(  85) = (   0.3606494   0.5463417   2.8416598  )
        86        C      tau(  86) = (   0.6219368   0.4743272   2.7906303  )
        87        F      tau(  87) = (   0.5166307   0.4125163   2.5906746  )
        88        H      tau(  88) = (   0.6132612   0.3751441   2.8316951  )
        89        C      tau(  89) = (   0.7604941   0.4878916   2.7374531  )
        90        F      tau(  90) = (   0.5128742   0.6230807   2.6464654  )
        91        H      tau(  91) = (   0.6122960   0.5433843   2.8727203  )
        92        F      tau(  92) = (   0.7833325   0.6111834   2.6867406  )
        93        F      tau(  93) = (   0.7856238   0.3985171   2.6390382  )
        94        H      tau(  94) = (   0.8335484   0.4711872   2.8152464  )

     number of k points=    10  Marzari-Vanderbilt smearing, width (Ry)=  0.0200
                       cart. coord. in units 2pi/alat
        k(    1) = (   0.0000000   0.0000000   0.0000000), wk =   0.1250000
        k(    2) = (   0.0000000   0.2886751   0.0000000), wk =   0.2500000
        k(    3) = (   0.0000000  -0.5773503   0.0000000), wk =   0.1250000
        k(    4) = (   0.2500000  -0.7216878   0.0000000), wk =   0.2500000
        k(    5) = (  -0.2500000   0.1443376   0.0000000), wk =   0.2500000
        k(    6) = (   0.2500000   0.1443376   0.0000000), wk =   0.2500000
        k(    7) = (   0.5000000  -0.2886751   0.0000000), wk =   0.1250000
        k(    8) = (  -0.5000000  -0.2886751   0.0000000), wk =   0.1250000
        k(    9) = (  -0.2500000  -0.7216878   0.0000000), wk =   0.2500000
        k(   10) = (  -0.5000000  -0.5773503   0.0000000), wk =   0.2500000

     Dense  grid:  4148395 G-vectors     FFT dimensions: ( 135, 135, 512)

     Smooth grid:  1466949 G-vectors     FFT dimensions: (  96,  96, 360)

     Estimated max dynamical RAM per process >       2.08 GB

     Estimated total dynamical RAM >      50.00 GB

     Atomic positions and unit cell read from directory:
     ./tmp/cu_pvdf.save/
     Atomic positions from file used, from input discarded


     The initial density is read from file :
     ./tmp/cu_pvdf.save/charge-density


     negative rho (up, down):  2.873E-03 0.000E+00
     Cannot read wfcs: file not found
     Starting wfcs are  758 randomized atomic wfcs
     Checking if some PAW data can be deallocated... 

     total cpu time spent up to now is      185.4 secs

     Self-consistent Calculation

     iteration #  1     ecut=    60.00 Ry     beta= 0.30
     Davidson diagonalization with overlap
     c_bands:  3 eigenvalues not converged
     c_bands:  2 eigenvalues not converged
     c_bands:  2 eigenvalues not converged
     c_bands:  2 eigenvalues not converged
     c_bands:  2 eigenvalues not converged
     ethr =  1.00E-05,  avg # of iterations = 37.0

     negative rho (up, down):  2.831E-03 0.000E+00

     total cpu time spent up to now is     2603.9 secs

     total energy              =  -17320.55680918 Ry
     estimated scf accuracy    <       3.30778539 Ry

     iteration #  2     ecut=    60.00 Ry     beta= 0.30
     Davidson diagonalization with overlap
     ethr =  3.56E-04,  avg # of iterations =  8.3

     negative rho (up, down):  2.825E-03 0.000E+00

     total cpu time spent up to now is     3281.3 secs

     total energy              =  -17317.18381114 Ry
     estimated scf accuracy    <     109.80771707 Ry

     iteration #  3     ecut=    60.00 Ry     beta= 0.30
     Davidson diagonalization with overlap
     ethr =  3.56E-04,  avg # of iterations = 10.9

     negative rho (up, down):  2.824E-03 0.000E+00

     total cpu time spent up to now is     3878.2 secs

     total energy              =  -17319.36901851 Ry
     estimated scf accuracy    <     141.21226368 Ry

     iteration #  4     ecut=    60.00 Ry     beta= 0.30
     Davidson diagonalization with overlap
     ethr =  3.56E-04,  avg # of iterations =  8.6

     negative rho (up, down):  2.832E-03 0.000E+00

     total cpu time spent up to now is     4345.9 secs

     total energy              =  -17321.99561931 Ry
     estimated scf accuracy    <       0.32137718 Ry

     iteration #  5     ecut=    60.00 Ry     beta= 0.30
     Davidson diagonalization with overlap
     ethr =  3.46E-05,  avg # of iterations = 15.7

     negative rho (up, down):  2.838E-03 0.000E+00

     total cpu time spent up to now is     4937.9 secs

     total energy              =  -17322.00669443 Ry
     estimated scf accuracy    <       0.09762013 Ry

     iteration #  6     ecut=    60.00 Ry     beta= 0.30
     Davidson diagonalization with overlap
     ethr =  1.05E-05,  avg # of iterations =  2.0

     negative rho (up, down):  2.844E-03 0.000E+00

     total cpu time spent up to now is     5350.7 secs

     total energy              =  -17322.00335449 Ry
     estimated scf accuracy    <       0.02935590 Ry

     iteration #  7     ecut=    60.00 Ry     beta= 0.30
     Davidson diagonalization with overlap
     c_bands:  1 eigenvalues not converged
     c_bands:  1 eigenvalues not converged
     c_bands:  1 eigenvalues not converged
     c_bands:  1 eigenvalues not converged
     c_bands:  3 eigenvalues not converged
     ethr =  3.16E-06,  avg # of iterations = 11.6

     negative rho (up, down):  2.848E-03 0.000E+00

     total cpu time spent up to now is     5834.3 secs

     total energy              =  -17322.00509220 Ry
     estimated scf accuracy    <       0.01263543 Ry

     iteration #  8     ecut=    60.00 Ry     beta= 0.30
     Davidson diagonalization with overlap
     c_bands:  3 eigenvalues not converged
     c_bands:  4 eigenvalues not converged
     c_bands:  2 eigenvalues not converged
     ethr =  1.36E-06,  avg # of iterations = 11.2

     negative rho (up, down):  2.851E-03 0.000E+00

     total cpu time spent up to now is     6347.5 secs

     total energy              =  -17322.00494198 Ry
     estimated scf accuracy    <       0.00837210 Ry

     iteration #  9     ecut=    60.00 Ry     beta= 0.30
     Davidson diagonalization with overlap
     c_bands:  2 eigenvalues not converged
     c_bands:  2 eigenvalues not converged
     ethr =  9.00E-07,  avg # of iterations =  6.3

     negative rho (up, down):  2.851E-03 0.000E+00

     total cpu time spent up to now is     6815.4 secs

     total energy              =  -17322.00528520 Ry
     estimated scf accuracy    <       0.00283296 Ry

     iteration # 10     ecut=    60.00 Ry     beta= 0.30
     Davidson diagonalization with overlap
     ethr =  3.05E-07,  avg # of iterations =  2.9

     negative rho (up, down):  2.852E-03 0.000E+00

     total cpu time spent up to now is     7250.7 secs

     total energy              =  -17322.00536513 Ry
     estimated scf accuracy    <       0.00072794 Ry

     iteration # 11     ecut=    60.00 Ry     beta= 0.30
     Davidson diagonalization with overlap
     ethr =  7.83E-08,  avg # of iterations =  1.7

     negative rho (up, down):  2.853E-03 0.000E+00

     total cpu time spent up to now is     7684.2 secs

     total energy              =  -17322.00537971 Ry
     estimated scf accuracy    <       0.00025941 Ry

     iteration # 12     ecut=    60.00 Ry     beta= 0.30
     Davidson diagonalization with overlap
     ethr =  2.79E-08,  avg # of iterations =  1.6

     negative rho (up, down):  2.854E-03 0.000E+00

     total cpu time spent up to now is     8113.5 secs

     total energy              =  -17322.00538358 Ry
     estimated scf accuracy    <       0.00003985 Ry

     iteration # 13     ecut=    60.00 Ry     beta= 0.30
     Davidson diagonalization with overlap
     ethr =  4.29E-09,  avg # of iterations =  2.8

     negative rho (up, down):  2.855E-03 0.000E+00

     total cpu time spent up to now is     8588.0 secs

     total energy              =  -17322.00538690 Ry
     estimated scf accuracy    <       0.00000359 Ry

     iteration # 14     ecut=    60.00 Ry     beta= 0.30
     Davidson diagonalization with overlap
     ethr =  3.87E-10,  avg # of iterations =  4.4

     negative rho (up, down):  2.855E-03 0.000E+00

     total cpu time spent up to now is     9194.1 secs

     total energy              =  -17322.00538731 Ry
     estimated scf accuracy    <       0.00000870 Ry

     iteration # 15     ecut=    60.00 Ry     beta= 0.30
     Davidson diagonalization with overlap
     ethr =  3.87E-10,  avg # of iterations =  2.0

     negative rho (up, down):  2.856E-03 0.000E+00

     total cpu time spent up to now is     9676.3 secs

     total energy              =  -17322.00538763 Ry
     estimated scf accuracy    <       0.00000933 Ry

     iteration # 16     ecut=    60.00 Ry     beta= 0.30
     Davidson diagonalization with overlap
     ethr =  3.87E-10,  avg # of iterations =  1.0

     negative rho (up, down):  2.856E-03 0.000E+00

     total cpu time spent up to now is    10301.1 secs

     total energy              =  -17322.00538791 Ry
     estimated scf accuracy    <       0.00000064 Ry

     iteration # 17     ecut=    60.00 Ry     beta= 0.30
     Davidson diagonalization with overlap
     ethr =  6.88E-11,  avg # of iterations =  2.0

     negative rho (up, down):  2.856E-03 0.000E+00

     total cpu time spent up to now is    11005.5 secs

     total energy              =  -17322.00538787 Ry
     estimated scf accuracy    <       0.00000225 Ry

     iteration # 18     ecut=    60.00 Ry     beta= 0.30
     Davidson diagonalization with overlap
     ethr =  6.88E-11,  avg # of iterations =  1.6

     negative rho (up, down):  2.857E-03 0.000E+00

     total cpu time spent up to now is    11427.3 secs

     total energy              =  -17322.00538793 Ry
     estimated scf accuracy    <       0.00000083 Ry

     iteration # 19     ecut=    60.00 Ry     beta= 0.30
     Davidson diagonalization with overlap
     ethr =  6.88E-11,  avg # of iterations =  1.0

     negative rho (up, down):  2.857E-03 0.000E+00

     total cpu time spent up to now is    11795.5 secs

     total energy              =  -17322.00538796 Ry
     estimated scf accuracy    <       0.00000003 Ry

     iteration # 20     ecut=    60.00 Ry     beta= 0.30
     Davidson diagonalization with overlap
     ethr =  3.61E-12,  avg # of iterations =  2.0

     negative rho (up, down):  2.857E-03 0.000E+00

     total cpu time spent up to now is    12223.8 secs

     total energy              =  -17322.00538796 Ry
     estimated scf accuracy    <       0.00000002 Ry

     iteration # 21     ecut=    60.00 Ry     beta= 0.30
     Davidson diagonalization with overlap
     ethr =  2.59E-12,  avg # of iterations =  2.0

     negative rho (up, down):  2.857E-03 0.000E+00

     total cpu time spent up to now is    12646.3 secs

     total energy              =  -17322.00538796 Ry
     estimated scf accuracy    <       0.00000002 Ry

     iteration # 22     ecut=    60.00 Ry     beta= 0.30
     Davidson diagonalization with overlap
     ethr =  2.18E-12,  avg # of iterations =  1.5

     negative rho (up, down):  2.857E-03 0.000E+00

     total cpu time spent up to now is    13042.2 secs

     End of self-consistent calculation

          k = 0.0000 0.0000 0.0000 (183353 PWs)   bands (ev):

   -26.6113 -26.3862 -25.1441 -24.9469 -15.7808 -14.1730 -11.9404 -10.6072
    -8.9595  -8.9235  -8.4780  -8.4120  -8.4075  -7.5410  -7.4409  -6.9215
    -6.5222  -6.5220  -6.5216  -6.5207  -6.5204  -6.5199  -6.2558  -6.2169
    -5.8441  -5.7588  -5.7586  -5.7579  -5.7576  -5.7572  -5.7560  -5.4450
    -5.0391  -5.0013  -4.9591  -4.7694  -4.6748  -4.6742  -4.6733  -4.6718
    -4.6701  -4.6493  -4.5701  -4.5076  -4.4382  -4.3397  -4.2340  -4.2340
    -4.2338  -4.0747  -4.0747  -4.0746  -3.9395  -3.9394  -3.9392  -3.9390
    -3.9383  -3.9382  -3.9038  -3.9036  -3.9036  -3.8682  -3.7559  -3.7555
    -3.7547  -3.7527  -3.7514  -3.7486  -3.7443  -3.7440  -3.7438  -3.7436
    -3.7435  -3.7434  -3.6652  -3.6651  -3.6648  -3.6266  -3.6265  -3.6265
    -3.5375  -3.5372  -3.5370  -3.5366  -3.5366  -3.5364  -3.4759  -3.4758
    -3.4753  -3.4747  -3.4746  -3.4737  -3.4734  -3.4733  -3.4731  -3.4346
    -3.4345  -3.4336  -3.4335  -3.4334  -3.4333  -3.3188  -3.3187  -3.3187
    -3.1644  -3.1643  -3.1642  -3.1641  -3.1640  -3.1639  -3.1116  -3.1112
    -3.1107  -3.1106  -3.1106  -3.1105  -3.1002  -3.1000  -3.1000  -3.0995
    -3.0995  -3.0992  -2.9820  -2.9596  -2.9594  -2.9592  -2.9591  -2.9591
    -2.9588  -2.8823  -2.8822  -2.8821  -2.8461  -2.8456  -2.8444  -2.8444
    -2.8440  -2.8438  -2.8328  -2.8326  -2.8325  -2.8318  -2.8316  -2.8311
    -2.7131  -2.7130  -2.7129  -2.7128  -2.7128  -2.7124  -2.6531  -2.6527
    -2.6527  -2.6526  -2.6521  -2.6520  -2.6509  -2.6505  -2.6492  -2.6491
    -2.6485  -2.6484  -2.6435  -2.6434  -2.6433  -2.6432  -2.6431  -2.6430
    -2.4812  -2.4811  -2.4810  -2.4457  -2.4456  -2.4455  -2.4452  -2.4450
    -2.4450  -2.4322  -2.4288  -2.4286  -2.4281  -2.4276  -2.4274  -2.4265
    -2.4234  -2.4231  -2.4222  -2.4219  -2.4216  -2.4214  -2.4074  -2.3705
    -2.3704  -2.3704  -2.2965  -2.2965  -2.2391  -2.2387  -2.2382  -2.2374
    -2.2369  -2.2366  -2.2349  -2.2254  -2.2254  -2.2148  -2.2148  -2.2148
    -2.2048  -2.2047  -2.1915  -2.1915  -2.1909  -2.1903  -2.1901  -2.1891
    -2.0951  -2.0948  -2.0942  -2.0938  -2.0933  -2.0925  -2.0691  -2.0688
    -2.0685  -2.0681  -2.0678  -2.0669  -2.0589  -2.0588  -2.0584  -2.0583
    -2.0581  -2.0576  -2.0429  -2.0424  -2.0424  -2.0420  -2.0418  -2.0417
    -2.0193  -2.0191  -2.0186  -2.0158  -2.0149  -2.0145  -2.0138  -2.0131
    -2.0125  -1.9863  -1.9863  -1.9690  -1.9683  -1.9682  -1.9676  -1.9671
    -1.9668  -1.9664  -1.9664  -1.9330  -1.9327  -1.9319  -1.9315  -1.9312
    -1.9301  -1.9298  -1.9296  -1.9291  -1.8970  -1.8967  -1.8956  -1.8954
    -1.8947  -1.8945  -1.8943  -1.8942  -1.8930  -1.8711  -1.8036  -1.8031
    -1.8030  -1.8026  -1.8025  -1.8023  -1.7234  -1.7233  -1.7229  -1.7229
    -1.7226  -1.7225  -1.7021  -1.7020  -1.7019  -1.7014  -1.7013  -1.7011
    -1.6019  -1.6018  -1.6016  -1.6010  -1.6009  -1.6004  -1.5840  -1.5839
    -1.5831  -1.5820  -1.5817  -1.5799  -1.5796  -1.5795  -1.5795  -1.5792
    -1.5791  -1.5789  -1.4644  -1.4643  -1.4517  -1.4517  -1.4516  -1.4328
    -1.4326  -1.4326  -1.4325  -1.4325  -1.4324  -1.4257  -1.4249  -1.4249
    -1.4242  -1.4240  -1.4239  -1.4041  -1.4040  -1.3914  -1.3913  -1.3900
    -1.3879  -1.3875  -1.3838  -1.3518  -1.3517  -1.3508  -1.3295  -1.3293
    -1.3291  -1.3288  -1.3287  -1.3275  -1.3273  -1.3271  -1.3270  -1.3263
    -1.3257  -1.3255  -1.2928  -1.2922  -1.2920  -1.2918  -1.2909  -1.2906
    -1.2543  -1.2531  -1.2531  -1.2524  -1.2519  -1.2519  -1.1969  -1.1968
    -1.1799  -1.1794  -1.1794  -1.1788  -1.1787  -1.1786  -1.1641  -1.1640
    -1.1640  -1.0841  -1.0841  -1.0840  -1.0570  -1.0564  -1.0563  -1.0560
    -1.0560  -1.0554  -0.9767  -0.9766  -0.9765  -0.9765  -0.9762  -0.9762
    -0.9664  -0.9664  -0.9308  -0.9307  -0.9307  -0.9055  -0.9055  -0.9038
    -0.9012  -0.9004  -0.8956  -0.8806  -0.8806  -0.8743  -0.8743  -0.8742
    -0.8680  -0.8678  -0.8675  -0.8675  -0.8670  -0.8666  -0.8648  -0.8648
    -0.8647  -0.8586  -0.8584  -0.8584  -0.8581  -0.8580  -0.8578  -0.8404
    -0.8402  -0.8402  -0.8401  -0.8397  -0.8397  -0.8380  -0.8379  -0.8374
    -0.7847  -0.7847  -0.7847  -0.7722  -0.7721  -0.7720  -0.7719  -0.7719
    -0.7717  -0.6351  -0.6351  -0.6350  -0.6314  -0.6314  -0.6313  -0.3035
     0.1463   0.1465   0.1493   0.1536   0.1549   0.1627   0.3036   0.3037
     0.3038   0.3763   0.5220   0.5221   0.5222   0.5223   0.5224   0.5224
     0.8972   0.8977   0.8980   0.8981   0.8985   0.8989   1.1785   1.1785
     1.1786   1.7516   1.7517   1.7518   1.7800   1.7802   1.7808   1.7817
     1.7818   1.7828   1.9026   1.9048   1.9119   1.9226   1.9261   1.9474
     2.1071   2.1073   2.1075   2.2238   2.2240   2.2241   3.2580   3.2589
     3.2598   3.2603   3.2614   3.2631   3.4925   3.5040   3.5130   3.5161
     3.5348   3.5450   3.5643   4.3135   4.5973   4.8212   4.8287   4.8288
     4.8341   4.9434   4.9644   5.0029   5.1591   5.2105   5.2123   5.2161
     5.2207   5.2216   5.2233   5.3557   5.5202   5.6183   5.6365   5.6373
     5.6447   5.7362   5.7911   5.9680   6.1011   6.1417   6.1548   6.1907
     6.2357   6.2548   6.2901   6.3202   6.3248   6.3272   6.3453   6.3683
     6.3880   6.3949   6.5024   6.5231   6.5518   6.5773   6.6837   6.7103
     6.7529   6.7587   6.7699   6.8065   6.8115   6.8620

          k = 0.0000 0.2887 0.0000 (183317 PWs)   bands (ev):

   -26.6113 -26.3862 -25.1441 -24.9469 -15.7808 -14.1730 -11.9404 -10.6072
    -8.9595  -8.9235  -8.4780  -8.4078  -8.2861  -7.4415  -7.4183  -7.3127
    -6.9215  -6.8501  -6.8499  -6.4860  -6.2549  -6.1023  -6.0542  -6.0540
    -5.9961  -5.9960  -5.8425  -5.6252  -5.4462  -5.2974  -5.2965  -5.2543
    -5.0391  -5.0049  -5.0027  -4.8959  -4.8856  -4.8593  -4.7362  -4.5836
    -4.5833  -4.5706  -4.5079  -4.3606  -4.3592  -4.3523  -4.3461  -4.3378
    -4.2300  -4.2009  -4.2008  -4.1710  -4.1704  -4.1267  -4.1227  -4.0373
    -4.0372  -3.9980  -3.9980  -3.9774  -3.8765  -3.8738  -3.8729  -3.8555
    -3.8488  -3.8046  -3.8046  -3.7768  -3.7413  -3.7409  -3.6612  -3.6448
    -3.6445  -3.6310  -3.6233  -3.6230  -3.6158  -3.6151  -3.5903  -3.5903
    -3.5900  -3.5874  -3.5874  -3.5586  -3.5582  -3.5352  -3.5352  -3.4554
    -3.4553  -3.4460  -3.4262  -3.4260  -3.4178  -3.4177  -3.4014  -3.4010
    -3.3915  -3.3469  -3.3466  -3.3235  -3.3232  -3.3193  -3.3192  -3.2788
    -3.2787  -3.2704  -3.2697  -3.2224  -3.2223  -3.2131  -3.2130  -3.1728
    -3.1726  -3.1278  -3.1277  -3.0761  -3.0758  -3.0458  -3.0458  -3.0015
    -3.0013  -2.9918  -2.9827  -2.9798  -2.9797  -2.9796  -2.9787  -2.9753
    -2.9751  -2.8913  -2.8909  -2.8738  -2.8737  -2.8703  -2.8701  -2.8695
    -2.8680  -2.8031  -2.8029  -2.7978  -2.7977  -2.7858  -2.7858  -2.7813
    -2.7812  -2.7740  -2.7739  -2.7589  -2.7249  -2.7245  -2.7141  -2.7140
    -2.6960  -2.6958  -2.6956  -2.6636  -2.6635  -2.6397  -2.6395  -2.6282
    -2.6277  -2.6108  -2.5872  -2.5871  -2.5683  -2.5680  -2.5492  -2.5399
    -2.5082  -2.5081  -2.5000  -2.4994  -2.4869  -2.4789  -2.4738  -2.4582
    -2.4557  -2.4556  -2.4291  -2.4290  -2.4277  -2.4273  -2.4273  -2.4271
    -2.3818  -2.3814  -2.3561  -2.3558  -2.3525  -2.3524  -2.3478  -2.3469
    -2.3325  -2.2898  -2.2890  -2.2759  -2.2757  -2.2567  -2.2564  -2.2538
    -2.2505  -2.2492  -2.2430  -2.2314  -2.2312  -2.2307  -2.2067  -2.2067
    -2.2058  -2.1993  -2.1935  -2.1785  -2.1769  -2.1757  -2.1611  -2.1517
    -2.1513  -2.1508  -2.1502  -2.1416  -2.1407  -2.1252  -2.1251  -2.1248
    -2.1126  -2.1122  -2.1052  -2.0949  -2.0725  -2.0724  -2.0658  -2.0570
    -2.0561  -2.0534  -2.0531  -2.0503  -2.0468  -2.0464  -2.0414  -2.0411
    -2.0238  -2.0191  -2.0183  -2.0086  -2.0086  -2.0028  -1.9955  -1.9932
    -1.9928  -1.9761  -1.9750  -1.9698  -1.9692  -1.9626  -1.9619  -1.9511
    -1.9504  -1.9497  -1.9488  -1.9401  -1.9277  -1.9271  -1.9257  -1.9244
    -1.9218  -1.9207  -1.9079  -1.8842  -1.8809  -1.8806  -1.8562  -1.8555
    -1.8474  -1.8451  -1.8451  -1.8233  -1.8036  -1.8035  -1.7908  -1.7751
    -1.7750  -1.7672  -1.7611  -1.7347  -1.7344  -1.7339  -1.7335  -1.7297
    -1.7294  -1.7279  -1.7278  -1.7169  -1.7168  -1.6955  -1.6796  -1.6790
    -1.6414  -1.6410  -1.6254  -1.6158  -1.6029  -1.6028  -1.5641  -1.5638
    -1.5517  -1.5517  -1.5513  -1.5512  -1.5321  -1.5317  -1.5265  -1.5137
    -1.5137  -1.5063  -1.4999  -1.4958  -1.4904  -1.4902  -1.4802  -1.4794
    -1.4512  -1.4442  -1.4359  -1.4250  -1.4236  -1.4110  -1.4109  -1.4069
    -1.4067  -1.3918  -1.3797  -1.3788  -1.3775  -1.3771  -1.3762  -1.3705
    -1.3704  -1.3615  -1.3586  -1.3496  -1.3495  -1.3352  -1.3350  -1.3201
    -1.3201  -1.3196  -1.2647  -1.2642  -1.2560  -1.2557  -1.2538  -1.2535
    -1.2486  -1.2452  -1.2421  -1.2420  -1.2367  -1.2367  -1.2332  -1.2326
    -1.2046  -1.1995  -1.1968  -1.1872  -1.1869  -1.1863  -1.1859  -1.1818
    -1.1814  -1.1765  -1.1622  -1.1178  -1.1013  -1.1012  -1.0985  -1.0978
    -1.0976  -1.0971  -1.0963  -1.0822  -1.0667  -1.0625  -1.0621  -1.0564
    -1.0540  -1.0532  -1.0478  -1.0475  -1.0215  -1.0215  -1.0194  -1.0189
    -1.0101  -1.0096  -0.9725  -0.9669  -0.9634  -0.9603  -0.9603  -0.9590
    -0.9565  -0.9219  -0.9181  -0.9181  -0.9168  -0.9166  -0.9127  -0.9124
    -0.9122  -0.8983  -0.8928  -0.8927  -0.8868  -0.8866  -0.8829  -0.8827
    -0.8826  -0.8818  -0.8788  -0.8772  -0.8771  -0.8707  -0.8704  -0.8691
    -0.8689  -0.8666  -0.8450  -0.8413  -0.8412  -0.8316  -0.8315  -0.8185
    -0.8155  -0.8154  -0.8089  -0.8087  -0.7691  -0.7691  -0.7584  -0.7583
    -0.7099  -0.7098  -0.6968  -0.6949  -0.6876  -0.6810  -0.6451  -0.3378
    -0.3085  -0.2485  -0.2485  -0.0513  -0.0507  -0.0343  -0.0266  -0.0116
     0.2653   0.3874   0.3875   0.5112   0.5113   0.5122   0.5157   0.6257
     0.6275   0.7207   0.7609   0.8867   0.8867   0.9180   1.0192   1.0193
     1.1721   1.6139   1.6217   1.6281   1.6298   1.6324   1.6325   1.7539
     1.7543   2.0585   2.0617   2.1580   2.1585   2.2486   2.4097   2.4103
     2.4163   2.4225   2.4325   2.7739   2.8534   2.8534   3.0734   3.0859
     3.1418   3.1432   3.1987   3.2001   3.3655   3.6237   4.0861   4.0907
     4.2203   4.2328   4.4281   4.4505   4.4521   4.5660   4.7210   4.7417
     4.8567   4.9031   4.9189   4.9263   4.9354   4.9374   5.0025   5.1095
     5.1486   5.2218   5.2220   5.3825   5.4320   5.6290   5.6540   5.6876
     5.7334   5.7383   5.8222   5.8561   5.8848   5.9123   5.9362   5.9621
     5.9629   5.9903   6.0032   6.0044   6.0380   6.0595   6.1290   6.2176
     6.2397   6.2715   6.3358   6.3661   6.3980   6.5218   6.5283   6.5398
     6.5891   6.6101   6.6848   6.7454   6.7500   6.7642

          k = 0.0000-0.5774 0.0000 (183406 PWs)   bands (ev):

   -26.6113 -26.3862 -25.1441 -24.9469 -15.7808 -14.1730 -11.9404 -10.6072
    -8.9595  -8.9235  -8.4780  -8.4078  -7.9144  -7.9135  -7.4411  -7.0596
    -7.0590  -6.9619  -6.9617  -6.9204  -6.2549  -6.1558  -6.1555  -5.8445
    -5.7671  -5.7647  -5.4459  -5.3207  -5.3203  -5.3203  -5.3202  -5.0394
    -5.0133  -4.9704  -4.9536  -4.8114  -4.8102  -4.7699  -4.7331  -4.7326
    -4.7324  -4.7270  -4.5711  -4.5487  -4.5327  -4.5073  -4.4282  -4.4275
    -4.3394  -4.1137  -4.1113  -4.1112  -4.1110  -4.1104  -4.1104  -4.0465
    -4.0463  -4.0243  -4.0241  -4.0237  -4.0228  -3.9344  -3.9344  -3.9336
    -3.9335  -3.9004  -3.8927  -3.8613  -3.7827  -3.7824  -3.7822  -3.7821
    -3.6432  -3.6427  -3.5855  -3.5852  -3.5201  -3.5200  -3.5197  -3.5195
    -3.5141  -3.5140  -3.5118  -3.5117  -3.5023  -3.5021  -3.5021  -3.5017
    -3.4968  -3.4964  -3.4760  -3.4759  -3.4755  -3.4755  -3.3706  -3.3704
    -3.3170  -3.3168  -3.2796  -3.2791  -3.2786  -3.2780  -3.2665  -3.2663
    -3.2660  -3.2659  -3.2657  -3.2656  -3.2017  -3.2014  -3.1573  -3.1571
    -3.1564  -3.1561  -3.1505  -3.1494  -3.1144  -3.1142  -3.1142  -3.1141
    -3.0597  -3.0594  -3.0007  -3.0005  -2.9817  -2.9269  -2.9269  -2.9100
    -2.9098  -2.9096  -2.9090  -2.8797  -2.8796  -2.8540  -2.8539  -2.8534
    -2.8532  -2.8345  -2.8342  -2.8341  -2.8338  -2.8329  -2.8329  -2.8260
    -2.8250  -2.8212  -2.8211  -2.7174  -2.7173  -2.7173  -2.7172  -2.6689
    -2.6688  -2.6437  -2.6436  -2.6396  -2.6395  -2.6180  -2.6175  -2.5885
    -2.5879  -2.5877  -2.5873  -2.5702  -2.5697  -2.5696  -2.5693  -2.5669
    -2.5666  -2.4765  -2.4756  -2.4691  -2.4686  -2.4479  -2.4472  -2.4291
    -2.4291  -2.4175  -2.4174  -2.4171  -2.4168  -2.3904  -2.3891  -2.3713
    -2.3708  -2.3164  -2.3154  -2.3146  -2.3145  -2.3144  -2.3141  -2.2808
    -2.2802  -2.2753  -2.2740  -2.2562  -2.2554  -2.2442  -2.2441  -2.2439
    -2.2436  -2.2405  -2.2404  -2.2385  -2.2384  -2.2355  -2.2350  -2.2250
    -2.2223  -2.1953  -2.1951  -2.1947  -2.1946  -2.1761  -2.1755  -2.1635
    -2.1628  -2.1626  -2.1619  -2.1562  -2.1554  -2.1530  -2.1529  -2.1519
    -2.1517  -2.1421  -2.1414  -2.1363  -2.1357  -2.1108  -2.1104  -2.1104
    -2.1097  -2.1011  -2.1008  -2.0933  -2.0921  -2.0799  -2.0790  -2.0769
    -2.0766  -2.0438  -2.0415  -2.0357  -2.0352  -2.0338  -2.0331  -2.0243
    -2.0234  -2.0233  -2.0232  -1.9979  -1.9973  -1.9913  -1.9910  -1.9237
    -1.9227  -1.9226  -1.9222  -1.8848  -1.8839  -1.8658  -1.8656  -1.8651
    -1.8650  -1.8637  -1.8630  -1.8623  -1.8620  -1.8575  -1.8566  -1.8235
    -1.8232  -1.8052  -1.8033  -1.7935  -1.7934  -1.7901  -1.7899  -1.7894
    -1.7893  -1.7416  -1.7415  -1.7402  -1.7392  -1.6988  -1.6986  -1.6985
    -1.6981  -1.6809  -1.6804  -1.6686  -1.6676  -1.6509  -1.6509  -1.6008
    -1.5991  -1.5631  -1.5627  -1.5627  -1.5625  -1.5447  -1.5432  -1.5360
    -1.5360  -1.5202  -1.5201  -1.5200  -1.5198  -1.5086  -1.5081  -1.5080
    -1.5075  -1.4615  -1.4611  -1.4605  -1.4602  -1.4568  -1.4538  -1.4363
    -1.4360  -1.4357  -1.4352  -1.4174  -1.4165  -1.4143  -1.4127  -1.3880
    -1.3849  -1.3838  -1.3816  -1.3814  -1.3813  -1.3682  -1.3679  -1.3676
    -1.3671  -1.3535  -1.3526  -1.3276  -1.3275  -1.3272  -1.3268  -1.3119
    -1.3116  -1.2465  -1.2462  -1.2460  -1.2455  -1.2352  -1.2351  -1.2351
    -1.2347  -1.2239  -1.2228  -1.2096  -1.2038  -1.1981  -1.1975  -1.1734
    -1.1732  -1.1679  -1.1675  -1.1671  -1.1668  -1.1182  -1.1179  -1.1176
    -1.1168  -1.0963  -1.0962  -1.0958  -1.0958  -1.0881  -1.0879  -1.0876
    -1.0875  -1.0786  -1.0782  -1.0576  -1.0573  -1.0559  -1.0558  -1.0334
    -1.0331  -1.0325  -1.0324  -1.0323  -1.0321  -1.0062  -1.0057  -1.0031
    -1.0024  -0.9993  -0.9989  -0.9988  -0.9979  -0.9864  -0.9856  -0.9720
    -0.9718  -0.9688  -0.9685  -0.9649  -0.9647  -0.9646  -0.9645  -0.9460
    -0.9456  -0.9004  -0.9003  -0.8919  -0.8915  -0.8914  -0.8913  -0.8912
    -0.8908  -0.8891  -0.8890  -0.8859  -0.8845  -0.8812  -0.8809  -0.8804
    -0.8803  -0.8739  -0.8735  -0.8391  -0.8389  -0.8385  -0.8381  -0.8303
    -0.8278  -0.7956  -0.7941  -0.7618  -0.7618  -0.7613  -0.7611  -0.7565
    -0.7563  -0.7562  -0.7561  -0.7226  -0.7224  -0.6901  -0.6893  -0.6892
    -0.6888  -0.6884  -0.6827  -0.2220  -0.2209  -0.2202  -0.2190  -0.0916
    -0.0905  -0.0791  -0.0756   0.4750   0.4750   0.4752   0.4754   0.5119
     0.5336   0.8887   0.8887   0.8892   0.8894   1.1305   1.1322   1.1330
     1.1362   1.4622   1.4721   1.5177   1.5341   1.5613   1.5648   1.6769
     1.6771   1.6781   1.6788   2.8937   2.8938   2.9170   2.9218   2.9248
     2.9265   2.9309   2.9390   3.1263   3.1265   3.1349   3.1398   3.1412
     3.1490   3.5582   3.5591   3.6271   3.6285   3.8055   3.9047   3.9053
     3.9063   3.9067   4.0462   4.0474   4.2263   4.6318   4.6323   4.7599
     4.7813   4.8213   4.8409   5.0500   5.0562   5.1354   5.1442   5.1517
     5.1649   5.2832   5.2936   5.2938   5.2956   5.2958   5.3413   5.3841
     5.4630   5.5797   5.5809   5.5898   5.6920   5.7642   5.8266   5.8573
     5.8643   5.8905   5.8963   6.0590   6.1051   6.1334   6.1365   6.1371
     6.1598   6.2090   6.2515   6.2746   6.3173   6.3331   6.4191   6.4338
     6.4631   6.4926   6.6696   6.6753   6.7062   6.7070

          k = 0.2500-0.7217 0.0000 (183316 PWs)   bands (ev):

   -26.6113 -26.3862 -25.1441 -24.9469 -15.7808 -14.1730 -11.9402 -10.6073
    -8.9595  -8.9237  -8.4780  -8.4084  -8.0371  -7.5505  -7.5489  -7.4405
    -7.1777  -6.9212  -6.7104  -6.7094  -6.2547  -6.1898  -6.1896  -5.8782
    -5.8413  -5.4643  -5.4543  -5.4522  -5.4492  -5.4322  -5.3919  -5.1168
    -5.1155  -5.0392  -4.9999  -4.7806  -4.7639  -4.6320  -4.6152  -4.6139
    -4.5708  -4.5393  -4.5383  -4.5079  -4.4565  -4.4565  -4.4283  -4.4263
    -4.3399  -4.2779  -4.2696  -4.1913  -4.1910  -4.1889  -4.1849  -4.1847
    -4.0585  -4.0576  -4.0153  -3.9987  -3.9641  -3.9639  -3.9057  -3.8971
    -3.8945  -3.8685  -3.8617  -3.8595  -3.7958  -3.7954  -3.7248  -3.7242
    -3.7020  -3.6157  -3.6155  -3.5947  -3.5939  -3.5744  -3.5739  -3.5217
    -3.5212  -3.5200  -3.5199  -3.5189  -3.5182  -3.5160  -3.5077  -3.4519
    -3.4077  -3.4073  -3.3926  -3.3922  -3.3885  -3.3879  -3.3688  -3.3688
    -3.3556  -3.3552  -3.3544  -3.3354  -3.2913  -3.2911  -3.2855  -3.2804
    -3.2799  -3.2475  -3.2320  -3.2138  -3.2119  -3.2118  -3.1888  -3.1887
    -3.1604  -3.1401  -3.1391  -3.1206  -3.0862  -3.0739  -3.0732  -3.0483
    -3.0475  -3.0452  -3.0420  -3.0407  -3.0404  -3.0391  -3.0391  -2.9809
    -2.9550  -2.9243  -2.8892  -2.8876  -2.8875  -2.8791  -2.8569  -2.8515
    -2.8514  -2.8291  -2.8277  -2.8127  -2.8120  -2.8010  -2.8007  -2.7678
    -2.7675  -2.7532  -2.7527  -2.7522  -2.7521  -2.7317  -2.7313  -2.6918
    -2.6799  -2.6798  -2.6209  -2.6200  -2.6008  -2.5939  -2.5928  -2.5787
    -2.5743  -2.5534  -2.5526  -2.5504  -2.5469  -2.5311  -2.5307  -2.5303
    -2.5301  -2.5034  -2.5032  -2.5001  -2.4994  -2.4828  -2.4484  -2.4480
    -2.4461  -2.4453  -2.4117  -2.4097  -2.4033  -2.3871  -2.3739  -2.3736
    -2.3716  -2.3711  -2.3667  -2.3519  -2.3501  -2.3369  -2.3310  -2.3308
    -2.3269  -2.3151  -2.3148  -2.3117  -2.3116  -2.2850  -2.2631  -2.2533
    -2.2531  -2.2474  -2.2444  -2.2385  -2.2382  -2.2309  -2.2292  -2.2287
    -2.2249  -2.2247  -2.2125  -2.2123  -2.2106  -2.2100  -2.2018  -2.1995
    -2.1721  -2.1658  -2.1658  -2.1563  -2.1562  -2.1409  -2.1381  -2.1365
    -2.1305  -2.1304  -2.1294  -2.1240  -2.1235  -2.1109  -2.1091  -2.0893
    -2.0876  -2.0874  -2.0834  -2.0833  -2.0751  -2.0746  -2.0592  -2.0546
    -2.0512  -2.0209  -2.0174  -2.0169  -2.0134  -2.0088  -2.0074  -2.0003
    -1.9966  -1.9920  -1.9916  -1.9892  -1.9891  -1.9739  -1.9738  -1.9454
    -1.9346  -1.9344  -1.9186  -1.9054  -1.9051  -1.8763  -1.8565  -1.8564
    -1.8430  -1.8429  -1.8427  -1.8206  -1.8094  -1.8091  -1.8069  -1.8066
    -1.7937  -1.7932  -1.7918  -1.7905  -1.7806  -1.7755  -1.7515  -1.7512
    -1.7082  -1.7079  -1.6967  -1.6955  -1.6949  -1.6944  -1.6855  -1.6838
    -1.6836  -1.6830  -1.6761  -1.6759  -1.6650  -1.6637  -1.6357  -1.6350
    -1.6337  -1.6186  -1.6182  -1.6170  -1.6157  -1.6110  -1.5802  -1.5777
    -1.5684  -1.5635  -1.5635  -1.5601  -1.5412  -1.5397  -1.5323  -1.5241
    -1.4871  -1.4862  -1.4719  -1.4715  -1.4706  -1.4700  -1.4546  -1.4545
    -1.4471  -1.4464  -1.4435  -1.4270  -1.4268  -1.4234  -1.4209  -1.4182
    -1.4178  -1.4118  -1.3881  -1.3689  -1.3561  -1.3525  -1.3446  -1.3438
    -1.3290  -1.3286  -1.3202  -1.3200  -1.2910  -1.2900  -1.2704  -1.2689
    -1.2684  -1.2640  -1.2600  -1.2481  -1.2464  -1.2420  -1.2413  -1.2323
    -1.2323  -1.2312  -1.2302  -1.2254  -1.2245  -1.1975  -1.1971  -1.1889
    -1.1879  -1.1822  -1.1821  -1.1655  -1.1648  -1.1615  -1.1538  -1.1280
    -1.1279  -1.1014  -1.0943  -1.0919  -1.0914  -1.0893  -1.0891  -1.0861
    -1.0859  -1.0816  -1.0781  -1.0585  -1.0579  -1.0548  -1.0547  -1.0529
    -1.0528  -1.0439  -1.0426  -1.0424  -1.0214  -1.0213  -1.0177  -1.0151
    -1.0066  -1.0023  -1.0019  -0.9947  -0.9942  -0.9791  -0.9783  -0.9778
    -0.9647  -0.9640  -0.9631  -0.9629  -0.9613  -0.9612  -0.9566  -0.9361
    -0.9359  -0.9323  -0.9319  -0.9317  -0.9187  -0.9179  -0.9065  -0.9065
    -0.9060  -0.9057  -0.9035  -0.8979  -0.8963  -0.8920  -0.8877  -0.8870
    -0.8723  -0.8715  -0.8625  -0.8617  -0.8495  -0.8222  -0.8220  -0.8083
    -0.8081  -0.8050  -0.8048  -0.8046  -0.8044  -0.7884  -0.7884  -0.7779
    -0.7541  -0.7432  -0.7426  -0.7326  -0.6788  -0.6776  -0.6684  -0.4404
    -0.4335  -0.4003  -0.4003  -0.3021  -0.3017  -0.2516  -0.2484  -0.2006
    -0.0874  -0.0869  -0.0733  -0.0732   0.3638   0.4196   0.4227   0.5953
     0.5960   0.6108   0.6116   0.9222   0.9452   1.1015   1.2455   1.2496
     1.2542   1.2671   1.6149   1.6152   1.8074   2.0551   2.0771   2.0815
     2.0896   2.0899   2.0914   2.1365   2.1387   2.2497   2.2573   2.2780
     2.7031   2.8437   2.8443   2.9951   3.0679   3.0779   3.3231   3.3366
     3.5143   3.5151   3.6624   3.7939   3.9044   3.9064   3.9618   3.9687
     3.9702   3.9747   4.0885   4.0922   4.2789   4.4262   4.5029   4.6752
     4.7972   4.9318   4.9863   5.0325   5.0784   5.1206   5.1593   5.2118
     5.2606   5.2962   5.2999   5.3044   5.3849   5.4168   5.4401   5.4574
     5.5152   5.5486   5.5511   5.5703   5.6585   5.7021   5.7338   5.7889
     5.8767   5.9031   5.9205   6.0343   6.0865   6.1474   6.2005   6.2034
     6.2083   6.2153   6.2241   6.2586   6.2724   6.3163   6.3370   6.4659
     6.5577   6.5916   6.6007   6.6209   6.6542   6.7122

          k =-0.2500 0.1443 0.0000 (183317 PWs)   bands (ev):

   -26.6113 -26.3862 -25.1441 -24.9469 -15.7808 -14.1730 -11.9402 -10.6073
    -8.9595  -8.9237  -8.4780  -8.4084  -8.2861  -7.4411  -7.4182  -7.3127
    -6.9214  -6.8501  -6.8498  -6.4861  -6.2550  -6.1024  -6.0542  -6.0536
    -5.9962  -5.9960  -5.8423  -5.6253  -5.4451  -5.2971  -5.2968  -5.2548
    -5.0395  -5.0099  -4.9944  -4.8982  -4.8887  -4.8579  -4.7357  -4.5836
    -4.5833  -4.5706  -4.5079  -4.3612  -4.3596  -4.3523  -4.3451  -4.3375
    -4.2305  -4.2009  -4.2008  -4.1710  -4.1704  -4.1267  -4.1229  -4.0372
    -4.0372  -3.9980  -3.9980  -3.9774  -3.8745  -3.8738  -3.8689  -3.8563
    -3.8542  -3.8046  -3.8046  -3.7767  -3.7413  -3.7408  -3.6612  -3.6448
    -3.6446  -3.6309  -3.6232  -3.6231  -3.6159  -3.6150  -3.5904  -3.5903
    -3.5900  -3.5874  -3.5874  -3.5587  -3.5582  -3.5352  -3.5352  -3.4554
    -3.4553  -3.4460  -3.4261  -3.4260  -3.4178  -3.4177  -3.4013  -3.4010
    -3.3914  -3.3469  -3.3466  -3.3235  -3.3232  -3.3193  -3.3192  -3.2788
    -3.2787  -3.2705  -3.2696  -3.2224  -3.2223  -3.2131  -3.2130  -3.1727
    -3.1726  -3.1278  -3.1277  -3.0761  -3.0758  -3.0459  -3.0458  -3.0014
    -3.0013  -2.9920  -2.9818  -2.9798  -2.9797  -2.9796  -2.9788  -2.9753
    -2.9749  -2.8912  -2.8909  -2.8739  -2.8737  -2.8703  -2.8701  -2.8694
    -2.8680  -2.8031  -2.8028  -2.7979  -2.7977  -2.7858  -2.7858  -2.7813
    -2.7812  -2.7741  -2.7738  -2.7588  -2.7249  -2.7245  -2.7141  -2.7141
    -2.6959  -2.6958  -2.6956  -2.6636  -2.6635  -2.6397  -2.6395  -2.6281
    -2.6278  -2.6107  -2.5872  -2.5871  -2.5683  -2.5680  -2.5492  -2.5399
    -2.5082  -2.5081  -2.4999  -2.4995  -2.4869  -2.4789  -2.4737  -2.4582
    -2.4557  -2.4556  -2.4291  -2.4290  -2.4277  -2.4274  -2.4273  -2.4271
    -2.3817  -2.3815  -2.3561  -2.3558  -2.3524  -2.3524  -2.3479  -2.3468
    -2.3325  -2.2897  -2.2892  -2.2759  -2.2757  -2.2566  -2.2564  -2.2538
    -2.2505  -2.2491  -2.2430  -2.2314  -2.2312  -2.2308  -2.2068  -2.2067
    -2.2058  -2.1993  -2.1935  -2.1780  -2.1772  -2.1757  -2.1611  -2.1517
    -2.1514  -2.1507  -2.1502  -2.1415  -2.1408  -2.1253  -2.1250  -2.1248
    -2.1126  -2.1123  -2.1052  -2.0949  -2.0724  -2.0723  -2.0657  -2.0570
    -2.0563  -2.0534  -2.0531  -2.0503  -2.0467  -2.0464  -2.0413  -2.0412
    -2.0238  -2.0190  -2.0185  -2.0086  -2.0086  -2.0028  -1.9955  -1.9932
    -1.9928  -1.9760  -1.9751  -1.9698  -1.9693  -1.9625  -1.9620  -1.9511
    -1.9504  -1.9495  -1.9487  -1.9401  -1.9276  -1.9270  -1.9257  -1.9244
    -1.9217  -1.9209  -1.9078  -1.8842  -1.8810  -1.8807  -1.8563  -1.8556
    -1.8474  -1.8451  -1.8450  -1.8233  -1.8036  -1.8035  -1.7908  -1.7751
    -1.7750  -1.7670  -1.7610  -1.7347  -1.7345  -1.7340  -1.7334  -1.7297
    -1.7294  -1.7280  -1.7278  -1.7169  -1.7168  -1.6954  -1.6797  -1.6791
    -1.6414  -1.6411  -1.6254  -1.6157  -1.6029  -1.6028  -1.5642  -1.5638
    -1.5518  -1.5517  -1.5513  -1.5512  -1.5321  -1.5318  -1.5265  -1.5137
    -1.5137  -1.5063  -1.4999  -1.4957  -1.4904  -1.4902  -1.4801  -1.4796
    -1.4513  -1.4441  -1.4358  -1.4251  -1.4237  -1.4110  -1.4109  -1.4069
    -1.4068  -1.3918  -1.3793  -1.3791  -1.3775  -1.3771  -1.3762  -1.3705
    -1.3704  -1.3615  -1.3586  -1.3496  -1.3496  -1.3353  -1.3350  -1.3201
    -1.3200  -1.3196  -1.2646  -1.2642  -1.2560  -1.2557  -1.2537  -1.2536
    -1.2486  -1.2452  -1.2421  -1.2420  -1.2367  -1.2366  -1.2331  -1.2327
    -1.2045  -1.1995  -1.1968  -1.1872  -1.1870  -1.1862  -1.1860  -1.1817
    -1.1815  -1.1765  -1.1622  -1.1178  -1.1012  -1.1012  -1.0983  -1.0978
    -1.0977  -1.0971  -1.0963  -1.0821  -1.0667  -1.0625  -1.0622  -1.0564
    -1.0540  -1.0533  -1.0479  -1.0475  -1.0215  -1.0214  -1.0193  -1.0190
    -1.0101  -1.0097  -0.9725  -0.9669  -0.9633  -0.9603  -0.9602  -0.9590
    -0.9565  -0.9219  -0.9181  -0.9181  -0.9167  -0.9166  -0.9127  -0.9125
    -0.9122  -0.8983  -0.8928  -0.8927  -0.8868  -0.8867  -0.8830  -0.8826
    -0.8826  -0.8819  -0.8788  -0.8772  -0.8772  -0.8707  -0.8704  -0.8691
    -0.8689  -0.8666  -0.8450  -0.8413  -0.8411  -0.8316  -0.8315  -0.8185
    -0.8155  -0.8154  -0.8089  -0.8087  -0.7691  -0.7691  -0.7583  -0.7583
    -0.7099  -0.7099  -0.6966  -0.6951  -0.6876  -0.6810  -0.6450  -0.3378
    -0.3084  -0.2485  -0.2485  -0.0513  -0.0508  -0.0327  -0.0280  -0.0120
     0.2654   0.3874   0.3875   0.5113   0.5113   0.5126   0.5152   0.6260
     0.6273   0.7200   0.7618   0.8866   0.8867   0.9182   1.0192   1.0193
     1.1727   1.6139   1.6220   1.6277   1.6290   1.6324   1.6325   1.7537
     1.7540   2.0592   2.0615   2.1581   2.1585   2.2488   2.4097   2.4103
     2.4160   2.4220   2.4329   2.7746   2.8532   2.8534   3.0739   3.0855
     3.1421   3.1432   3.1982   3.1993   3.3656   3.6182   4.0862   4.0913
     4.2204   4.2325   4.4088   4.4501   4.4518   4.4578   4.6927   4.7445
     4.8227   4.9145   4.9189   4.9351   4.9357   4.9806   5.0862   5.1099
     5.1713   5.2220   5.2223   5.3352   5.5328   5.6052   5.6739   5.7223
     5.7363   5.7622   5.8260   5.8601   5.8840   5.9224   5.9552   5.9614
     5.9632   5.9702   6.0023   6.0053   6.0374   6.0642   6.1124   6.2163
     6.2447   6.3153   6.3398   6.4042   6.4457   6.4821   6.5250   6.5321
     6.5476   6.6021   6.6522   6.7369   6.7545   6.7657

          k = 0.2500 0.1443 0.0000 (183317 PWs)   bands (ev):

   -26.6113 -26.3862 -25.1441 -24.9469 -15.7808 -14.1730 -11.9402 -10.6073
    -8.9595  -8.9237  -8.4780  -8.4084  -8.2861  -7.4411  -7.4182  -7.3127
    -6.9214  -6.8502  -6.8497  -6.4861  -6.2549  -6.1024  -6.0542  -6.0536
    -5.9962  -5.9960  -5.8423  -5.6253  -5.4451  -5.2971  -5.2967  -5.2549
    -5.0394  -5.0104  -4.9943  -4.8975  -4.8884  -4.8582  -4.7360  -4.5835
    -4.5833  -4.5705  -4.5079  -4.3614  -4.3595  -4.3523  -4.3451  -4.3375
    -4.2304  -4.2009  -4.2007  -4.1710  -4.1704  -4.1267  -4.1228  -4.0372
    -4.0372  -3.9980  -3.9980  -3.9775  -3.8740  -3.8738  -3.8692  -3.8566
    -3.8542  -3.8046  -3.8046  -3.7766  -3.7413  -3.7407  -3.6612  -3.6448
    -3.6446  -3.6309  -3.6232  -3.6230  -3.6159  -3.6150  -3.5904  -3.5903
    -3.5900  -3.5874  -3.5873  -3.5587  -3.5582  -3.5353  -3.5351  -3.4554
    -3.4553  -3.4460  -3.4262  -3.4260  -3.4178  -3.4177  -3.4014  -3.4010
    -3.3914  -3.3469  -3.3466  -3.3236  -3.3232  -3.3193  -3.3192  -3.2788
    -3.2787  -3.2704  -3.2697  -3.2225  -3.2223  -3.2131  -3.2130  -3.1728
    -3.1726  -3.1278  -3.1277  -3.0761  -3.0758  -3.0459  -3.0458  -3.0014
    -3.0013  -2.9920  -2.9818  -2.9798  -2.9797  -2.9796  -2.9787  -2.9754
    -2.9750  -2.8913  -2.8908  -2.8739  -2.8738  -2.8702  -2.8700  -2.8695
    -2.8680  -2.8031  -2.8028  -2.7979  -2.7977  -2.7858  -2.7858  -2.7814
    -2.7812  -2.7741  -2.7738  -2.7588  -2.7249  -2.7245  -2.7141  -2.7141
    -2.6959  -2.6958  -2.6956  -2.6636  -2.6635  -2.6397  -2.6395  -2.6282
    -2.6277  -2.6107  -2.5872  -2.5872  -2.5684  -2.5679  -2.5492  -2.5399
    -2.5082  -2.5081  -2.5000  -2.4995  -2.4869  -2.4789  -2.4736  -2.4582
    -2.4557  -2.4556  -2.4291  -2.4290  -2.4276  -2.4274  -2.4273  -2.4271
    -2.3818  -2.3815  -2.3561  -2.3558  -2.3524  -2.3524  -2.3479  -2.3468
    -2.3325  -2.2897  -2.2892  -2.2759  -2.2757  -2.2567  -2.2564  -2.2538
    -2.2506  -2.2490  -2.2430  -2.2314  -2.2312  -2.2308  -2.2068  -2.2067
    -2.2058  -2.1993  -2.1935  -2.1779  -2.1774  -2.1757  -2.1611  -2.1517
    -2.1513  -2.1508  -2.1503  -2.1416  -2.1407  -2.1252  -2.1250  -2.1247
    -2.1127  -2.1122  -2.1052  -2.0949  -2.0724  -2.0723  -2.0657  -2.0570
    -2.0563  -2.0534  -2.0531  -2.0504  -2.0468  -2.0464  -2.0413  -2.0413
    -2.0238  -2.0190  -2.0184  -2.0086  -2.0086  -2.0027  -1.9955  -1.9932
    -1.9928  -1.9760  -1.9751  -1.9698  -1.9692  -1.9625  -1.9620  -1.9511
    -1.9503  -1.9496  -1.9486  -1.9401  -1.9276  -1.9269  -1.9257  -1.9244
    -1.9217  -1.9209  -1.9077  -1.8843  -1.8810  -1.8807  -1.8563  -1.8556
    -1.8474  -1.8451  -1.8450  -1.8233  -1.8037  -1.8036  -1.7908  -1.7751
    -1.7750  -1.7669  -1.7610  -1.7349  -1.7344  -1.7339  -1.7335  -1.7297
    -1.7294  -1.7279  -1.7278  -1.7169  -1.7168  -1.6953  -1.6797  -1.6791
    -1.6414  -1.6411  -1.6254  -1.6157  -1.6029  -1.6028  -1.5642  -1.5638
    -1.5518  -1.5517  -1.5513  -1.5512  -1.5321  -1.5317  -1.5265  -1.5137
    -1.5136  -1.5063  -1.4999  -1.4957  -1.4904  -1.4902  -1.4802  -1.4795
    -1.4513  -1.4441  -1.4358  -1.4252  -1.4237  -1.4110  -1.4109  -1.4069
    -1.4068  -1.3918  -1.3794  -1.3791  -1.3775  -1.3771  -1.3761  -1.3705
    -1.3704  -1.3615  -1.3586  -1.3496  -1.3496  -1.3353  -1.3350  -1.3201
    -1.3200  -1.3196  -1.2646  -1.2642  -1.2560  -1.2557  -1.2538  -1.2535
    -1.2486  -1.2452  -1.2421  -1.2421  -1.2367  -1.2366  -1.2332  -1.2327
    -1.2045  -1.1995  -1.1969  -1.1872  -1.1870  -1.1862  -1.1860  -1.1817
    -1.1815  -1.1764  -1.1622  -1.1178  -1.1013  -1.1012  -1.0983  -1.0978
    -1.0977  -1.0970  -1.0963  -1.0821  -1.0667  -1.0625  -1.0621  -1.0564
    -1.0541  -1.0532  -1.0479  -1.0475  -1.0215  -1.0214  -1.0194  -1.0190
    -1.0101  -1.0097  -0.9725  -0.9669  -0.9633  -0.9603  -0.9602  -0.9589
    -0.9565  -0.9219  -0.9181  -0.9181  -0.9167  -0.9166  -0.9127  -0.9125
    -0.9122  -0.8983  -0.8928  -0.8927  -0.8868  -0.8867  -0.8830  -0.8827
    -0.8826  -0.8819  -0.8788  -0.8772  -0.8771  -0.8707  -0.8704  -0.8690
    -0.8689  -0.8666  -0.8450  -0.8413  -0.8412  -0.8316  -0.8315  -0.8185
    -0.8155  -0.8154  -0.8089  -0.8087  -0.7691  -0.7691  -0.7583  -0.7583
    -0.7099  -0.7099  -0.6966  -0.6950  -0.6876  -0.6810  -0.6450  -0.3377
    -0.3084  -0.2485  -0.2485  -0.0514  -0.0507  -0.0324  -0.0283  -0.0120
     0.2654   0.3874   0.3874   0.5113   0.5113   0.5125   0.5154   0.6259
     0.6275   0.7199   0.7619   0.8866   0.8867   0.9182   1.0192   1.0192
     1.1729   1.6133   1.6224   1.6278   1.6288   1.6324   1.6325   1.7537
     1.7539   2.0590   2.0617   2.1580   2.1586   2.2488   2.4094   2.4104
     2.4165   2.4223   2.4325   2.7746   2.8532   2.8534   3.0726   3.0862
     3.1419   3.1434   3.1982   3.1992   3.3657   3.6188   4.0860   4.0919
     4.2190   4.2333   4.4181   4.4417   4.4510   4.4530   4.7024   4.7416
     4.8327   4.9152   4.9172   4.9348   4.9361   4.9949   5.0998   5.1102
     5.1842   5.2220   5.2223   5.3048   5.4988   5.6062   5.6655   5.7279
     5.7350   5.7581   5.8189   5.8687   5.8848   5.9280   5.9353   5.9623
     5.9630   5.9865   6.0022   6.0066   6.0313   6.0762   6.1124   6.2076
     6.2474   6.2960   6.3404   6.4030   6.4385   6.4803   6.5269   6.5347
     6.5451   6.5912   6.7012   6.7412   6.7578   6.7646

          k = 0.5000-0.2887 0.0000 (183406 PWs)   bands (ev):

   -26.6113 -26.3862 -25.1441 -24.9469 -15.7808 -14.1730 -11.9401 -10.6073
    -8.9595  -8.9239  -8.4780  -8.4091  -7.9148  -7.9131  -7.4401  -7.0596
    -7.0588  -6.9623  -6.9617  -6.9199  -6.2551  -6.1558  -6.1549  -5.8437
    -5.7681  -5.7650  -5.4429  -5.3207  -5.3204  -5.3203  -5.3202  -5.0396
    -5.0064  -4.9720  -4.9627  -4.8113  -4.8100  -4.7684  -4.7330  -4.7330
    -4.7324  -4.7267  -4.5715  -4.5481  -4.5326  -4.5075  -4.4278  -4.4276
    -4.3398  -4.1139  -4.1114  -4.1111  -4.1111  -4.1103  -4.1102  -4.0468
    -4.0463  -4.0245  -4.0242  -4.0238  -4.0228  -3.9346  -3.9345  -3.9335
    -3.9333  -3.8957  -3.8928  -3.8659  -3.7826  -3.7824  -3.7822  -3.7821
    -3.6432  -3.6425  -3.5857  -3.5852  -3.5200  -3.5200  -3.5197  -3.5195
    -3.5142  -3.5140  -3.5118  -3.5118  -3.5023  -3.5021  -3.5020  -3.5017
    -3.4970  -3.4962  -3.4761  -3.4758  -3.4756  -3.4755  -3.3706  -3.3703
    -3.3169  -3.3168  -3.2797  -3.2794  -3.2784  -3.2778  -3.2666  -3.2664
    -3.2660  -3.2659  -3.2656  -3.2656  -3.2018  -3.2014  -3.1574  -3.1572
    -3.1562  -3.1559  -3.1507  -3.1493  -3.1144  -3.1143  -3.1142  -3.1141
    -3.0597  -3.0594  -3.0006  -3.0005  -2.9803  -2.9269  -2.9269  -2.9099
    -2.9098  -2.9094  -2.9092  -2.8797  -2.8796  -2.8543  -2.8541  -2.8532
    -2.8531  -2.8344  -2.8343  -2.8340  -2.8339  -2.8329  -2.8329  -2.8260
    -2.8249  -2.8212  -2.8211  -2.7174  -2.7174  -2.7172  -2.7172  -2.6689
    -2.6688  -2.6437  -2.6436  -2.6396  -2.6395  -2.6179  -2.6176  -2.5888
    -2.5881  -2.5876  -2.5871  -2.5701  -2.5698  -2.5696  -2.5694  -2.5670
    -2.5665  -2.4767  -2.4752  -2.4691  -2.4687  -2.4480  -2.4472  -2.4291
    -2.4291  -2.4176  -2.4175  -2.4170  -2.4167  -2.3904  -2.3891  -2.3711
    -2.3709  -2.3163  -2.3158  -2.3147  -2.3144  -2.3142  -2.3140  -2.2809
    -2.2802  -2.2753  -2.2739  -2.2561  -2.2555  -2.2441  -2.2440  -2.2438
    -2.2438  -2.2408  -2.2405  -2.2384  -2.2382  -2.2357  -2.2349  -2.2253
    -2.2220  -2.1954  -2.1953  -2.1947  -2.1945  -2.1761  -2.1757  -2.1632
    -2.1629  -2.1623  -2.1622  -2.1563  -2.1553  -2.1531  -2.1530  -2.1518
    -2.1516  -2.1422  -2.1413  -2.1363  -2.1356  -2.1106  -2.1106  -2.1102
    -2.1100  -2.1012  -2.1007  -2.0935  -2.0919  -2.0798  -2.0792  -2.0769
    -2.0766  -2.0439  -2.0414  -2.0357  -2.0352  -2.0338  -2.0332  -2.0240
    -2.0237  -2.0233  -2.0232  -1.9979  -1.9972  -1.9913  -1.9910  -1.9235
    -1.9229  -1.9226  -1.9223  -1.8846  -1.8838  -1.8658  -1.8656  -1.8651
    -1.8650  -1.8641  -1.8628  -1.8622  -1.8617  -1.8574  -1.8567  -1.8235
    -1.8232  -1.8056  -1.8028  -1.7935  -1.7933  -1.7898  -1.7897  -1.7896
    -1.7895  -1.7416  -1.7415  -1.7403  -1.7393  -1.6988  -1.6987  -1.6984
    -1.6983  -1.6806  -1.6805  -1.6686  -1.6677  -1.6510  -1.6509  -1.6008
    -1.5990  -1.5630  -1.5628  -1.5627  -1.5625  -1.5449  -1.5430  -1.5360
    -1.5360  -1.5202  -1.5201  -1.5200  -1.5198  -1.5088  -1.5086  -1.5078
    -1.5073  -1.4614  -1.4612  -1.4605  -1.4601  -1.4568  -1.4538  -1.4364
    -1.4359  -1.4356  -1.4353  -1.4171  -1.4167  -1.4140  -1.4132  -1.3882
    -1.3850  -1.3837  -1.3817  -1.3814  -1.3809  -1.3684  -1.3679  -1.3675
    -1.3670  -1.3531  -1.3525  -1.3276  -1.3274  -1.3272  -1.3268  -1.3119
    -1.3116  -1.2466  -1.2460  -1.2459  -1.2455  -1.2352  -1.2351  -1.2350
    -1.2348  -1.2237  -1.2230  -1.2098  -1.2035  -1.1982  -1.1975  -1.1736
    -1.1730  -1.1680  -1.1674  -1.1671  -1.1668  -1.1182  -1.1179  -1.1176
    -1.1168  -1.0964  -1.0963  -1.0957  -1.0957  -1.0880  -1.0880  -1.0876
    -1.0874  -1.0786  -1.0782  -1.0575  -1.0574  -1.0559  -1.0557  -1.0334
    -1.0332  -1.0325  -1.0324  -1.0323  -1.0321  -1.0063  -1.0057  -1.0033
    -1.0021  -0.9995  -0.9994  -0.9984  -0.9977  -0.9867  -0.9854  -0.9720
    -0.9719  -0.9692  -0.9682  -0.9648  -0.9647  -0.9646  -0.9645  -0.9460
    -0.9458  -0.9004  -0.9003  -0.8919  -0.8915  -0.8914  -0.8913  -0.8912
    -0.8908  -0.8891  -0.8890  -0.8858  -0.8846  -0.8812  -0.8810  -0.8804
    -0.8803  -0.8740  -0.8734  -0.8394  -0.8393  -0.8382  -0.8378  -0.8303
    -0.8278  -0.7956  -0.7941  -0.7621  -0.7618  -0.7612  -0.7609  -0.7565
    -0.7563  -0.7562  -0.7561  -0.7226  -0.7223  -0.6904  -0.6894  -0.6891
    -0.6887  -0.6884  -0.6823  -0.2217  -0.2209  -0.2204  -0.2191  -0.0912
    -0.0907  -0.0789  -0.0758   0.4749   0.4750   0.4753   0.4755   0.5102
     0.5356   0.8885   0.8887   0.8893   0.8894   1.1307   1.1321   1.1331
     1.1361   1.4592   1.4772   1.5144   1.5346   1.5618   1.5654   1.6761
     1.6768   1.6782   1.6790   2.8937   2.8938   2.9174   2.9234   2.9247
     2.9259   2.9307   2.9358   3.1263   3.1264   3.1357   3.1395   3.1417
     3.1494   3.5585   3.5591   3.6272   3.6295   3.8346   3.9045   3.9045
     3.9064   3.9070   4.0414   4.0466   4.0479   4.6319   4.6325   4.6832
     4.7361   4.8371   4.9636   5.0346   5.0989   5.1337   5.1545   5.1587
     5.1691   5.2810   5.2927   5.2941   5.2953   5.2964   5.3552   5.3878
     5.5236   5.5802   5.5808   5.6809   5.7013   5.7591   5.8216   5.8413
     5.9179   5.9443   5.9847   6.0464   6.1244   6.1326   6.1388   6.1491
     6.1993   6.2079   6.2487   6.2579   6.3168   6.3312   6.4069   6.4363
     6.4520   6.4770   6.5562   6.6726   6.6761   6.7059

          k =-0.5000-0.2887 0.0000 (183406 PWs)   bands (ev):

   -26.6113 -26.3862 -25.1441 -24.9469 -15.7808 -14.1730 -11.9401 -10.6073
    -8.9595  -8.9239  -8.4780  -8.4091  -7.9145  -7.9134  -7.4401  -7.0594
    -7.0590  -6.9622  -6.9617  -6.9199  -6.2551  -6.1558  -6.1549  -5.8438
    -5.7669  -5.7661  -5.4430  -5.3207  -5.3203  -5.3203  -5.3202  -5.0398
    -5.0069  -4.9714  -4.9620  -4.8111  -4.8102  -4.7694  -4.7333  -4.7328
    -4.7323  -4.7265  -4.5713  -4.5477  -4.5327  -4.5076  -4.4279  -4.4276
    -4.3398  -4.1137  -4.1115  -4.1111  -4.1109  -4.1105  -4.1101  -4.0468
    -4.0463  -4.0247  -4.0241  -4.0238  -4.0226  -3.9344  -3.9341  -3.9338
    -3.9336  -3.8955  -3.8928  -3.8660  -3.7828  -3.7824  -3.7822  -3.7820
    -3.6431  -3.6427  -3.5857  -3.5852  -3.5204  -3.5200  -3.5194  -3.5194
    -3.5142  -3.5140  -3.5118  -3.5117  -3.5023  -3.5022  -3.5019  -3.5017
    -3.4968  -3.4965  -3.4761  -3.4761  -3.4755  -3.4753  -3.3709  -3.3701
    -3.3170  -3.3167  -3.2795  -3.2795  -3.2783  -3.2781  -3.2665  -3.2663
    -3.2661  -3.2659  -3.2657  -3.2656  -3.2018  -3.2014  -3.1578  -3.1572
    -3.1561  -3.1557  -3.1504  -3.1495  -3.1144  -3.1143  -3.1141  -3.1140
    -3.0597  -3.0593  -3.0006  -3.0004  -2.9803  -2.9270  -2.9269  -2.9100
    -2.9097  -2.9094  -2.9091  -2.8797  -2.8796  -2.8544  -2.8543  -2.8531
    -2.8529  -2.8345  -2.8342  -2.8339  -2.8338  -2.8330  -2.8329  -2.8257
    -2.8252  -2.8212  -2.8210  -2.7175  -2.7174  -2.7172  -2.7171  -2.6689
    -2.6688  -2.6437  -2.6435  -2.6397  -2.6395  -2.6180  -2.6175  -2.5886
    -2.5884  -2.5874  -2.5871  -2.5701  -2.5698  -2.5695  -2.5694  -2.5668
    -2.5666  -2.4768  -2.4751  -2.4691  -2.4687  -2.4478  -2.4473  -2.4291
    -2.4291  -2.4176  -2.4172  -2.4170  -2.4170  -2.3903  -2.3891  -2.3712
    -2.3709  -2.3164  -2.3158  -2.3147  -2.3145  -2.3142  -2.3138  -2.2809
    -2.2802  -2.2753  -2.2739  -2.2561  -2.2555  -2.2442  -2.2440  -2.2438
    -2.2437  -2.2408  -2.2403  -2.2387  -2.2382  -2.2357  -2.2349  -2.2251
    -2.2222  -2.1955  -2.1953  -2.1947  -2.1944  -2.1761  -2.1756  -2.1633
    -2.1632  -2.1624  -2.1620  -2.1559  -2.1556  -2.1535  -2.1533  -2.1513
    -2.1513  -2.1420  -2.1416  -2.1369  -2.1350  -2.1108  -2.1106  -2.1102
    -2.1099  -2.1010  -2.1009  -2.0935  -2.0919  -2.0797  -2.0792  -2.0769
    -2.0766  -2.0437  -2.0416  -2.0355  -2.0353  -2.0338  -2.0332  -2.0241
    -2.0236  -2.0234  -2.0231  -1.9978  -1.9974  -1.9913  -1.9909  -1.9235
    -1.9230  -1.9225  -1.9223  -1.8847  -1.8836  -1.8659  -1.8655  -1.8651
    -1.8650  -1.8640  -1.8629  -1.8621  -1.8618  -1.8575  -1.8566  -1.8236
    -1.8232  -1.8055  -1.8029  -1.7935  -1.7933  -1.7903  -1.7903  -1.7891
    -1.7889  -1.7416  -1.7415  -1.7403  -1.7393  -1.6988  -1.6987  -1.6984
    -1.6982  -1.6812  -1.6798  -1.6686  -1.6677  -1.6509  -1.6509  -1.6011
    -1.5988  -1.5630  -1.5627  -1.5627  -1.5624  -1.5448  -1.5431  -1.5360
    -1.5360  -1.5202  -1.5201  -1.5200  -1.5198  -1.5093  -1.5082  -1.5079
    -1.5072  -1.4615  -1.4611  -1.4606  -1.4600  -1.4569  -1.4536  -1.4366
    -1.4365  -1.4353  -1.4349  -1.4172  -1.4166  -1.4141  -1.4131  -1.3883
    -1.3848  -1.3839  -1.3815  -1.3815  -1.3809  -1.3680  -1.3680  -1.3675
    -1.3674  -1.3531  -1.3523  -1.3276  -1.3275  -1.3272  -1.3267  -1.3119
    -1.3116  -1.2465  -1.2461  -1.2459  -1.2456  -1.2353  -1.2351  -1.2350
    -1.2347  -1.2237  -1.2230  -1.2100  -1.2033  -1.1980  -1.1977  -1.1737
    -1.1729  -1.1680  -1.1678  -1.1669  -1.1667  -1.1181  -1.1180  -1.1176
    -1.1167  -1.0963  -1.0963  -1.0958  -1.0958  -1.0884  -1.0879  -1.0875
    -1.0872  -1.0786  -1.0782  -1.0576  -1.0574  -1.0559  -1.0557  -1.0335
    -1.0333  -1.0325  -1.0322  -1.0322  -1.0321  -1.0062  -1.0057  -1.0031
    -1.0023  -0.9999  -0.9990  -0.9981  -0.9979  -0.9867  -0.9854  -0.9720
    -0.9719  -0.9692  -0.9681  -0.9649  -0.9647  -0.9646  -0.9645  -0.9460
    -0.9457  -0.9004  -0.9004  -0.8916  -0.8916  -0.8914  -0.8913  -0.8912
    -0.8910  -0.8891  -0.8889  -0.8858  -0.8846  -0.8810  -0.8810  -0.8804
    -0.8804  -0.8742  -0.8733  -0.8397  -0.8388  -0.8384  -0.8378  -0.8301
    -0.8280  -0.7954  -0.7943  -0.7620  -0.7617  -0.7613  -0.7610  -0.7566
    -0.7564  -0.7562  -0.7561  -0.7227  -0.7223  -0.6902  -0.6894  -0.6892
    -0.6889  -0.6884  -0.6822  -0.2217  -0.2210  -0.2203  -0.2190  -0.0912
    -0.0906  -0.0790  -0.0758   0.4748   0.4748   0.4754   0.4755   0.5101
     0.5358   0.8887   0.8888   0.8890   0.8892   1.1308   1.1319   1.1329
     1.1365   1.4591   1.4778   1.5136   1.5348   1.5626   1.5647   1.6763
     1.6766   1.6783   1.6787   2.8937   2.8938   2.9163   2.9234   2.9250
     2.9269   2.9298   2.9356   3.1262   3.1265   3.1355   3.1396   3.1418
     3.1498   3.5584   3.5593   3.6260   3.6304   3.8381   3.9045   3.9046
     3.9063   3.9067   4.0362   4.0463   4.0479   4.6319   4.6325   4.6807
     4.7820   4.8260   4.9911   5.0322   5.0957   5.1344   5.1534   5.1619
     5.1686   5.2742   5.2929   5.2931   5.2957   5.2970   5.3491   5.4007
     5.5048   5.5806   5.5809   5.6458   5.6746   5.7544   5.8161   5.8374
     5.8986   5.9525   5.9954   6.0596   6.1192   6.1218   6.1344   6.1413
     6.1677   6.2173   6.2209   6.2885   6.3145   6.3490   6.3872   6.4137
     6.4603   6.4751   6.5934   6.6722   6.6766   6.7060

          k =-0.2500-0.7217 0.0000 (183316 PWs)   bands (ev):

   -26.6113 -26.3862 -25.1441 -24.9469 -15.7808 -14.1730 -11.9402 -10.6073
    -8.9595  -8.9237  -8.4780  -8.4084  -8.0371  -7.5502  -7.5491  -7.4405
    -7.1777  -6.9212  -6.7103  -6.7094  -6.2547  -6.1899  -6.1896  -5.8781
    -5.8413  -5.4639  -5.4542  -5.4521  -5.4495  -5.4325  -5.3919  -5.1166
    -5.1156  -5.0392  -4.9999  -4.7800  -4.7643  -4.6323  -4.6150  -4.6143
    -4.5705  -4.5392  -4.5384  -4.5078  -4.4565  -4.4564  -4.4281  -4.4266
    -4.3398  -4.2779  -4.2696  -4.1912  -4.1911  -4.1889  -4.1848  -4.1847
    -4.0585  -4.0576  -4.0154  -3.9987  -3.9641  -3.9639  -3.9057  -3.8970
    -3.8946  -3.8684  -3.8618  -3.8595  -3.7958  -3.7954  -3.7249  -3.7242
    -3.7020  -3.6157  -3.6155  -3.5948  -3.5938  -3.5744  -3.5739  -3.5218
    -3.5211  -3.5200  -3.5199  -3.5189  -3.5182  -3.5160  -3.5077  -3.4519
    -3.4078  -3.4072  -3.3927  -3.3921  -3.3883  -3.3880  -3.3688  -3.3687
    -3.3555  -3.3553  -3.3544  -3.3354  -3.2914  -3.2911  -3.2855  -3.2803
    -3.2799  -3.2475  -3.2320  -3.2139  -3.2122  -3.2115  -3.1888  -3.1887
    -3.1604  -3.1402  -3.1390  -3.1206  -3.0862  -3.0739  -3.0732  -3.0483
    -3.0475  -3.0452  -3.0419  -3.0408  -3.0405  -3.0392  -3.0390  -2.9809
    -2.9550  -2.9243  -2.8892  -2.8876  -2.8875  -2.8792  -2.8569  -2.8515
    -2.8514  -2.8288  -2.8280  -2.8126  -2.8120  -2.8011  -2.8006  -2.7678
    -2.7676  -2.7532  -2.7529  -2.7522  -2.7520  -2.7317  -2.7312  -2.6918
    -2.6800  -2.6797  -2.6208  -2.6200  -2.6008  -2.5938  -2.5929  -2.5787
    -2.5743  -2.5534  -2.5527  -2.5504  -2.5469  -2.5310  -2.5307  -2.5304
    -2.5301  -2.5034  -2.5033  -2.5001  -2.4994  -2.4828  -2.4485  -2.4480
    -2.4462  -2.4453  -2.4117  -2.4097  -2.4033  -2.3871  -2.3738  -2.3736
    -2.3714  -2.3712  -2.3668  -2.3518  -2.3502  -2.3369  -2.3310  -2.3308
    -2.3269  -2.3150  -2.3148  -2.3116  -2.3116  -2.2850  -2.2631  -2.2532
    -2.2531  -2.2474  -2.2444  -2.2385  -2.2382  -2.2308  -2.2291  -2.2289
    -2.2250  -2.2247  -2.2125  -2.2123  -2.2105  -2.2101  -2.2018  -2.1995
    -2.1721  -2.1658  -2.1658  -2.1563  -2.1562  -2.1409  -2.1382  -2.1365
    -2.1305  -2.1303  -2.1294  -2.1242  -2.1235  -2.1108  -2.1092  -2.0894
    -2.0879  -2.0871  -2.0835  -2.0832  -2.0750  -2.0746  -2.0592  -2.0546
    -2.0512  -2.0209  -2.0179  -2.0164  -2.0134  -2.0087  -2.0075  -2.0004
    -1.9966  -1.9922  -1.9915  -1.9892  -1.9891  -1.9739  -1.9738  -1.9455
    -1.9349  -1.9343  -1.9186  -1.9054  -1.9051  -1.8763  -1.8565  -1.8564
    -1.8430  -1.8428  -1.8427  -1.8206  -1.8097  -1.8088  -1.8073  -1.8062
    -1.7941  -1.7929  -1.7917  -1.7906  -1.7806  -1.7755  -1.7515  -1.7512
    -1.7083  -1.7078  -1.6966  -1.6955  -1.6949  -1.6944  -1.6854  -1.6839
    -1.6834  -1.6832  -1.6761  -1.6759  -1.6649  -1.6639  -1.6357  -1.6349
    -1.6338  -1.6184  -1.6183  -1.6171  -1.6158  -1.6110  -1.5800  -1.5779
    -1.5684  -1.5635  -1.5635  -1.5601  -1.5412  -1.5397  -1.5323  -1.5241
    -1.4871  -1.4862  -1.4719  -1.4715  -1.4704  -1.4702  -1.4546  -1.4545
    -1.4472  -1.4464  -1.4433  -1.4273  -1.4268  -1.4233  -1.4208  -1.4182
    -1.4178  -1.4118  -1.3881  -1.3689  -1.3561  -1.3525  -1.3446  -1.3437
    -1.3290  -1.3286  -1.3202  -1.3200  -1.2909  -1.2901  -1.2705  -1.2689
    -1.2684  -1.2640  -1.2600  -1.2482  -1.2462  -1.2421  -1.2412  -1.2323
    -1.2323  -1.2312  -1.2301  -1.2254  -1.2245  -1.1976  -1.1970  -1.1889
    -1.1879  -1.1822  -1.1821  -1.1655  -1.1648  -1.1615  -1.1538  -1.1280
    -1.1279  -1.1014  -1.0943  -1.0919  -1.0914  -1.0893  -1.0891  -1.0861
    -1.0859  -1.0816  -1.0782  -1.0584  -1.0581  -1.0548  -1.0547  -1.0529
    -1.0528  -1.0439  -1.0426  -1.0425  -1.0214  -1.0213  -1.0177  -1.0151
    -1.0066  -1.0023  -1.0019  -0.9949  -0.9940  -0.9792  -0.9782  -0.9778
    -0.9648  -0.9640  -0.9632  -0.9628  -0.9613  -0.9612  -0.9566  -0.9360
    -0.9360  -0.9323  -0.9319  -0.9317  -0.9187  -0.9180  -0.9065  -0.9065
    -0.9060  -0.9057  -0.9035  -0.8979  -0.8962  -0.8920  -0.8876  -0.8871
    -0.8722  -0.8716  -0.8625  -0.8617  -0.8495  -0.8222  -0.8220  -0.8082
    -0.8082  -0.8049  -0.8048  -0.8047  -0.8043  -0.7884  -0.7884  -0.7779
    -0.7541  -0.7432  -0.7426  -0.7326  -0.6788  -0.6776  -0.6684  -0.4404
    -0.4335  -0.4003  -0.4003  -0.3020  -0.3018  -0.2517  -0.2484  -0.2007
    -0.0875  -0.0868  -0.0733  -0.0732   0.3637   0.4196   0.4228   0.5952
     0.5962   0.6108   0.6116   0.9221   0.9453   1.1014   1.2455   1.2496
     1.2543   1.2668   1.6149   1.6152   1.8075   2.0547   2.0773   2.0818
     2.0892   2.0904   2.0912   2.1363   2.1387   2.2498   2.2572   2.2782
     2.7032   2.8436   2.8444   2.9952   3.0679   3.0777   3.3230   3.3366
     3.5145   3.5148   3.6623   3.7931   3.9045   3.9063   3.9637   3.9688
     3.9704   3.9732   4.0883   4.0923   4.2825   4.4203   4.5028   4.6703
     4.7971   4.9197   4.9863   5.0347   5.0918   5.1206   5.1472   5.1970
     5.2661   5.2981   5.2999   5.3082   5.3876   5.4169   5.4444   5.4550
     5.5160   5.5497   5.5528   5.5863   5.6658   5.6917   5.7300   5.7942
     5.8624   5.9011   5.9073   6.0456   6.0976   6.1858   6.2013   6.2035
     6.2086   6.2176   6.2290   6.2546   6.2738   6.3045   6.3718   6.4749
     6.5438   6.5789   6.5878   6.6178   6.6780   6.6988

          k =-0.5000-0.5774 0.0000 (183316 PWs)   bands (ev):

   -26.6113 -26.3862 -25.1441 -24.9469 -15.7808 -14.1730 -11.9401 -10.6073
    -8.9595  -8.9239  -8.4780  -8.4091  -8.0371  -7.5501  -7.5492  -7.4400
    -7.1777  -6.9210  -6.7102  -6.7096  -6.2547  -6.1899  -6.1894  -5.8780
    -5.8417  -5.4601  -5.4537  -5.4530  -5.4490  -5.4350  -5.3917  -5.1165
    -5.1158  -5.0394  -5.0011  -4.7789  -4.7648  -4.6323  -4.6151  -4.6139
    -4.5707  -4.5394  -4.5384  -4.5079  -4.4565  -4.4564  -4.4281  -4.4268
    -4.3395  -4.2777  -4.2697  -4.1911  -4.1909  -4.1889  -4.1848  -4.1848
    -4.0583  -4.0580  -4.0153  -3.9991  -3.9641  -3.9640  -3.9057  -3.8964
    -3.8950  -3.8663  -3.8618  -3.8615  -3.7957  -3.7955  -3.7248  -3.7243
    -3.7020  -3.6157  -3.6154  -3.5947  -3.5938  -3.5745  -3.5740  -3.5217
    -3.5212  -3.5200  -3.5199  -3.5189  -3.5182  -3.5160  -3.5076  -3.4519
    -3.4077  -3.4073  -3.3926  -3.3922  -3.3884  -3.3880  -3.3688  -3.3687
    -3.3556  -3.3552  -3.3544  -3.3354  -3.2914  -3.2912  -3.2855  -3.2803
    -3.2799  -3.2475  -3.2320  -3.2139  -3.2120  -3.2117  -3.1888  -3.1887
    -3.1604  -3.1401  -3.1391  -3.1206  -3.0862  -3.0738  -3.0732  -3.0482
    -3.0476  -3.0452  -3.0418  -3.0409  -3.0404  -3.0391  -3.0390  -2.9802
    -2.9549  -2.9243  -2.8892  -2.8876  -2.8875  -2.8791  -2.8570  -2.8514
    -2.8514  -2.8291  -2.8278  -2.8127  -2.8119  -2.8010  -2.8007  -2.7678
    -2.7676  -2.7532  -2.7528  -2.7522  -2.7521  -2.7317  -2.7313  -2.6917
    -2.6799  -2.6798  -2.6207  -2.6202  -2.6008  -2.5938  -2.5928  -2.5787
    -2.5743  -2.5533  -2.5528  -2.5504  -2.5469  -2.5310  -2.5309  -2.5303
    -2.5300  -2.5034  -2.5032  -2.5001  -2.4995  -2.4828  -2.4484  -2.4480
    -2.4461  -2.4453  -2.4117  -2.4097  -2.4033  -2.3871  -2.3740  -2.3735
    -2.3716  -2.3711  -2.3666  -2.3517  -2.3502  -2.3369  -2.3310  -2.3309
    -2.3266  -2.3152  -2.3147  -2.3116  -2.3116  -2.2850  -2.2631  -2.2534
    -2.2531  -2.2471  -2.2447  -2.2384  -2.2383  -2.2309  -2.2291  -2.2287
    -2.2249  -2.2248  -2.2125  -2.2124  -2.2105  -2.2101  -2.2018  -2.1996
    -2.1721  -2.1658  -2.1658  -2.1564  -2.1562  -2.1407  -2.1384  -2.1365
    -2.1305  -2.1304  -2.1294  -2.1239  -2.1236  -2.1107  -2.1093  -2.0893
    -2.0877  -2.0873  -2.0834  -2.0833  -2.0750  -2.0746  -2.0592  -2.0547
    -2.0512  -2.0209  -2.0174  -2.0171  -2.0134  -2.0087  -2.0075  -2.0002
    -1.9966  -1.9920  -1.9916  -1.9892  -1.9891  -1.9739  -1.9738  -1.9454
    -1.9345  -1.9344  -1.9186  -1.9053  -1.9052  -1.8763  -1.8566  -1.8564
    -1.8430  -1.8429  -1.8427  -1.8206  -1.8094  -1.8091  -1.8072  -1.8065
    -1.7938  -1.7932  -1.7916  -1.7907  -1.7806  -1.7755  -1.7515  -1.7512
    -1.7081  -1.7079  -1.6969  -1.6955  -1.6950  -1.6944  -1.6851  -1.6840
    -1.6837  -1.6830  -1.6761  -1.6758  -1.6649  -1.6637  -1.6357  -1.6350
    -1.6338  -1.6185  -1.6180  -1.6170  -1.6159  -1.6109  -1.5801  -1.5778
    -1.5684  -1.5636  -1.5635  -1.5601  -1.5411  -1.5399  -1.5322  -1.5241
    -1.4870  -1.4863  -1.4718  -1.4717  -1.4706  -1.4700  -1.4546  -1.4545
    -1.4469  -1.4464  -1.4438  -1.4270  -1.4268  -1.4234  -1.4209  -1.4182
    -1.4178  -1.4118  -1.3881  -1.3688  -1.3561  -1.3525  -1.3445  -1.3438
    -1.3289  -1.3286  -1.3202  -1.3200  -1.2908  -1.2901  -1.2702  -1.2692
    -1.2685  -1.2639  -1.2600  -1.2480  -1.2464  -1.2419  -1.2414  -1.2324
    -1.2322  -1.2309  -1.2304  -1.2256  -1.2244  -1.1975  -1.1972  -1.1888
    -1.1880  -1.1822  -1.1821  -1.1653  -1.1650  -1.1614  -1.1537  -1.1280
    -1.1279  -1.1015  -1.0943  -1.0917  -1.0916  -1.0893  -1.0891  -1.0861
    -1.0859  -1.0815  -1.0783  -1.0584  -1.0581  -1.0548  -1.0548  -1.0530
    -1.0527  -1.0439  -1.0427  -1.0424  -1.0214  -1.0213  -1.0177  -1.0151
    -1.0066  -1.0022  -1.0019  -0.9945  -0.9944  -0.9790  -0.9783  -0.9779
    -0.9647  -0.9640  -0.9630  -0.9630  -0.9613  -0.9612  -0.9566  -0.9361
    -0.9360  -0.9323  -0.9318  -0.9317  -0.9187  -0.9180  -0.9065  -0.9065
    -0.9060  -0.9057  -0.9035  -0.8979  -0.8962  -0.8920  -0.8876  -0.8870
    -0.8722  -0.8717  -0.8624  -0.8618  -0.8495  -0.8222  -0.8220  -0.8083
    -0.8081  -0.8049  -0.8048  -0.8047  -0.8043  -0.7885  -0.7883  -0.7779
    -0.7541  -0.7433  -0.7425  -0.7326  -0.6790  -0.6776  -0.6684  -0.4400
    -0.4339  -0.4003  -0.4003  -0.3021  -0.3017  -0.2511  -0.2487  -0.2005
    -0.0875  -0.0869  -0.0733  -0.0731   0.3644   0.4190   0.4224   0.5950
     0.5961   0.6108   0.6118   0.9242   0.9429   1.1019   1.2444   1.2496
     1.2552   1.2678   1.6149   1.6152   1.8074   2.0598   2.0764   2.0800
     2.0869   2.0897   2.0904   2.1365   2.1392   2.2493   2.2573   2.2778
     2.7029   2.8439   2.8442   2.9950   3.0679   3.0787   3.3259   3.3347
     3.5145   3.5149   3.6624   3.8009   3.9046   3.9062   3.9622   3.9673
     3.9706   3.9722   4.0893   4.0904   4.1436   4.5030   4.5309   4.6595
     4.7972   4.9211   4.9864   5.0217   5.0767   5.1207   5.1636   5.1872
     5.2382   5.2984   5.3001   5.3027   5.3720   5.4168   5.4420   5.4606
     5.4727   5.5491   5.5510   5.6047   5.7080   5.7352   5.8182   5.8454
     5.8782   5.9028   5.9675   6.0401   6.1393   6.1845   6.1988   6.2017
     6.2034   6.2170   6.2264   6.2698   6.2768   6.3120   6.3929   6.4504
     6.5161   6.5421   6.5929   6.6062   6.6357   6.6570

     the Fermi energy is     0.6880 ev

!    total energy              =  -17322.00538795 Ry
     estimated scf accuracy    <          6.3E-09 Ry
     smearing contrib. (-TS)   =      -0.01029847 Ry
     internal energy E=F+TS    =  -17321.99508949 Ry

     The total energy is F=E-TS. E is the sum of the following terms:
     one-electron contribution = -199536.34393592 Ry
     hartree contribution      =  100730.21381348 Ry
     xc contribution           =   -3628.68902963 Ry
     ewald contribution        =   92324.88905374 Ry
     one-center paw contrib.   =   -7212.06499116 Ry

     convergence has been achieved in  22 iterations

     negative rho (up, down):  2.857E-03 0.000E+00

     Forces acting on atoms (cartesian axes, Ry/au):

     atom    1 type  1   force =    -0.00000289   -0.00001290   -0.00021163
     atom    2 type  1   force =     0.00001741   -0.00000981   -0.00020607
     atom    3 type  1   force =     0.00000939    0.00003134   -0.00023157
     atom    4 type  1   force =    -0.00002242    0.00002421   -0.00023185
     atom    5 type  1   force =     0.00001588    0.00001374   -0.00021486
     atom    6 type  1   force =     0.00000726   -0.00000139   -0.00024342
     atom    7 type  1   force =     0.00001442    0.00000046   -0.00026385
     atom    8 type  1   force =    -0.00003596    0.00001439   -0.00024017
     atom    9 type  1   force =     0.00002562   -0.00001852   -0.00023213
     atom   10 type  1   force =     0.00002769    0.00000959   -0.00026223
     atom   11 type  1   force =    -0.00003430    0.00000157   -0.00025427
     atom   12 type  1   force =    -0.00001838   -0.00003230   -0.00022401
     atom   13 type  1   force =     0.00001726   -0.00001453   -0.00022577
     atom   14 type  1   force =     0.00001606   -0.00003718   -0.00022597
     atom   15 type  1   force =    -0.00005574    0.00000485   -0.00021998
     atom   16 type  1   force =     0.00002366    0.00002540   -0.00021908
     atom   17 type  1   force =    -0.00000090   -0.00000200   -0.00026514
     atom   18 type  1   force =     0.00001211   -0.00001497   -0.00027137
     atom   19 type  1   force =     0.00000093    0.00000222   -0.00026883
     atom   20 type  1   force =    -0.00001114   -0.00000053   -0.00028589
     atom   21 type  1   force =    -0.00000465   -0.00002977   -0.00031680
     atom   22 type  1   force =     0.00002441    0.00000807   -0.00024100
     atom   23 type  1   force =    -0.00001164    0.00003231   -0.00018320
     atom   24 type  1   force =    -0.00000554   -0.00000612   -0.00025459
     atom   25 type  1   force =     0.00004228   -0.00000038   -0.00025376
     atom   26 type  1   force =     0.00002910    0.00000436   -0.00015358
     atom   27 type  1   force =    -0.00004298    0.00000543   -0.00013549
     atom   28 type  1   force =    -0.00002682    0.00001794   -0.00028466
     atom   29 type  1   force =     0.00003803   -0.00001081   -0.00021673
     atom   30 type  1   force =    -0.00000668   -0.00003083   -0.00014586
     atom   31 type  1   force =    -0.00001741    0.00000310   -0.00021417
     atom   32 type  1   force =    -0.00001071    0.00002156   -0.00028695
     atom   33 type  1   force =     0.00001475   -0.00004058   -0.00009057
     atom   34 type  1   force =    -0.00000238   -0.00001599   -0.00008307
     atom   35 type  1   force =     0.00000413    0.00002069   -0.00007675
     atom   36 type  1   force =    -0.00001423   -0.00001205   -0.00008309
     atom   37 type  1   force =     0.00004174   -0.00000235   -0.00014182
     atom   38 type  1   force =     0.00003942    0.00003182    0.00006925
     atom   39 type  1   force =    -0.00004397    0.00003153    0.00001113
     atom   40 type  1   force =    -0.00003465    0.00000561   -0.00008093
     atom   41 type  1   force =     0.00006486   -0.00000989    0.00003805
     atom   42 type  1   force =    -0.00000229   -0.00000870    0.00019215
     atom   43 type  1   force =    -0.00004599    0.00000604    0.00003749
     atom   44 type  1   force =    -0.00001705    0.00000802   -0.00014051
     atom   45 type  1   force =     0.00002649   -0.00003216   -0.00001093
     atom   46 type  1   force =    -0.00001475   -0.00001933   -0.00000162
     atom   47 type  1   force =    -0.00002701    0.00000657    0.00000491
     atom   48 type  1   force =     0.00001710    0.00002918   -0.00008577
     atom   49 type  1   force =     0.00002055   -0.00000713    0.00012792
     atom   50 type  1   force =    -0.00003809   -0.00000655    0.00013017
     atom   51 type  1   force =    -0.00002611   -0.00005253   -0.00003131
     atom   52 type  1   force =     0.00005105   -0.00001730    0.00003546
     atom   53 type  1   force =     0.00001661   -0.00003321    0.00015884
     atom   54 type  1   force =    -0.00012559   -0.00007312   -0.00019386
     atom   55 type  1   force =     0.00009352   -0.00006149   -0.00033667
     atom   56 type  1   force =     0.00001707   -0.00004352   -0.00002204
     atom   57 type  1   force =    -0.00005246   -0.00000304    0.00007478
     atom   58 type  1   force =     0.00000095    0.00014242   -0.00030236
     atom   59 type  1   force =     0.00004828    0.00006179   -0.00019915
     atom   60 type  1   force =     0.00000305   -0.00000080    0.00025999
     atom   61 type  1   force =     0.00002585    0.00004808    0.00010121
     atom   62 type  1   force =     0.00001362    0.00004397   -0.00002484
     atom   63 type  1   force =    -0.00004835    0.00000106    0.00022098
     atom   64 type  1   force =     0.00001205    0.00001141    0.00033646
     atom   65 type  1   force =     0.00001799   -0.00004633    0.00023926
     atom   66 type  1   force =    -0.00001756   -0.00007145    0.00021584
     atom   67 type  1   force =    -0.00002439   -0.00014547    0.00023546
     atom   68 type  1   force =     0.00002726   -0.00003319    0.00021315
     atom   69 type  1   force =    -0.00010044   -0.00009544    0.00011625
     atom   70 type  1   force =     0.00024724    0.00032083    0.00028923
     atom   71 type  1   force =    -0.00014437    0.00054630    0.00043623
     atom   72 type  1   force =     0.00000379    0.00012261    0.00025266
     atom   73 type  1   force =     0.00041926   -0.00004887    0.00027420
     atom   74 type  1   force =     0.00026468    0.00000193    0.00057776
     atom   75 type  1   force =    -0.00040210    0.00001652    0.00050911
     atom   76 type  1   force =    -0.00027815   -0.00000370    0.00022513
     atom   77 type  1   force =     0.00039673   -0.00020688    0.00036031
     atom   78 type  1   force =    -0.00020378   -0.00041807    0.00049251
     atom   79 type  1   force =    -0.00000878   -0.00006331    0.00030821
     atom   80 type  1   force =    -0.00018461    0.00015606    0.00019858
     atom   81 type  2   force =     0.00078474    0.00037729    0.00021739
     atom   82 type  2   force =     0.00106587   -0.00115287   -0.00106896
     atom   83 type  3   force =     0.00021058    0.00017324    0.00049966
     atom   84 type  3   force =    -0.00020858    0.00009776    0.00001052
     atom   85 type  3   force =    -0.00101293    0.00006405    0.00005732
     atom   86 type  2   force =     0.00041481    0.00038744    0.00064895
     atom   87 type  4   force =    -0.00064826   -0.00002654   -0.00102693
     atom   88 type  3   force =     0.00010002    0.00012627    0.00107663
     atom   89 type  2   force =     0.00090404   -0.00005484    0.00103485
     atom   90 type  4   force =    -0.00068911    0.00014459   -0.00026050
     atom   91 type  3   force =     0.00039181   -0.00034870    0.00156236
     atom   92 type  4   force =    -0.00045267   -0.00026256   -0.00068723
     atom   93 type  4   force =    -0.00060278    0.00058219   -0.00089541
     atom   94 type  3   force =    -0.00030185   -0.00014583    0.00147882

     Total force =     0.004990     Total SCF correction =     0.000424


     Computing stress (Cartesian axis) and pressure


     negative rho (up, down):  2.857E-03 0.000E+00
          total   stress  (Ry/bohr**3)                   (kbar)     P=       -2.15
  -0.00002405  -0.00000008   0.00000012           -3.54       -0.01        0.02
  -0.00000008  -0.00002410  -0.00000004           -0.01       -3.55       -0.01
   0.00000012  -0.00000004   0.00000437            0.02       -0.01        0.64

     Energy error            =      3.3E-05 Ry
     Gradient error          =      1.6E-03 Ry/Bohr

     number of scf cycles    =   6
     number of bfgs steps    =   5

     energy             old  =  -17322.0053544603 Ry
     energy             new  =  -17322.0053879547 Ry

     CASE: energy            _new < energy            _old

     new trust radius        =       0.0026984558 bohr
     new conv_thr            =            1.0E-10 Ry


ATOMIC_POSITIONS (angstrom)
Cu              10.2108015889        1.4738902486       14.9915646316
Cu               2.5523652109        1.4738320026       14.9912724597
Cu               5.1051112595        1.4732769712       14.9911642466
Cu               7.6582852399        1.4732975686       14.9910965224
Cu              11.4868035383        3.6842309282       14.9911746668
Cu               3.8284754664        3.6842368143       14.9913246447
Cu               6.3815971937        3.6841513826       14.9913787820
Cu               8.9350110759        3.6841527151       14.9912951120
Cu              12.7628148373        5.8952618524       14.9910696859
Cu               5.1048809950        5.8953097603       14.9913846352
Cu               7.6584765623        5.8953203083       14.9911861447
Cu              10.2110237421        5.8952964828       14.9912553808
Cu              14.0393598490        8.1060950169       14.9911814561
Cu               6.3815662323        8.1064843338       14.9911575683
Cu               8.9347290305        8.1059452973       14.9912457478
Cu              11.4868420835        8.1055614805       14.9913150964
Cu              -0.0000875916       -0.0001365337       17.0800084866
Cu               2.5527129920       -0.0000742856       17.0800657961
Cu               5.1054082828        0.0000266512       17.0800138347
Cu               7.6579187598       -0.0000227600       17.0800660655
Cu               1.2764608537        2.2108514994       17.0803546742
Cu               3.8289278839        2.2105761880       17.0797941819
Cu               6.3817761563        2.2104024880       17.0793931248
Cu               8.9340940996        2.2106655107       17.0798876759
Cu               2.5524011821        4.4214130228       17.0798428194
Cu               5.1052025317        4.4213169088       17.0790709060
Cu               7.6582165561        4.4212567501       17.0791100938
Cu              10.2107604369        4.4214317019       17.0801062499
Cu               3.8287574441        6.6321451852       17.0795638600
Cu               6.3817000100        6.6322159821       17.0791921053
Cu               8.9343469615        6.6320081664       17.0796906574
Cu              11.4870668192        6.6319232329       17.0801029990
Cu               1.2761389281        0.7367651763       19.1680439167
Cu               3.8290879069        0.7368842253       19.1685609289
Cu               6.3816475081        0.7370838149       19.1688073306
Cu               8.9343925174        0.7369624396       19.1683065156
Cu               2.5531671030        2.9478202319       19.1687819682
Cu               5.1056750947        2.9479379837       19.1689658627
Cu               7.6575506418        2.9480452535       19.1696693275
Cu              10.2101993380        2.9475030990       19.1679130754
Cu               3.8295106576        5.1582180224       19.1688211281
Cu               6.3815898625        5.1581222036       19.1694351033
Cu               8.9338841630        5.1581840359       19.1691794593
Cu              11.4869157001        5.1583105157       19.1686955524
Cu               5.1053924344        7.3682299257       19.1694728806
Cu               7.6578251070        7.3684228016       19.1695266964
Cu              10.2105262545        7.3687948408       19.1681335468
Cu              12.7634461950        7.3689176535       19.1685202432
Cu              10.2111240657        1.4740341486       21.2559950416
Cu               2.5517642290        1.4735390453       21.2551578162
Cu               5.1048079396        1.4732495723       21.2565596361
Cu               7.6589073220        1.4730275263       21.2562314721
Cu              11.4862649040        3.6836885890       21.2543679537
Cu               3.8283971876        3.6841206870       21.2581177033
Cu               6.3815302107        3.6842712637       21.2609814416
Cu               8.9357327271        3.6839005869       21.2577433499
Cu              12.7627791248        5.8952460047       21.2554862269
Cu               5.1049510079        5.8953369587       21.2604650407
Cu               7.6585396258        5.8952700410       21.2597720644
Cu              10.2109111037        5.8952088597       21.2568879850
Cu              14.0394850835        8.1066252608       21.2564450415
Cu               6.3815738735        8.1072488696       21.2570824787
Cu               8.9346209477        8.1060506070       21.2570215045
Cu              11.4868202095        8.1054690838       21.2562381196
Cu              -0.0004617707        0.0020029236       23.3442879088
Cu               2.5531965106        0.0019040655       23.3452124755
Cu               5.1058179989       -0.0006766162       23.3455853823
Cu               7.6574014502       -0.0006147468       23.3458291156
Cu               1.2767028738        2.2112997992       23.3456079071
Cu               3.8260475548        2.2071749152       23.3414539606
Cu               6.3827893321        2.2043879404       23.3393204325
Cu               8.9359469545        2.2085525813       23.3439324083
Cu               2.5478207199        4.4216196056       23.3411014389
Cu               5.1019242275        4.4210539616       23.3388516134
Cu               7.6628230263        4.4206176799       23.3398758184
Cu              10.2140387443        4.4211829801       23.3450627100
Cu               3.8239094624        6.6352586446       23.3413796697
Cu               6.3832534053        6.6372431964       23.3397433071
Cu               8.9371734200        6.6338261821       23.3451758961
Cu              11.4873974275        6.6318550655       23.3462759639
C                3.8111995899        4.8802949640       28.1815359995
C                5.1728541529        5.0741707708       27.5500293891
H                3.0411950231        5.0723861088       27.4242273033
H                3.7063177018        3.8508699292       28.5456182441
H                3.6800275006        5.5775050318       29.0181324067
C                6.3490365024        4.8442432255       28.4978492364
F                5.2820802545        4.2066877374       26.4652011713
H                6.2569851953        3.8283634080       28.9079204997
C                7.7641014285        4.9821046008       27.9531706917
F                5.2418240805        6.3620747869       27.0267262161
H                6.2495087053        5.5519973873       29.3328187323
F                7.9994669730        6.2425899488       27.4396126418
F                8.0225285033        4.0674138018       26.9510721281
H                8.5138380437        4.8110455419       28.7424467187



     Writing config-only to output data dir ./tmp/cu_pvdf.save/ :
     XML data file
     NEW-OLD atomic charge density approx. for the potential

     negative rho (up, down):  2.846E-03 0.000E+00

     total cpu time spent up to now is    13539.2 secs

     Self-consistent Calculation

     iteration #  1     ecut=    60.00 Ry     beta= 0.30
     Davidson diagonalization with overlap
     ethr =  1.00E-06,  avg # of iterations =  2.0

     Threshold (ethr) on eigenvalues was too large:
     Diagonalizing with lowered threshold

     Davidson diagonalization with overlap
     ethr =  6.82E-10,  avg # of iterations =  6.8

     negative rho (up, down):  2.846E-03 0.000E+00

     total cpu time spent up to now is    14979.8 secs

     total energy              =  -17322.00541638 Ry
     estimated scf accuracy    <       0.00001408 Ry

     iteration #  2     ecut=    60.00 Ry     beta= 0.30
     Davidson diagonalization with overlap
     ethr =  1.51E-09,  avg # of iterations =  2.3

     negative rho (up, down):  2.846E-03 0.000E+00

     total cpu time spent up to now is    15424.3 secs

     total energy              =  -17322.00540782 Ry
     estimated scf accuracy    <       0.00025206 Ry

     iteration #  3     ecut=    60.00 Ry     beta= 0.30
     Davidson diagonalization with overlap
     ethr =  1.51E-09,  avg # of iterations =  2.0

     negative rho (up, down):  2.846E-03 0.000E+00

     total cpu time spent up to now is    15834.5 secs

     total energy              =  -17322.00541445 Ry
     estimated scf accuracy    <       0.00022066 Ry

     iteration #  4     ecut=    60.00 Ry     beta= 0.30
     Davidson diagonalization with overlap
     ethr =  1.51E-09,  avg # of iterations =  1.4

     negative rho (up, down):  2.846E-03 0.000E+00

     total cpu time spent up to now is    16207.0 secs

     total energy              =  -17322.00541744 Ry
     estimated scf accuracy    <       0.00001210 Ry

     iteration #  5     ecut=    60.00 Ry     beta= 0.30
     Davidson diagonalization with overlap
     ethr =  1.30E-09,  avg # of iterations =  1.0

     negative rho (up, down):  2.846E-03 0.000E+00

     total cpu time spent up to now is    16560.4 secs

     total energy              =  -17322.00541637 Ry
     estimated scf accuracy    <       0.00000275 Ry

     iteration #  6     ecut=    60.00 Ry     beta= 0.30
     Davidson diagonalization with overlap
     ethr =  2.95E-10,  avg # of iterations =  2.0

     negative rho (up, down):  2.847E-03 0.000E+00

     total cpu time spent up to now is    16963.9 secs

     total energy              =  -17322.00541574 Ry
     estimated scf accuracy    <       0.00000058 Ry

     iteration #  7     ecut=    60.00 Ry     beta= 0.30
     Davidson diagonalization with overlap
     ethr =  6.25E-11,  avg # of iterations =  2.0

     negative rho (up, down):  2.847E-03 0.000E+00

     total cpu time spent up to now is    17371.0 secs

     total energy              =  -17322.00541545 Ry
     estimated scf accuracy    <       0.00000036 Ry

     iteration #  8     ecut=    60.00 Ry     beta= 0.30
     Davidson diagonalization with overlap
     ethr =  3.90E-11,  avg # of iterations =  1.1

     negative rho (up, down):  2.847E-03 0.000E+00

     total cpu time spent up to now is    17729.1 secs

     total energy              =  -17322.00541542 Ry
     estimated scf accuracy    <       0.00000007 Ry

     iteration #  9     ecut=    60.00 Ry     beta= 0.30
     Davidson diagonalization with overlap
     ethr =  7.31E-12,  avg # of iterations =  3.4

     negative rho (up, down):  2.847E-03 0.000E+00

     total cpu time spent up to now is    18145.1 secs

     total energy              =  -17322.00541541 Ry
     estimated scf accuracy    <       0.00000002 Ry

     iteration # 10     ecut=    60.00 Ry     beta= 0.30
     Davidson diagonalization with overlap
     ethr =  1.96E-12,  avg # of iterations =  3.6

     negative rho (up, down):  2.847E-03 0.000E+00

     total cpu time spent up to now is    18562.7 secs

     total energy              =  -17322.00541541 Ry
     estimated scf accuracy    <          2.6E-09 Ry

     iteration # 11     ecut=    60.00 Ry     beta= 0.30
     Davidson diagonalization with overlap
     ethr =  2.79E-13,  avg # of iterations =  4.3

     negative rho (up, down):  2.847E-03 0.000E+00

     total cpu time spent up to now is    19010.9 secs

     total energy              =  -17322.00541541 Ry
     estimated scf accuracy    <          1.4E-09 Ry

     iteration # 12     ecut=    60.00 Ry     beta= 0.30
     Davidson diagonalization with overlap
     ethr =  1.50E-13,  avg # of iterations =  2.0

     negative rho (up, down):  2.847E-03 0.000E+00

     total cpu time spent up to now is    19424.4 secs

     total energy              =  -17322.00541541 Ry
     estimated scf accuracy    <          1.5E-09 Ry

     iteration # 13     ecut=    60.00 Ry     beta= 0.30
     Davidson diagonalization with overlap
     ethr =  1.50E-13,  avg # of iterations =  1.6

     negative rho (up, down):  2.847E-03 0.000E+00

     total cpu time spent up to now is    19807.2 secs

     total energy              =  -17322.00541541 Ry
     estimated scf accuracy    <       0.00000001 Ry

     iteration # 14     ecut=    60.00 Ry     beta= 0.30
     Davidson diagonalization with overlap
     ethr =  1.50E-13,  avg # of iterations =  1.3

     negative rho (up, down):  2.847E-03 0.000E+00

     total cpu time spent up to now is    20174.3 secs

     total energy              =  -17322.00541541 Ry
     estimated scf accuracy    <          5.5E-09 Ry

     iteration # 15     ecut=    60.00 Ry     beta= 0.30
     Davidson diagonalization with overlap
     ethr =  1.50E-13,  avg # of iterations =  1.0

     negative rho (up, down):  2.847E-03 0.000E+00

     total cpu time spent up to now is    20526.2 secs

     total energy              =  -17322.00541541 Ry
     estimated scf accuracy    <          1.6E-10 Ry

     iteration # 16     ecut=    60.00 Ry     beta= 0.30
     Davidson diagonalization with overlap
     ethr =  1.00E-13,  avg # of iterations =  1.1

     negative rho (up, down):  2.847E-03 0.000E+00

     total cpu time spent up to now is    20883.1 secs

     End of self-consistent calculation

          k = 0.0000 0.0000 0.0000 (183353 PWs)   bands (ev):

   -26.6088 -26.3850 -25.1413 -24.9480 -15.7790 -14.1694 -11.9406 -10.6069
    -8.9587  -8.9233  -8.4768  -8.4103  -8.4055  -7.5400  -7.4402  -6.9207
    -6.5206  -6.5203  -6.5199  -6.5189  -6.5186  -6.5180  -6.2558  -6.2166
    -5.8425  -5.7577  -5.7575  -5.7568  -5.7564  -5.7563  -5.7549  -5.4413
    -5.0374  -5.0013  -4.9591  -4.7693  -4.6742  -4.6737  -4.6728  -4.6711
    -4.6695  -4.6486  -4.5694  -4.5064  -4.4377  -4.3411  -4.2326  -4.2326
    -4.2324  -4.0734  -4.0733  -4.0733  -3.9378  -3.9378  -3.9375  -3.9372
    -3.9365  -3.9364  -3.9029  -3.9027  -3.9027  -3.8688  -3.7556  -3.7551
    -3.7543  -3.7521  -3.7508  -3.7479  -3.7429  -3.7427  -3.7425  -3.7423
    -3.7421  -3.7421  -3.6645  -3.6644  -3.6641  -3.6255  -3.6255  -3.6254
    -3.5364  -3.5361  -3.5360  -3.5355  -3.5355  -3.5354  -3.4752  -3.4752
    -3.4747  -3.4740  -3.4739  -3.4731  -3.4729  -3.4728  -3.4726  -3.4335
    -3.4335  -3.4325  -3.4324  -3.4323  -3.4322  -3.3181  -3.3180  -3.3180
    -3.1634  -3.1633  -3.1632  -3.1631  -3.1630  -3.1629  -3.1107  -3.1103
    -3.1097  -3.1096  -3.1096  -3.1095  -3.0995  -3.0993  -3.0993  -3.0988
    -3.0987  -3.0985  -2.9822  -2.9589  -2.9587  -2.9585  -2.9584  -2.9584
    -2.9582  -2.8817  -2.8815  -2.8814  -2.8454  -2.8450  -2.8435  -2.8435
    -2.8432  -2.8430  -2.8323  -2.8321  -2.8319  -2.8312  -2.8310  -2.8305
    -2.7122  -2.7121  -2.7120  -2.7119  -2.7119  -2.7116  -2.6523  -2.6519
    -2.6517  -2.6516  -2.6510  -2.6509  -2.6504  -2.6500  -2.6487  -2.6487
    -2.6480  -2.6479  -2.6427  -2.6427  -2.6426  -2.6424  -2.6424  -2.6422
    -2.4812  -2.4811  -2.4810  -2.4451  -2.4449  -2.4448  -2.4445  -2.4444
    -2.4443  -2.4324  -2.4288  -2.4286  -2.4281  -2.4275  -2.4273  -2.4264
    -2.4229  -2.4226  -2.4216  -2.4213  -2.4210  -2.4208  -2.4076  -2.3708
    -2.3708  -2.3707  -2.2958  -2.2958  -2.2394  -2.2389  -2.2385  -2.2378
    -2.2370  -2.2367  -2.2349  -2.2246  -2.2246  -2.2135  -2.2135  -2.2134
    -2.2044  -2.2044  -2.1915  -2.1914  -2.1908  -2.1901  -2.1899  -2.1889
    -2.0951  -2.0947  -2.0942  -2.0937  -2.0932  -2.0924  -2.0690  -2.0687
    -2.0683  -2.0680  -2.0678  -2.0668  -2.0588  -2.0587  -2.0583  -2.0582
    -2.0579  -2.0574  -2.0417  -2.0411  -2.0411  -2.0406  -2.0405  -2.0403
    -2.0189  -2.0186  -2.0181  -2.0157  -2.0149  -2.0144  -2.0137  -2.0129
    -2.0123  -1.9860  -1.9860  -1.9691  -1.9684  -1.9682  -1.9677  -1.9671
    -1.9668  -1.9663  -1.9662  -1.9330  -1.9327  -1.9320  -1.9315  -1.9312
    -1.9299  -1.9291  -1.9290  -1.9287  -1.8969  -1.8966  -1.8955  -1.8954
    -1.8947  -1.8937  -1.8935  -1.8935  -1.8929  -1.8715  -1.8029  -1.8023
    -1.8022  -1.8018  -1.8017  -1.8014  -1.7237  -1.7236  -1.7233  -1.7232
    -1.7230  -1.7229  -1.7015  -1.7014  -1.7014  -1.7008  -1.7007  -1.7004
    -1.6016  -1.6015  -1.6013  -1.6006  -1.6005  -1.5999  -1.5843  -1.5843
    -1.5835  -1.5822  -1.5820  -1.5801  -1.5797  -1.5796  -1.5795  -1.5793
    -1.5791  -1.5790  -1.4641  -1.4641  -1.4514  -1.4514  -1.4513  -1.4328
    -1.4326  -1.4326  -1.4325  -1.4325  -1.4324  -1.4256  -1.4248  -1.4247
    -1.4240  -1.4238  -1.4236  -1.4037  -1.4037  -1.3916  -1.3914  -1.3901
    -1.3881  -1.3876  -1.3839  -1.3515  -1.3515  -1.3506  -1.3297  -1.3294
    -1.3293  -1.3290  -1.3288  -1.3275  -1.3273  -1.3271  -1.3270  -1.3261
    -1.3255  -1.3254  -1.2929  -1.2923  -1.2922  -1.2919  -1.2909  -1.2906
    -1.2544  -1.2532  -1.2532  -1.2524  -1.2519  -1.2519  -1.1967  -1.1966
    -1.1800  -1.1795  -1.1795  -1.1788  -1.1788  -1.1786  -1.1643  -1.1642
    -1.1641  -1.0842  -1.0841  -1.0841  -1.0572  -1.0567  -1.0565  -1.0562
    -1.0562  -1.0557  -0.9769  -0.9767  -0.9767  -0.9766  -0.9764  -0.9763
    -0.9665  -0.9664  -0.9309  -0.9309  -0.9308  -0.9059  -0.9058  -0.9041
    -0.9014  -0.9007  -0.8959  -0.8809  -0.8809  -0.8740  -0.8740  -0.8740
    -0.8683  -0.8680  -0.8678  -0.8677  -0.8672  -0.8668  -0.8646  -0.8645
    -0.8645  -0.8591  -0.8588  -0.8588  -0.8585  -0.8584  -0.8582  -0.8405
    -0.8403  -0.8403  -0.8402  -0.8398  -0.8398  -0.8382  -0.8380  -0.8376
    -0.7847  -0.7847  -0.7847  -0.7724  -0.7723  -0.7721  -0.7721  -0.7721
    -0.7719  -0.6352  -0.6351  -0.6350  -0.6314  -0.6314  -0.6314  -0.3041
     0.1453   0.1455   0.1483   0.1528   0.1540   0.1618   0.3042   0.3043
     0.3044   0.3752   0.5223   0.5224   0.5226   0.5226   0.5227   0.5228
     0.8974   0.8979   0.8982   0.8982   0.8986   0.8990   1.1786   1.1787
     1.1787   1.7516   1.7518   1.7518   1.7798   1.7800   1.7806   1.7814
     1.7815   1.7825   1.9009   1.9030   1.9102   1.9210   1.9245   1.9459
     2.1071   2.1073   2.1075   2.2237   2.2239   2.2239   3.2570   3.2580
     3.2590   3.2593   3.2605   3.2622   3.4913   3.5024   3.5119   3.5152
     3.5335   3.5441   3.5630   4.3141   4.5974   4.8210   4.8279   4.8280
     4.8337   4.9433   4.9650   5.0025   5.1588   5.2085   5.2107   5.2144
     5.2190   5.2199   5.2215   5.3533   5.5205   5.6183   5.6358   5.6366
     5.6441   5.7361   5.7909   5.9675   6.1003   6.1416   6.1545   6.1908
     6.2359   6.2551   6.2902   6.3195   6.3242   6.3265   6.3449   6.3679
     6.3872   6.3938   6.5017   6.5224   6.5511   6.5767   6.6838   6.7103
     6.7529   6.7585   6.7697   6.8065   6.8118   6.8607

          k = 0.0000 0.2887 0.0000 (183317 PWs)   bands (ev):

   -26.6088 -26.3850 -25.1413 -24.9480 -15.7790 -14.1694 -11.9406 -10.6068
    -8.9587  -8.9233  -8.4767  -8.4058  -8.2843  -7.4408  -7.4173  -7.3110
    -6.9206  -6.8484  -6.8482  -6.4850  -6.2549  -6.1020  -6.0531  -6.0529
    -5.9944  -5.9943  -5.8410  -5.6235  -5.4426  -5.2962  -5.2954  -5.2539
    -5.0375  -5.0045  -5.0019  -4.8954  -4.8851  -4.8592  -4.7362  -4.5819
    -4.5816  -4.5699  -4.5068  -4.3600  -4.3585  -4.3518  -4.3452  -4.3385
    -4.2292  -4.1995  -4.1994  -4.1697  -4.1691  -4.1254  -4.1224  -4.0359
    -4.0359  -3.9964  -3.9964  -3.9764  -3.8764  -3.8728  -3.8722  -3.8551
    -3.8488  -3.8033  -3.8032  -3.7762  -3.7403  -3.7399  -3.6605  -3.6438
    -3.6435  -3.6303  -3.6225  -3.6223  -3.6152  -3.6145  -3.5890  -3.5888
    -3.5887  -3.5863  -3.5863  -3.5578  -3.5574  -3.5338  -3.5338  -3.4544
    -3.4544  -3.4455  -3.4252  -3.4250  -3.4174  -3.4172  -3.4002  -3.3999
    -3.3907  -3.3461  -3.3459  -3.3224  -3.3221  -3.3182  -3.3182  -3.2781
    -3.2781  -3.2698  -3.2690  -3.2213  -3.2212  -3.2121  -3.2120  -3.1720
    -3.1719  -3.1271  -3.1270  -3.0752  -3.0749  -3.0451  -3.0450  -3.0008
    -3.0006  -2.9913  -2.9827  -2.9791  -2.9789  -2.9788  -2.9781  -2.9744
    -2.9742  -2.8907  -2.8904  -2.8732  -2.8731  -2.8695  -2.8691  -2.8687
    -2.8674  -2.8024  -2.8022  -2.7973  -2.7972  -2.7852  -2.7852  -2.7803
    -2.7802  -2.7731  -2.7729  -2.7582  -2.7246  -2.7242  -2.7133  -2.7133
    -2.6954  -2.6950  -2.6949  -2.6628  -2.6627  -2.6390  -2.6388  -2.6278
    -2.6274  -2.6100  -2.5862  -2.5861  -2.5678  -2.5674  -2.5486  -2.5389
    -2.5079  -2.5078  -2.4998  -2.4992  -2.4868  -2.4787  -2.4737  -2.4582
    -2.4550  -2.4549  -2.4284  -2.4283  -2.4275  -2.4269  -2.4264  -2.4263
    -2.3814  -2.3810  -2.3556  -2.3553  -2.3526  -2.3526  -2.3478  -2.3471
    -2.3319  -2.2897  -2.2890  -2.2754  -2.2751  -2.2567  -2.2564  -2.2532
    -2.2505  -2.2492  -2.2427  -2.2315  -2.2314  -2.2307  -2.2057  -2.2057
    -2.2056  -2.1980  -2.1926  -2.1785  -2.1768  -2.1756  -2.1608  -2.1516
    -2.1512  -2.1506  -2.1501  -2.1414  -2.1406  -2.1248  -2.1246  -2.1244
    -2.1117  -2.1113  -2.1052  -2.0935  -2.0724  -2.0723  -2.0654  -2.0570
    -2.0561  -2.0522  -2.0519  -2.0491  -2.0465  -2.0460  -2.0414  -2.0412
    -2.0239  -2.0190  -2.0183  -2.0079  -2.0079  -2.0020  -1.9953  -1.9934
    -1.9930  -1.9760  -1.9749  -1.9699  -1.9693  -1.9625  -1.9618  -1.9508
    -1.9505  -1.9497  -1.9488  -1.9402  -1.9276  -1.9270  -1.9250  -1.9242
    -1.9216  -1.9205  -1.9077  -1.8835  -1.8808  -1.8805  -1.8558  -1.8552
    -1.8470  -1.8445  -1.8445  -1.8225  -1.8035  -1.8033  -1.7902  -1.7746
    -1.7745  -1.7671  -1.7610  -1.7343  -1.7340  -1.7335  -1.7331  -1.7298
    -1.7295  -1.7278  -1.7277  -1.7171  -1.7171  -1.6953  -1.6794  -1.6788
    -1.6413  -1.6409  -1.6252  -1.6160  -1.6026  -1.6025  -1.5638  -1.5635
    -1.5519  -1.5518  -1.5513  -1.5511  -1.5322  -1.5318  -1.5260  -1.5137
    -1.5137  -1.5060  -1.4996  -1.4957  -1.4904  -1.4902  -1.4800  -1.4793
    -1.4509  -1.4443  -1.4356  -1.4250  -1.4236  -1.4107  -1.4106  -1.4071
    -1.4069  -1.3916  -1.3796  -1.3787  -1.3774  -1.3769  -1.3761  -1.3702
    -1.3702  -1.3612  -1.3586  -1.3498  -1.3497  -1.3355  -1.3352  -1.3203
    -1.3201  -1.3196  -1.2648  -1.2643  -1.2561  -1.2559  -1.2538  -1.2535
    -1.2489  -1.2449  -1.2421  -1.2421  -1.2368  -1.2368  -1.2331  -1.2326
    -1.2048  -1.1994  -1.1966  -1.1874  -1.1871  -1.1864  -1.1860  -1.1817
    -1.1814  -1.1765  -1.1622  -1.1178  -1.1014  -1.1013  -1.0987  -1.0979
    -1.0978  -1.0971  -1.0963  -1.0823  -1.0667  -1.0626  -1.0622  -1.0564
    -1.0541  -1.0533  -1.0480  -1.0477  -1.0214  -1.0213  -1.0196  -1.0191
    -1.0103  -1.0098  -0.9726  -0.9670  -0.9635  -0.9604  -0.9603  -0.9592
    -0.9565  -0.9217  -0.9180  -0.9180  -0.9170  -0.9168  -0.9130  -0.9127
    -0.9123  -0.8982  -0.8928  -0.8927  -0.8872  -0.8870  -0.8833  -0.8829
    -0.8828  -0.8822  -0.8791  -0.8774  -0.8773  -0.8709  -0.8706  -0.8693
    -0.8691  -0.8670  -0.8454  -0.8414  -0.8413  -0.8317  -0.8316  -0.8186
    -0.8157  -0.8156  -0.8090  -0.8089  -0.7693  -0.7693  -0.7584  -0.7583
    -0.7100  -0.7099  -0.6972  -0.6953  -0.6876  -0.6811  -0.6456  -0.3375
    -0.3092  -0.2483  -0.2483  -0.0513  -0.0507  -0.0352  -0.0274  -0.0123
     0.2653   0.3879   0.3880   0.5110   0.5116   0.5118   0.5146   0.6254
     0.6272   0.7195   0.7598   0.8868   0.8869   0.9179   1.0193   1.0194
     1.1709   1.6124   1.6205   1.6281   1.6296   1.6329   1.6330   1.7537
     1.7541   2.0575   2.0607   2.1582   2.1587   2.2481   2.4092   2.4101
     2.4149   2.4209   2.4310   2.7720   2.8533   2.8533   3.0720   3.0845
     3.1416   3.1431   3.1978   3.1993   3.3651   3.6241   4.0842   4.0888
     4.2189   4.2313   4.4286   4.4501   4.4518   4.5662   4.7211   4.7404
     4.8566   4.9025   4.9179   4.9255   4.9348   4.9367   5.0027   5.1089
     5.1484   5.2220   5.2223   5.3820   5.4309   5.6283   5.6536   5.6873
     5.7327   5.7377   5.8222   5.8565   5.8842   5.9123   5.9361   5.9617
     5.9625   5.9901   6.0033   6.0043   6.0378   6.0589   6.1291   6.2167
     6.2387   6.2707   6.3352   6.3660   6.3980   6.5210   6.5275   6.5392
     6.5879   6.6096   6.6843   6.7439   6.7493   6.7636

          k = 0.0000-0.5774 0.0000 (183406 PWs)   bands (ev):

   -26.6088 -26.3850 -25.1413 -24.9480 -15.7790 -14.1694 -11.9406 -10.6068
    -8.9587  -8.9233  -8.4767  -8.4058  -7.9128  -7.9117  -7.4404  -7.0586
    -7.0581  -6.9602  -6.9600  -6.9196  -6.2549  -6.1547  -6.1544  -5.8430
    -5.7668  -5.7642  -5.4423  -5.3190  -5.3185  -5.3185  -5.3184  -5.0378
    -5.0131  -4.9699  -4.9533  -4.8098  -4.8085  -4.7697  -4.7319  -4.7314
    -4.7312  -4.7259  -4.5705  -4.5488  -4.5324  -4.5062  -4.4270  -4.4263
    -4.3408  -4.1132  -4.1106  -4.1098  -4.1096  -4.1090  -4.1089  -4.0455
    -4.0453  -4.0234  -4.0232  -4.0229  -4.0219  -3.9331  -3.9331  -3.9322
    -3.9321  -3.9001  -3.8924  -3.8618  -3.7817  -3.7813  -3.7812  -3.7811
    -3.6425  -3.6419  -3.5848  -3.5844  -3.5192  -3.5191  -3.5189  -3.5186
    -3.5128  -3.5126  -3.5104  -3.5104  -3.5015  -3.5013  -3.5013  -3.5009
    -3.4959  -3.4954  -3.4750  -3.4749  -3.4745  -3.4744  -3.3700  -3.3699
    -3.3158  -3.3156  -3.2791  -3.2786  -3.2781  -3.2774  -3.2655  -3.2653
    -3.2650  -3.2649  -3.2646  -3.2645  -3.2007  -3.2004  -3.1567  -3.1565
    -3.1558  -3.1555  -3.1500  -3.1488  -3.1138  -3.1137  -3.1136  -3.1135
    -3.0588  -3.0584  -2.9999  -2.9997  -2.9820  -2.9258  -2.9257  -2.9093
    -2.9090  -2.9088  -2.9083  -2.8791  -2.8790  -2.8534  -2.8533  -2.8528
    -2.8526  -2.8338  -2.8335  -2.8335  -2.8332  -2.8322  -2.8322  -2.8255
    -2.8244  -2.8203  -2.8202  -2.7167  -2.7166  -2.7165  -2.7164  -2.6681
    -2.6681  -2.6433  -2.6432  -2.6390  -2.6388  -2.6176  -2.6171  -2.5878
    -2.5872  -2.5869  -2.5865  -2.5699  -2.5693  -2.5693  -2.5689  -2.5666
    -2.5662  -2.4763  -2.4754  -2.4688  -2.4683  -2.4473  -2.4465  -2.4284
    -2.4284  -2.4168  -2.4167  -2.4163  -2.4160  -2.3900  -2.3886  -2.3709
    -2.3704  -2.3163  -2.3154  -2.3141  -2.3141  -2.3139  -2.3138  -2.2810
    -2.2804  -2.2751  -2.2738  -2.2561  -2.2553  -2.2436  -2.2435  -2.2433
    -2.2430  -2.2402  -2.2401  -2.2380  -2.2379  -2.2347  -2.2342  -2.2254
    -2.2224  -2.1948  -2.1946  -2.1942  -2.1941  -2.1761  -2.1755  -2.1633
    -2.1626  -2.1624  -2.1617  -2.1549  -2.1540  -2.1527  -2.1526  -2.1515
    -2.1513  -2.1413  -2.1405  -2.1361  -2.1354  -2.1105  -2.1102  -2.1102
    -2.1095  -2.1003  -2.0999  -2.0934  -2.0922  -2.0799  -2.0790  -2.0759
    -2.0756  -2.0438  -2.0414  -2.0353  -2.0348  -2.0337  -2.0330  -2.0245
    -2.0236  -2.0235  -2.0233  -1.9980  -1.9974  -1.9915  -1.9911  -1.9235
    -1.9224  -1.9223  -1.9219  -1.8847  -1.8838  -1.8655  -1.8652  -1.8647
    -1.8645  -1.8634  -1.8629  -1.8622  -1.8615  -1.8567  -1.8558  -1.8230
    -1.8227  -1.8051  -1.8030  -1.7930  -1.7929  -1.7897  -1.7895  -1.7890
    -1.7889  -1.7418  -1.7418  -1.7402  -1.7392  -1.6986  -1.6984  -1.6984
    -1.6980  -1.6806  -1.6800  -1.6683  -1.6673  -1.6507  -1.6507  -1.6006
    -1.5988  -1.5630  -1.5627  -1.5626  -1.5624  -1.5445  -1.5429  -1.5362
    -1.5361  -1.5202  -1.5200  -1.5199  -1.5197  -1.5085  -1.5080  -1.5079
    -1.5073  -1.4613  -1.4609  -1.4600  -1.4597  -1.4568  -1.4538  -1.4362
    -1.4359  -1.4355  -1.4350  -1.4173  -1.4163  -1.4142  -1.4127  -1.3880
    -1.3848  -1.3837  -1.3817  -1.3816  -1.3814  -1.3682  -1.3678  -1.3675
    -1.3670  -1.3535  -1.3526  -1.3274  -1.3274  -1.3271  -1.3267  -1.3121
    -1.3119  -1.2465  -1.2462  -1.2460  -1.2456  -1.2351  -1.2350  -1.2350
    -1.2346  -1.2240  -1.2229  -1.2096  -1.2038  -1.1980  -1.1973  -1.1732
    -1.1729  -1.1680  -1.1676  -1.1671  -1.1668  -1.1184  -1.1181  -1.1178
    -1.1170  -1.0964  -1.0964  -1.0959  -1.0958  -1.0882  -1.0880  -1.0877
    -1.0876  -1.0784  -1.0779  -1.0578  -1.0575  -1.0559  -1.0558  -1.0336
    -1.0333  -1.0324  -1.0323  -1.0323  -1.0321  -1.0061  -1.0055  -1.0032
    -1.0025  -0.9996  -0.9992  -0.9991  -0.9982  -0.9865  -0.9856  -0.9723
    -0.9721  -0.9689  -0.9686  -0.9649  -0.9648  -0.9647  -0.9645  -0.9464
    -0.9460  -0.9007  -0.9006  -0.8921  -0.8917  -0.8916  -0.8916  -0.8914
    -0.8910  -0.8893  -0.8892  -0.8861  -0.8848  -0.8813  -0.8810  -0.8805
    -0.8804  -0.8742  -0.8738  -0.8393  -0.8391  -0.8386  -0.8383  -0.8304
    -0.8277  -0.7959  -0.7943  -0.7620  -0.7620  -0.7614  -0.7613  -0.7566
    -0.7563  -0.7562  -0.7561  -0.7229  -0.7226  -0.6905  -0.6894  -0.6892
    -0.6888  -0.6884  -0.6830  -0.2224  -0.2212  -0.2205  -0.2194  -0.0920
    -0.0909  -0.0799  -0.0764   0.4754   0.4754   0.4757   0.4758   0.5109
     0.5327   0.8888   0.8889   0.8894   0.8895   1.1294   1.1311   1.1319
     1.1351   1.4608   1.4707   1.5163   1.5329   1.5603   1.5638   1.6768
     1.6769   1.6781   1.6787   2.8945   2.8945   2.9158   2.9209   2.9242
     2.9261   2.9303   2.9381   3.1269   3.1271   3.1330   3.1379   3.1393
     3.1470   3.5586   3.5594   3.6251   3.6267   3.8058   3.9044   3.9051
     3.9061   3.9067   4.0463   4.0475   4.2267   4.6316   4.6320   4.7601
     4.7813   4.8216   4.8413   5.0496   5.0562   5.1339   5.1428   5.1504
     5.1636   5.2829   5.2930   5.2932   5.2952   5.2954   5.3413   5.3842
     5.4625   5.5791   5.5803   5.5894   5.6911   5.7636   5.8260   5.8568
     5.8635   5.8898   5.8959   6.0588   6.1047   6.1326   6.1358   6.1362
     6.1593   6.2091   6.2513   6.2747   6.3169   6.3326   6.4193   6.4337
     6.4630   6.4927   6.6679   6.6743   6.7069   6.7076

          k = 0.2500-0.7217 0.0000 (183316 PWs)   bands (ev):

   -26.6088 -26.3850 -25.1413 -24.9480 -15.7790 -14.1695 -11.9404 -10.6069
    -8.9587  -8.9235  -8.4767  -8.4065  -8.0353  -7.5488  -7.5471  -7.4398
    -7.1768  -6.9204  -6.7095  -6.7083  -6.2547  -6.1881  -6.1879  -5.8778
    -5.8398  -5.4626  -5.4532  -5.4514  -5.4487  -5.4296  -5.3901  -5.1151
    -5.1137  -5.0375  -5.0000  -4.7800  -4.7633  -4.6319  -4.6141  -4.6127
    -4.5702  -4.5377  -4.5365  -4.5068  -4.4550  -4.4549  -4.4276  -4.4256
    -4.3412  -4.2779  -4.2693  -4.1901  -4.1897  -4.1883  -4.1836  -4.1834
    -4.0576  -4.0566  -4.0140  -3.9978  -3.9631  -3.9629  -3.9044  -3.8966
    -3.8939  -3.8687  -3.8607  -3.8588  -3.7944  -3.7940  -3.7235  -3.7229
    -3.7010  -3.6149  -3.6147  -3.5940  -3.5931  -3.5738  -3.5733  -3.5207
    -3.5201  -3.5190  -3.5189  -3.5181  -3.5173  -3.5149  -3.5069  -3.4511
    -3.4068  -3.4063  -3.3915  -3.3911  -3.3875  -3.3868  -3.3683  -3.3683
    -3.3547  -3.3543  -3.3529  -3.3340  -3.2904  -3.2902  -3.2851  -3.2799
    -3.2793  -3.2463  -3.2307  -3.2132  -3.2113  -3.2112  -3.1882  -3.1882
    -3.1591  -3.1394  -3.1383  -3.1194  -3.0852  -3.0733  -3.0725  -3.0477
    -3.0470  -3.0442  -3.0415  -3.0400  -3.0393  -3.0384  -3.0383  -2.9811
    -2.9542  -2.9236  -2.8883  -2.8869  -2.8867  -2.8785  -2.8563  -2.8509
    -2.8508  -2.8286  -2.8270  -2.8121  -2.8114  -2.8003  -2.8001  -2.7673
    -2.7670  -2.7527  -2.7522  -2.7515  -2.7514  -2.7306  -2.7302  -2.6913
    -2.6794  -2.6793  -2.6202  -2.6193  -2.6000  -2.5930  -2.5918  -2.5784
    -2.5740  -2.5527  -2.5519  -2.5501  -2.5462  -2.5307  -2.5304  -2.5299
    -2.5296  -2.5031  -2.5029  -2.4996  -2.4988  -2.4825  -2.4476  -2.4472
    -2.4453  -2.4445  -2.4115  -2.4091  -2.4027  -2.3867  -2.3738  -2.3735
    -2.3708  -2.3702  -2.3666  -2.3517  -2.3498  -2.3365  -2.3304  -2.3303
    -2.3266  -2.3150  -2.3147  -2.3117  -2.3116  -2.2841  -2.2629  -2.2531
    -2.2529  -2.2477  -2.2445  -2.2379  -2.2376  -2.2311  -2.2289  -2.2284
    -2.2247  -2.2245  -2.2117  -2.2116  -2.2105  -2.2099  -2.2012  -2.1996
    -2.1714  -2.1650  -2.1650  -2.1553  -2.1552  -2.1411  -2.1380  -2.1357
    -2.1300  -2.1298  -2.1286  -2.1242  -2.1236  -2.1110  -2.1091  -2.0892
    -2.0872  -2.0870  -2.0827  -2.0826  -2.0741  -2.0735  -2.0590  -2.0546
    -2.0512  -2.0208  -2.0172  -2.0168  -2.0134  -2.0090  -2.0075  -2.0003
    -1.9966  -1.9919  -1.9914  -1.9887  -1.9885  -1.9741  -1.9741  -1.9456
    -1.9342  -1.9341  -1.9184  -1.9050  -1.9047  -1.8760  -1.8562  -1.8561
    -1.8427  -1.8424  -1.8421  -1.8202  -1.8093  -1.8090  -1.8067  -1.8064
    -1.7933  -1.7928  -1.7913  -1.7900  -1.7802  -1.7757  -1.7516  -1.7513
    -1.7080  -1.7077  -1.6965  -1.6953  -1.6946  -1.6941  -1.6855  -1.6837
    -1.6835  -1.6828  -1.6758  -1.6755  -1.6649  -1.6635  -1.6357  -1.6353
    -1.6335  -1.6185  -1.6181  -1.6169  -1.6156  -1.6109  -1.5802  -1.5777
    -1.5687  -1.5631  -1.5631  -1.5598  -1.5411  -1.5397  -1.5320  -1.5238
    -1.4871  -1.4862  -1.4718  -1.4713  -1.4703  -1.4696  -1.4543  -1.4542
    -1.4470  -1.4466  -1.4434  -1.4268  -1.4266  -1.4233  -1.4208  -1.4179
    -1.4175  -1.4116  -1.3884  -1.3688  -1.3559  -1.3523  -1.3446  -1.3437
    -1.3289  -1.3285  -1.3204  -1.3202  -1.2911  -1.2901  -1.2706  -1.2690
    -1.2684  -1.2640  -1.2599  -1.2480  -1.2464  -1.2421  -1.2413  -1.2322
    -1.2322  -1.2312  -1.2302  -1.2254  -1.2245  -1.1974  -1.1971  -1.1891
    -1.1881  -1.1821  -1.1820  -1.1655  -1.1648  -1.1617  -1.1539  -1.1279
    -1.1279  -1.1014  -1.0944  -1.0920  -1.0916  -1.0892  -1.0890  -1.0862
    -1.0860  -1.0817  -1.0781  -1.0588  -1.0582  -1.0549  -1.0548  -1.0530
    -1.0528  -1.0441  -1.0427  -1.0425  -1.0214  -1.0213  -1.0177  -1.0151
    -1.0067  -1.0024  -1.0019  -0.9949  -0.9944  -0.9792  -0.9784  -0.9779
    -0.9650  -0.9640  -0.9631  -0.9629  -0.9616  -0.9614  -0.9568  -0.9364
    -0.9363  -0.9324  -0.9321  -0.9319  -0.9187  -0.9179  -0.9065  -0.9064
    -0.9062  -0.9060  -0.9037  -0.8982  -0.8965  -0.8922  -0.8879  -0.8872
    -0.8725  -0.8717  -0.8627  -0.8618  -0.8496  -0.8223  -0.8221  -0.8085
    -0.8083  -0.8051  -0.8050  -0.8048  -0.8045  -0.7886  -0.7885  -0.7781
    -0.7544  -0.7433  -0.7426  -0.7326  -0.6792  -0.6781  -0.6684  -0.4410
    -0.4340  -0.4002  -0.4001  -0.3020  -0.3015  -0.2520  -0.2488  -0.2010
    -0.0874  -0.0868  -0.0733  -0.0732   0.3629   0.4186   0.4217   0.5950
     0.5958   0.6106   0.6114   0.9210   0.9441   1.1004   1.2442   1.2502
     1.2531   1.2661   1.6154   1.6158   1.8077   2.0537   2.0760   2.0804
     2.0893   2.0899   2.0911   2.1357   2.1378   2.2480   2.2556   2.2782
     2.7032   2.8438   2.8444   2.9949   3.0686   3.0760   3.3210   3.3347
     3.5144   3.5153   3.6627   3.7943   3.9032   3.9052   3.9604   3.9681
     3.9701   3.9737   4.0867   4.0903   4.2789   4.4266   4.5033   4.6757
     4.7979   4.9317   4.9856   5.0312   5.0782   5.1210   5.1595   5.2119
     5.2604   5.2957   5.2993   5.3039   5.3847   5.4171   5.4387   5.4564
     5.5151   5.5484   5.5510   5.5695   5.6581   5.7021   5.7337   5.7886
     5.8760   5.9028   5.9202   6.0332   6.0859   6.1468   6.1998   6.2027
     6.2077   6.2148   6.2236   6.2581   6.2718   6.3156   6.3363   6.4660
     6.5576   6.5911   6.6006   6.6206   6.6534   6.7111

          k =-0.2500 0.1443 0.0000 (183317 PWs)   bands (ev):

   -26.6088 -26.3850 -25.1413 -24.9480 -15.7790 -14.1695 -11.9404 -10.6069
    -8.9587  -8.9235  -8.4767  -8.4065  -8.2843  -7.4404  -7.4172  -7.3109
    -6.9206  -6.8483  -6.8480  -6.4851  -6.2550  -6.1020  -6.0531  -6.0526
    -5.9944  -5.9942  -5.8408  -5.6236  -5.4415  -5.2959  -5.2957  -5.2543
    -5.0379  -5.0093  -4.9939  -4.8977  -4.8882  -4.8578  -4.7356  -4.5818
    -4.5815  -4.5699  -4.5067  -4.3606  -4.3589  -4.3518  -4.3437  -4.3386
    -4.2296  -4.1995  -4.1994  -4.1697  -4.1692  -4.1254  -4.1226  -4.0359
    -4.0359  -3.9964  -3.9964  -3.9765  -3.8738  -3.8728  -3.8691  -3.8560
    -3.8539  -3.8033  -3.8032  -3.7760  -3.7403  -3.7398  -3.6605  -3.6437
    -3.6435  -3.6302  -3.6225  -3.6223  -3.6153  -3.6144  -3.5890  -3.5888
    -3.5887  -3.5863  -3.5863  -3.5579  -3.5574  -3.5338  -3.5338  -3.4544
    -3.4544  -3.4455  -3.4252  -3.4251  -3.4174  -3.4173  -3.4002  -3.3999
    -3.3907  -3.3461  -3.3459  -3.3224  -3.3221  -3.3182  -3.3182  -3.2781
    -3.2781  -3.2699  -3.2689  -3.2213  -3.2212  -3.2121  -3.2120  -3.1720
    -3.1719  -3.1271  -3.1270  -3.0752  -3.0749  -3.0451  -3.0450  -3.0007
    -3.0006  -2.9916  -2.9817  -2.9791  -2.9789  -2.9788  -2.9783  -2.9744
    -2.9741  -2.8907  -2.8904  -2.8733  -2.8731  -2.8694  -2.8691  -2.8686
    -2.8673  -2.8024  -2.8021  -2.7974  -2.7972  -2.7852  -2.7852  -2.7803
    -2.7802  -2.7732  -2.7729  -2.7581  -2.7245  -2.7242  -2.7133  -2.7133
    -2.6953  -2.6951  -2.6950  -2.6628  -2.6627  -2.6390  -2.6389  -2.6278
    -2.6274  -2.6100  -2.5862  -2.5861  -2.5678  -2.5674  -2.5485  -2.5389
    -2.5079  -2.5078  -2.4997  -2.4993  -2.4868  -2.4787  -2.4736  -2.4582
    -2.4550  -2.4549  -2.4284  -2.4283  -2.4275  -2.4270  -2.4264  -2.4263
    -2.3813  -2.3811  -2.3555  -2.3553  -2.3526  -2.3526  -2.3479  -2.3469
    -2.3319  -2.2896  -2.2892  -2.2754  -2.2751  -2.2567  -2.2565  -2.2532
    -2.2506  -2.2491  -2.2426  -2.2315  -2.2313  -2.2309  -2.2057  -2.2057
    -2.2056  -2.1980  -2.1926  -2.1781  -2.1771  -2.1755  -2.1608  -2.1516
    -2.1513  -2.1505  -2.1501  -2.1413  -2.1407  -2.1248  -2.1246  -2.1244
    -2.1117  -2.1113  -2.1052  -2.0935  -2.0724  -2.0723  -2.0653  -2.0569
    -2.0562  -2.0523  -2.0519  -2.0491  -2.0464  -2.0461  -2.0414  -2.0413
    -2.0239  -2.0190  -2.0184  -2.0079  -2.0079  -2.0020  -1.9953  -1.9933
    -1.9930  -1.9759  -1.9750  -1.9700  -1.9694  -1.9624  -1.9619  -1.9508
    -1.9505  -1.9495  -1.9487  -1.9402  -1.9275  -1.9270  -1.9251  -1.9242
    -1.9214  -1.9206  -1.9076  -1.8835  -1.8809  -1.8806  -1.8559  -1.8552
    -1.8470  -1.8445  -1.8444  -1.8225  -1.8035  -1.8034  -1.7902  -1.7746
    -1.7745  -1.7669  -1.7608  -1.7343  -1.7341  -1.7336  -1.7330  -1.7298
    -1.7295  -1.7279  -1.7277  -1.7172  -1.7170  -1.6952  -1.6795  -1.6788
    -1.6413  -1.6410  -1.6252  -1.6158  -1.6026  -1.6025  -1.5638  -1.5634
    -1.5519  -1.5519  -1.5512  -1.5511  -1.5322  -1.5318  -1.5260  -1.5137
    -1.5136  -1.5060  -1.4997  -1.4956  -1.4904  -1.4902  -1.4799  -1.4794
    -1.4509  -1.4442  -1.4355  -1.4251  -1.4237  -1.4107  -1.4106  -1.4071
    -1.4069  -1.3916  -1.3793  -1.3790  -1.3774  -1.3770  -1.3761  -1.3702
    -1.3702  -1.3612  -1.3586  -1.3497  -1.3497  -1.3355  -1.3352  -1.3203
    -1.3200  -1.3196  -1.2647  -1.2643  -1.2561  -1.2559  -1.2538  -1.2536
    -1.2488  -1.2449  -1.2422  -1.2421  -1.2368  -1.2367  -1.2331  -1.2327
    -1.2047  -1.1995  -1.1966  -1.1873  -1.1871  -1.1862  -1.1860  -1.1817
    -1.1814  -1.1765  -1.1622  -1.1179  -1.1013  -1.1012  -1.0985  -1.0980
    -1.0977  -1.0971  -1.0963  -1.0822  -1.0667  -1.0625  -1.0622  -1.0564
    -1.0541  -1.0534  -1.0481  -1.0478  -1.0214  -1.0213  -1.0195  -1.0192
    -1.0102  -1.0098  -0.9726  -0.9670  -0.9635  -0.9604  -0.9603  -0.9592
    -0.9565  -0.9217  -0.9180  -0.9179  -0.9169  -0.9169  -0.9130  -0.9127
    -0.9123  -0.8982  -0.8928  -0.8927  -0.8872  -0.8871  -0.8833  -0.8829
    -0.8828  -0.8822  -0.8791  -0.8774  -0.8773  -0.8708  -0.8706  -0.8693
    -0.8691  -0.8670  -0.8454  -0.8415  -0.8413  -0.8317  -0.8315  -0.8186
    -0.8157  -0.8157  -0.8090  -0.8089  -0.7693  -0.7693  -0.7583  -0.7583
    -0.7100  -0.7100  -0.6970  -0.6955  -0.6876  -0.6811  -0.6455  -0.3375
    -0.3091  -0.2483  -0.2483  -0.0512  -0.0508  -0.0335  -0.0288  -0.0127
     0.2653   0.3879   0.3880   0.5113   0.5117   0.5119   0.5142   0.6257
     0.6270   0.7188   0.7607   0.8867   0.8868   0.9181   1.0193   1.0194
     1.1715   1.6124   1.6207   1.6277   1.6289   1.6330   1.6330   1.7535
     1.7538   2.0581   2.0604   2.1583   2.1587   2.2483   2.4093   2.4101
     2.4146   2.4204   2.4313   2.7726   2.8531   2.8533   3.0725   3.0840
     3.1419   3.1431   3.1974   3.1985   3.3653   3.6186   4.0843   4.0893
     4.2190   4.2311   4.4092   4.4498   4.4515   4.4579   4.6926   4.7433
     4.8230   4.9134   4.9179   4.9344   4.9350   4.9809   5.0859   5.1094
     5.1705   5.2222   5.2225   5.3354   5.5323   5.6053   5.6735   5.7214
     5.7356   5.7611   5.8256   5.8605   5.8835   5.9217   5.9550   5.9611
     5.9629   5.9698   6.0023   6.0052   6.0374   6.0635   6.1120   6.2152
     6.2435   6.3147   6.3397   6.4040   6.4457   6.4814   6.5243   6.5314
     6.5470   6.6017   6.6514   6.7332   6.7537   6.7650

          k = 0.2500 0.1443 0.0000 (183317 PWs)   bands (ev):

   -26.6088 -26.3850 -25.1413 -24.9480 -15.7790 -14.1695 -11.9404 -10.6069
    -8.9587  -8.9235  -8.4767  -8.4065  -8.2843  -7.4403  -7.4173  -7.3109
    -6.9206  -6.8484  -6.8480  -6.4851  -6.2550  -6.1020  -6.0531  -6.0526
    -5.9944  -5.9942  -5.8408  -5.6235  -5.4415  -5.2960  -5.2956  -5.2544
    -5.0378  -5.0097  -4.9939  -4.8971  -4.8879  -4.8582  -4.7360  -4.5818
    -4.5815  -4.5699  -4.5067  -4.3609  -4.3588  -4.3517  -4.3437  -4.3386
    -4.2296  -4.1995  -4.1993  -4.1698  -4.1691  -4.1254  -4.1226  -4.0359
    -4.0359  -3.9964  -3.9964  -3.9765  -3.8731  -3.8728  -3.8695  -3.8563
    -3.8540  -3.8033  -3.8032  -3.7760  -3.7403  -3.7398  -3.6605  -3.6437
    -3.6435  -3.6302  -3.6225  -3.6223  -3.6153  -3.6143  -3.5890  -3.5889
    -3.5887  -3.5863  -3.5862  -3.5580  -3.5574  -3.5339  -3.5337  -3.4544
    -3.4544  -3.4456  -3.4252  -3.4250  -3.4173  -3.4173  -3.4002  -3.3998
    -3.3907  -3.3461  -3.3458  -3.3225  -3.3221  -3.3182  -3.3182  -3.2781
    -3.2781  -3.2697  -3.2690  -3.2214  -3.2212  -3.2121  -3.2119  -3.1720
    -3.1719  -3.1271  -3.1270  -3.0752  -3.0749  -3.0451  -3.0450  -3.0007
    -3.0006  -2.9915  -2.9817  -2.9791  -2.9789  -2.9788  -2.9782  -2.9745
    -2.9741  -2.8907  -2.8904  -2.8733  -2.8732  -2.8692  -2.8692  -2.8688
    -2.8674  -2.8025  -2.8021  -2.7974  -2.7972  -2.7852  -2.7852  -2.7803
    -2.7802  -2.7731  -2.7729  -2.7581  -2.7246  -2.7241  -2.7133  -2.7133
    -2.6953  -2.6951  -2.6949  -2.6628  -2.6627  -2.6390  -2.6389  -2.6278
    -2.6274  -2.6100  -2.5862  -2.5861  -2.5678  -2.5674  -2.5485  -2.5389
    -2.5078  -2.5078  -2.4998  -2.4993  -2.4868  -2.4788  -2.4735  -2.4582
    -2.4550  -2.4549  -2.4285  -2.4283  -2.4274  -2.4271  -2.4264  -2.4263
    -2.3814  -2.3811  -2.3556  -2.3552  -2.3526  -2.3526  -2.3479  -2.3469
    -2.3319  -2.2896  -2.2892  -2.2754  -2.2751  -2.2567  -2.2565  -2.2532
    -2.2506  -2.2490  -2.2427  -2.2314  -2.2314  -2.2309  -2.2057  -2.2057
    -2.2056  -2.1980  -2.1926  -2.1780  -2.1773  -2.1755  -2.1608  -2.1515
    -2.1512  -2.1506  -2.1502  -2.1414  -2.1405  -2.1248  -2.1247  -2.1243
    -2.1117  -2.1113  -2.1052  -2.0936  -2.0724  -2.0723  -2.0653  -2.0569
    -2.0563  -2.0523  -2.0519  -2.0492  -2.0465  -2.0461  -2.0414  -2.0413
    -2.0239  -2.0189  -2.0184  -2.0079  -2.0079  -2.0020  -1.9953  -1.9933
    -1.9930  -1.9760  -1.9750  -1.9700  -1.9694  -1.9623  -1.9619  -1.9508
    -1.9505  -1.9496  -1.9486  -1.9402  -1.9276  -1.9269  -1.9251  -1.9242
    -1.9215  -1.9206  -1.9075  -1.8835  -1.8810  -1.8806  -1.8559  -1.8552
    -1.8470  -1.8445  -1.8444  -1.8225  -1.8035  -1.8034  -1.7902  -1.7746
    -1.7745  -1.7669  -1.7608  -1.7345  -1.7339  -1.7335  -1.7331  -1.7297
    -1.7295  -1.7278  -1.7277  -1.7172  -1.7170  -1.6952  -1.6795  -1.6788
    -1.6413  -1.6410  -1.6252  -1.6158  -1.6026  -1.6025  -1.5638  -1.5634
    -1.5519  -1.5519  -1.5512  -1.5511  -1.5322  -1.5318  -1.5260  -1.5137
    -1.5136  -1.5060  -1.4996  -1.4956  -1.4904  -1.4902  -1.4800  -1.4794
    -1.4509  -1.4441  -1.4356  -1.4252  -1.4237  -1.4107  -1.4106  -1.4071
    -1.4069  -1.3916  -1.3794  -1.3791  -1.3773  -1.3771  -1.3760  -1.3702
    -1.3702  -1.3612  -1.3586  -1.3497  -1.3497  -1.3355  -1.3352  -1.3203
    -1.3200  -1.3196  -1.2647  -1.2643  -1.2561  -1.2559  -1.2538  -1.2536
    -1.2488  -1.2449  -1.2422  -1.2421  -1.2368  -1.2367  -1.2331  -1.2326
    -1.2047  -1.1995  -1.1967  -1.1873  -1.1871  -1.1862  -1.1861  -1.1817
    -1.1814  -1.1764  -1.1622  -1.1178  -1.1013  -1.1012  -1.0985  -1.0980
    -1.0978  -1.0971  -1.0964  -1.0822  -1.0668  -1.0625  -1.0622  -1.0564
    -1.0542  -1.0533  -1.0481  -1.0478  -1.0214  -1.0213  -1.0196  -1.0192
    -1.0102  -1.0098  -0.9727  -0.9670  -0.9634  -0.9603  -0.9603  -0.9592
    -0.9565  -0.9217  -0.9180  -0.9180  -0.9169  -0.9169  -0.9130  -0.9128
    -0.9124  -0.8982  -0.8929  -0.8927  -0.8872  -0.8870  -0.8833  -0.8829
    -0.8828  -0.8822  -0.8791  -0.8774  -0.8773  -0.8708  -0.8706  -0.8692
    -0.8691  -0.8670  -0.8454  -0.8414  -0.8413  -0.8317  -0.8315  -0.8186
    -0.8157  -0.8156  -0.8090  -0.8089  -0.7693  -0.7693  -0.7584  -0.7583
    -0.7100  -0.7100  -0.6970  -0.6954  -0.6876  -0.6811  -0.6455  -0.3374
    -0.3090  -0.2484  -0.2483  -0.0513  -0.0507  -0.0332  -0.0291  -0.0127
     0.2653   0.3879   0.3879   0.5113   0.5116   0.5118   0.5143   0.6256
     0.6272   0.7187   0.7608   0.8867   0.8868   0.9181   1.0193   1.0193
     1.1716   1.6118   1.6211   1.6278   1.6286   1.6329   1.6331   1.7535
     1.7537   2.0580   2.0606   2.1582   2.1588   2.2484   2.4089   2.4103
     2.4151   2.4206   2.4310   2.7727   2.8531   2.8533   3.0712   3.0848
     3.1418   3.1433   3.1973   3.1984   3.3653   3.6191   4.0840   4.0899
     4.2176   4.2318   4.4184   4.4418   4.4506   4.4526   4.7023   4.7404
     4.8330   4.9141   4.9161   4.9341   4.9354   4.9952   5.0994   5.1097
     5.1837   5.2223   5.2225   5.3048   5.4985   5.6058   5.6646   5.7272
     5.7343   5.7576   5.8184   5.8688   5.8845   5.9282   5.9349   5.9620
     5.9627   5.9862   6.0022   6.0065   6.0310   6.0751   6.1123   6.2067
     6.2462   6.2958   6.3401   6.4027   6.4380   6.4795   6.5262   6.5340
     6.5443   6.5908   6.7008   6.7389   6.7571   6.7641

          k = 0.5000-0.2887 0.0000 (183406 PWs)   bands (ev):

   -26.6088 -26.3850 -25.1413 -24.9480 -15.7790 -14.1695 -11.9402 -10.6070
    -8.9587  -8.9238  -8.4767  -8.4072  -7.9131  -7.9113  -7.4394  -7.0586
    -7.0577  -6.9606  -6.9600  -6.9191  -6.2551  -6.1547  -6.1539  -5.8422
    -5.7678  -5.7645  -5.4393  -5.3189  -5.3186  -5.3185  -5.3184  -5.0379
    -5.0064  -4.9716  -4.9622  -4.8097  -4.8083  -4.7683  -4.7318  -4.7318
    -4.7312  -4.7256  -4.5709  -4.5481  -4.5323  -4.5064  -4.4266  -4.4264
    -4.3412  -4.1134  -4.1104  -4.1099  -4.1097  -4.1088  -4.1087  -4.0458
    -4.0453  -4.0236  -4.0233  -4.0229  -4.0219  -3.9333  -3.9332  -3.9321
    -3.9319  -3.8954  -3.8924  -3.8664  -3.7816  -3.7814  -3.7812  -3.7811
    -3.6425  -3.6418  -3.5849  -3.5844  -3.5192  -3.5192  -3.5188  -3.5186
    -3.5128  -3.5126  -3.5104  -3.5104  -3.5015  -3.5013  -3.5012  -3.5009
    -3.4960  -3.4952  -3.4750  -3.4749  -3.4745  -3.4744  -3.3702  -3.3698
    -3.3158  -3.3156  -3.2792  -3.2788  -3.2778  -3.2772  -3.2656  -3.2654
    -3.2650  -3.2649  -3.2645  -3.2644  -3.2007  -3.2004  -3.1568  -3.1567
    -3.1556  -3.1553  -3.1502  -3.1487  -3.1138  -3.1137  -3.1136  -3.1135
    -3.0588  -3.0585  -2.9998  -2.9997  -2.9805  -2.9257  -2.9257  -2.9092
    -2.9090  -2.9086  -2.9084  -2.8791  -2.8790  -2.8538  -2.8535  -2.8526
    -2.8525  -2.8338  -2.8336  -2.8334  -2.8333  -2.8322  -2.8322  -2.8255
    -2.8243  -2.8203  -2.8201  -2.7167  -2.7166  -2.7165  -2.7164  -2.6682
    -2.6681  -2.6433  -2.6431  -2.6390  -2.6389  -2.6175  -2.6172  -2.5880
    -2.5874  -2.5868  -2.5863  -2.5697  -2.5694  -2.5692  -2.5690  -2.5667
    -2.5662  -2.4765  -2.4751  -2.4688  -2.4684  -2.4473  -2.4464  -2.4284
    -2.4284  -2.4169  -2.4168  -2.4162  -2.4159  -2.3900  -2.3885  -2.3707
    -2.3705  -2.3163  -2.3158  -2.3142  -2.3139  -2.3138  -2.3136  -2.2811
    -2.2803  -2.2752  -2.2737  -2.2560  -2.2554  -2.2435  -2.2434  -2.2432
    -2.2431  -2.2405  -2.2402  -2.2380  -2.2377  -2.2349  -2.2340  -2.2257
    -2.2221  -2.1949  -2.1947  -2.1942  -2.1940  -2.1761  -2.1757  -2.1630
    -2.1627  -2.1621  -2.1620  -2.1550  -2.1539  -2.1528  -2.1527  -2.1514
    -2.1512  -2.1415  -2.1404  -2.1361  -2.1353  -2.1104  -2.1103  -2.1100
    -2.1098  -2.1004  -2.0999  -2.0937  -2.0920  -2.0798  -2.0792  -2.0760
    -2.0756  -2.0439  -2.0413  -2.0353  -2.0348  -2.0337  -2.0332  -2.0241
    -2.0239  -2.0234  -2.0233  -1.9980  -1.9973  -1.9915  -1.9911  -1.9232
    -1.9226  -1.9223  -1.9220  -1.8846  -1.8838  -1.8655  -1.8652  -1.8647
    -1.8646  -1.8638  -1.8628  -1.8622  -1.8612  -1.8566  -1.8559  -1.8230
    -1.8227  -1.8055  -1.8026  -1.7931  -1.7929  -1.7895  -1.7893  -1.7892
    -1.7891  -1.7418  -1.7417  -1.7402  -1.7393  -1.6986  -1.6985  -1.6982
    -1.6981  -1.6803  -1.6802  -1.6683  -1.6674  -1.6507  -1.6507  -1.6007
    -1.5987  -1.5629  -1.5627  -1.5626  -1.5624  -1.5447  -1.5427  -1.5362
    -1.5361  -1.5202  -1.5200  -1.5199  -1.5198  -1.5087  -1.5085  -1.5077
    -1.5071  -1.4612  -1.4611  -1.4601  -1.4597  -1.4568  -1.4537  -1.4363
    -1.4358  -1.4354  -1.4351  -1.4170  -1.4165  -1.4140  -1.4132  -1.3882
    -1.3849  -1.3836  -1.3818  -1.3816  -1.3810  -1.3683  -1.3678  -1.3674
    -1.3669  -1.3531  -1.3526  -1.3275  -1.3273  -1.3271  -1.3267  -1.3121
    -1.3119  -1.2466  -1.2461  -1.2460  -1.2455  -1.2351  -1.2349  -1.2349
    -1.2347  -1.2237  -1.2231  -1.2098  -1.2035  -1.1980  -1.1974  -1.1734
    -1.1728  -1.1681  -1.1675  -1.1672  -1.1668  -1.1183  -1.1181  -1.1178
    -1.1170  -1.0965  -1.0965  -1.0958  -1.0958  -1.0882  -1.0881  -1.0877
    -1.0875  -1.0784  -1.0779  -1.0577  -1.0576  -1.0560  -1.0558  -1.0335
    -1.0334  -1.0324  -1.0323  -1.0322  -1.0321  -1.0062  -1.0055  -1.0035
    -1.0022  -0.9998  -0.9997  -0.9987  -0.9979  -0.9868  -0.9854  -0.9722
    -0.9722  -0.9692  -0.9683  -0.9649  -0.9647  -0.9646  -0.9646  -0.9463
    -0.9461  -0.9007  -0.9006  -0.8921  -0.8917  -0.8916  -0.8915  -0.8915
    -0.8909  -0.8893  -0.8892  -0.8860  -0.8849  -0.8813  -0.8811  -0.8805
    -0.8803  -0.8743  -0.8737  -0.8395  -0.8395  -0.8383  -0.8380  -0.8304
    -0.8277  -0.7959  -0.7943  -0.7623  -0.7620  -0.7614  -0.7611  -0.7565
    -0.7563  -0.7562  -0.7561  -0.7229  -0.7226  -0.6908  -0.6894  -0.6891
    -0.6888  -0.6885  -0.6827  -0.2220  -0.2213  -0.2208  -0.2195  -0.0917
    -0.0910  -0.0797  -0.0766   0.4752   0.4754   0.4757   0.4759   0.5091
     0.5347   0.8887   0.8888   0.8894   0.8895   1.1297   1.1310   1.1320
     1.1350   1.4579   1.4758   1.5130   1.5334   1.5608   1.5644   1.6760
     1.6767   1.6781   1.6790   2.8945   2.8945   2.9162   2.9225   2.9241
     2.9254   2.9301   2.9349   3.1268   3.1270   3.1338   3.1376   3.1398
     3.1475   3.5589   3.5594   3.6254   3.6277   3.8349   3.9041   3.9043
     3.9063   3.9068   4.0415   4.0467   4.0480   4.6317   4.6322   4.6836
     4.7362   4.8378   4.9635   5.0341   5.0986   5.1323   5.1531   5.1574
     5.1679   5.2808   5.2921   5.2936   5.2949   5.2961   5.3553   5.3877
     5.5233   5.5796   5.5802   5.6803   5.7007   5.7596   5.8209   5.8404
     5.9174   5.9442   5.9830   6.0456   6.1238   6.1318   6.1382   6.1484
     6.1998   6.2071   6.2484   6.2574   6.3165   6.3308   6.4067   6.4362
     6.4521   6.4766   6.5557   6.6716   6.6751   6.7066

          k =-0.5000-0.2887 0.0000 (183406 PWs)   bands (ev):

   -26.6088 -26.3850 -25.1413 -24.9480 -15.7790 -14.1695 -11.9402 -10.6070
    -8.9587  -8.9238  -8.4767  -8.4072  -7.9128  -7.9117  -7.4393  -7.0583
    -7.0581  -6.9605  -6.9600  -6.9191  -6.2551  -6.1547  -6.1539  -5.8423
    -5.7666  -5.7656  -5.4393  -5.3189  -5.3186  -5.3185  -5.3184  -5.0382
    -5.0069  -4.9709  -4.9616  -4.8095  -4.8085  -4.7692  -4.7321  -4.7316
    -4.7311  -4.7255  -4.5708  -4.5477  -4.5324  -4.5065  -4.4267  -4.4264
    -4.3411  -4.1133  -4.1106  -4.1097  -4.1096  -4.1090  -4.1086  -4.0458
    -4.0453  -4.0238  -4.0232  -4.0230  -4.0218  -3.9331  -3.9328  -3.9324
    -3.9322  -3.8952  -3.8925  -3.8666  -3.7819  -3.7814  -3.7812  -3.7810
    -3.6424  -3.6420  -3.5850  -3.5844  -3.5195  -3.5192  -3.5186  -3.5185
    -3.5128  -3.5126  -3.5104  -3.5104  -3.5015  -3.5013  -3.5011  -3.5009
    -3.4958  -3.4955  -3.4751  -3.4751  -3.4744  -3.4743  -3.3704  -3.3696
    -3.3158  -3.3156  -3.2790  -3.2790  -3.2776  -3.2775  -3.2654  -3.2652
    -3.2651  -3.2649  -3.2647  -3.2645  -3.2008  -3.2003  -3.1572  -3.1566
    -3.1555  -3.1551  -3.1499  -3.1489  -3.1138  -3.1138  -3.1135  -3.1134
    -3.0588  -3.0584  -2.9998  -2.9996  -2.9806  -2.9258  -2.9257  -2.9093
    -2.9090  -2.9087  -2.9083  -2.8792  -2.8790  -2.8539  -2.8538  -2.8525
    -2.8523  -2.8338  -2.8336  -2.8333  -2.8332  -2.8323  -2.8322  -2.8251
    -2.8247  -2.8203  -2.8201  -2.7167  -2.7166  -2.7165  -2.7163  -2.6682
    -2.6681  -2.6433  -2.6432  -2.6391  -2.6389  -2.6176  -2.6171  -2.5879
    -2.5877  -2.5866  -2.5862  -2.5697  -2.5695  -2.5691  -2.5690  -2.5665
    -2.5663  -2.4767  -2.4749  -2.4687  -2.4684  -2.4472  -2.4466  -2.4284
    -2.4284  -2.4169  -2.4165  -2.4163  -2.4162  -2.3899  -2.3886  -2.3708
    -2.3705  -2.3163  -2.3157  -2.3142  -2.3140  -2.3138  -2.3134  -2.2811
    -2.2803  -2.2752  -2.2737  -2.2560  -2.2554  -2.2435  -2.2434  -2.2431
    -2.2430  -2.2405  -2.2400  -2.2382  -2.2378  -2.2348  -2.2341  -2.2255
    -2.2223  -2.1950  -2.1948  -2.1941  -2.1938  -2.1761  -2.1756  -2.1631
    -2.1629  -2.1622  -2.1618  -2.1546  -2.1543  -2.1533  -2.1530  -2.1509
    -2.1509  -2.1412  -2.1407  -2.1367  -2.1347  -2.1105  -2.1104  -2.1099
    -2.1097  -2.1001  -2.1001  -2.0936  -2.0920  -2.0797  -2.0792  -2.0760
    -2.0756  -2.0437  -2.0415  -2.0352  -2.0349  -2.0337  -2.0331  -2.0243
    -2.0237  -2.0236  -2.0232  -1.9978  -1.9975  -1.9915  -1.9911  -1.9233
    -1.9227  -1.9222  -1.9220  -1.8847  -1.8836  -1.8656  -1.8651  -1.8648
    -1.8646  -1.8637  -1.8628  -1.8620  -1.8613  -1.8567  -1.8558  -1.8230
    -1.8227  -1.8055  -1.8027  -1.7930  -1.7929  -1.7900  -1.7899  -1.7887
    -1.7884  -1.7418  -1.7418  -1.7403  -1.7393  -1.6986  -1.6985  -1.6982
    -1.6980  -1.6810  -1.6795  -1.6684  -1.6674  -1.6507  -1.6507  -1.6009
    -1.5984  -1.5630  -1.5627  -1.5626  -1.5623  -1.5445  -1.5428  -1.5362
    -1.5361  -1.5202  -1.5200  -1.5199  -1.5198  -1.5092  -1.5081  -1.5077
    -1.5070  -1.4613  -1.4610  -1.4602  -1.4596  -1.4569  -1.4536  -1.4365
    -1.4363  -1.4351  -1.4347  -1.4171  -1.4165  -1.4140  -1.4131  -1.3884
    -1.3847  -1.3838  -1.3817  -1.3817  -1.3810  -1.3679  -1.3679  -1.3674
    -1.3673  -1.3532  -1.3524  -1.3275  -1.3274  -1.3271  -1.3266  -1.3121
    -1.3119  -1.2464  -1.2461  -1.2460  -1.2456  -1.2352  -1.2350  -1.2349
    -1.2346  -1.2238  -1.2231  -1.2100  -1.2033  -1.1979  -1.1975  -1.1735
    -1.1726  -1.1680  -1.1679  -1.1669  -1.1667  -1.1183  -1.1182  -1.1178
    -1.1169  -1.0965  -1.0964  -1.0959  -1.0958  -1.0885  -1.0880  -1.0876
    -1.0873  -1.0784  -1.0779  -1.0577  -1.0575  -1.0560  -1.0558  -1.0337
    -1.0334  -1.0325  -1.0322  -1.0321  -1.0321  -1.0061  -1.0055  -1.0032
    -1.0024  -1.0002  -0.9993  -0.9984  -0.9981  -0.9868  -0.9854  -0.9723
    -0.9721  -0.9693  -0.9682  -0.9649  -0.9648  -0.9646  -0.9645  -0.9464
    -0.9461  -0.9007  -0.9006  -0.8918  -0.8918  -0.8916  -0.8916  -0.8915
    -0.8911  -0.8893  -0.8892  -0.8861  -0.8849  -0.8812  -0.8811  -0.8805
    -0.8805  -0.8745  -0.8736  -0.8399  -0.8390  -0.8385  -0.8379  -0.8302
    -0.8279  -0.7957  -0.7945  -0.7622  -0.7619  -0.7614  -0.7612  -0.7566
    -0.7563  -0.7562  -0.7561  -0.7229  -0.7225  -0.6906  -0.6894  -0.6892
    -0.6890  -0.6884  -0.6825  -0.2221  -0.2214  -0.2206  -0.2194  -0.0916
    -0.0910  -0.0798  -0.0766   0.4752   0.4752   0.4758   0.4759   0.5091
     0.5349   0.8888   0.8889   0.8891   0.8894   1.1297   1.1308   1.1318
     1.1354   1.4577   1.4765   1.5121   1.5336   1.5616   1.5637   1.6762
     1.6765   1.6781   1.6786   2.8945   2.8945   2.9150   2.9225   2.9245
     2.9264   2.9293   2.9346   3.1268   3.1271   3.1336   3.1377   3.1399
     3.1478   3.5588   3.5596   3.6241   3.6286   3.8386   3.9042   3.9043
     3.9062   3.9066   4.0362   4.0465   4.0480   4.6317   4.6323   4.6808
     4.7825   4.8267   4.9908   5.0321   5.0954   5.1332   5.1520   5.1608
     5.1673   5.2739   5.2924   5.2926   5.2952   5.2966   5.3492   5.4005
     5.5045   5.5800   5.5803   5.6442   5.6743   5.7550   5.8154   5.8366
     5.8986   5.9518   5.9936   6.0595   6.1185   6.1219   6.1337   6.1406
     6.1672   6.2170   6.2207   6.2883   6.3139   6.3486   6.3870   6.4131
     6.4603   6.4750   6.5922   6.6713   6.6756   6.7067

          k =-0.2500-0.7217 0.0000 (183316 PWs)   bands (ev):

   -26.6088 -26.3850 -25.1413 -24.9480 -15.7790 -14.1695 -11.9404 -10.6069
    -8.9587  -8.9235  -8.4767  -8.4065  -8.0353  -7.5485  -7.5474  -7.4398
    -7.1767  -6.9204  -6.7093  -6.7084  -6.2547  -6.1881  -6.1878  -5.8777
    -5.8398  -5.4621  -5.4531  -5.4513  -5.4491  -5.4298  -5.3901  -5.1149
    -5.1139  -5.0375  -5.0000  -4.7793  -4.7637  -4.6322  -4.6139  -4.6131
    -4.5698  -4.5375  -4.5367  -4.5066  -4.4550  -4.4549  -4.4275  -4.4259
    -4.3411  -4.2778  -4.2693  -4.1900  -4.1898  -4.1883  -4.1836  -4.1834
    -4.0576  -4.0566  -4.0140  -3.9978  -3.9631  -3.9629  -3.9043  -3.8965
    -3.8940  -3.8686  -3.8608  -3.8588  -3.7944  -3.7940  -3.7236  -3.7228
    -3.7010  -3.6149  -3.6147  -3.5941  -3.5931  -3.5738  -3.5733  -3.5207
    -3.5201  -3.5190  -3.5189  -3.5181  -3.5173  -3.5149  -3.5069  -3.4511
    -3.4068  -3.4062  -3.3916  -3.3910  -3.3873  -3.3870  -3.3683  -3.3683
    -3.3547  -3.3544  -3.3529  -3.3340  -3.2905  -3.2902  -3.2851  -3.2798
    -3.2793  -3.2463  -3.2307  -3.2133  -3.2116  -3.2109  -3.1882  -3.1881
    -3.1591  -3.1395  -3.1382  -3.1194  -3.0852  -3.0732  -3.0725  -3.0477
    -3.0470  -3.0442  -3.0414  -3.0402  -3.0394  -3.0384  -3.0383  -2.9811
    -2.9542  -2.9236  -2.8883  -2.8869  -2.8867  -2.8785  -2.8563  -2.8509
    -2.8508  -2.8283  -2.8274  -2.8121  -2.8115  -2.8004  -2.8000  -2.7672
    -2.7670  -2.7526  -2.7524  -2.7514  -2.7513  -2.7306  -2.7302  -2.6913
    -2.6794  -2.6792  -2.6202  -2.6193  -2.6000  -2.5929  -2.5919  -2.5784
    -2.5740  -2.5527  -2.5520  -2.5501  -2.5462  -2.5306  -2.5304  -2.5299
    -2.5297  -2.5031  -2.5029  -2.4996  -2.4989  -2.4825  -2.4477  -2.4472
    -2.4454  -2.4444  -2.4115  -2.4091  -2.4027  -2.3867  -2.3737  -2.3735
    -2.3706  -2.3703  -2.3667  -2.3516  -2.3498  -2.3365  -2.3304  -2.3302
    -2.3266  -2.3149  -2.3147  -2.3116  -2.3116  -2.2841  -2.2629  -2.2530
    -2.2529  -2.2477  -2.2445  -2.2379  -2.2375  -2.2311  -2.2288  -2.2285
    -2.2248  -2.2244  -2.2118  -2.2116  -2.2104  -2.2100  -2.2011  -2.1996
    -2.1714  -2.1650  -2.1649  -2.1554  -2.1552  -2.1410  -2.1381  -2.1357
    -2.1299  -2.1298  -2.1286  -2.1243  -2.1236  -2.1109  -2.1091  -2.0892
    -2.0876  -2.0867  -2.0828  -2.0825  -2.0740  -2.0736  -2.0590  -2.0546
    -2.0512  -2.0208  -2.0177  -2.0162  -2.0134  -2.0089  -2.0076  -2.0003
    -1.9966  -1.9920  -1.9913  -1.9886  -1.9885  -1.9741  -1.9740  -1.9456
    -1.9345  -1.9339  -1.9185  -1.9051  -1.9047  -1.8760  -1.8562  -1.8560
    -1.8427  -1.8424  -1.8421  -1.8202  -1.8096  -1.8087  -1.8071  -1.8059
    -1.7937  -1.7924  -1.7913  -1.7900  -1.7802  -1.7757  -1.7516  -1.7513
    -1.7081  -1.7076  -1.6964  -1.6952  -1.6946  -1.6941  -1.6853  -1.6838
    -1.6833  -1.6830  -1.6757  -1.6755  -1.6647  -1.6637  -1.6357  -1.6352
    -1.6336  -1.6183  -1.6182  -1.6170  -1.6156  -1.6109  -1.5800  -1.5779
    -1.5686  -1.5631  -1.5630  -1.5598  -1.5411  -1.5396  -1.5320  -1.5238
    -1.4871  -1.4861  -1.4718  -1.4713  -1.4701  -1.4698  -1.4544  -1.4542
    -1.4471  -1.4466  -1.4432  -1.4271  -1.4265  -1.4232  -1.4207  -1.4179
    -1.4175  -1.4116  -1.3884  -1.3689  -1.3559  -1.3524  -1.3446  -1.3437
    -1.3289  -1.3286  -1.3205  -1.3202  -1.2910  -1.2902  -1.2706  -1.2690
    -1.2684  -1.2640  -1.2599  -1.2481  -1.2462  -1.2422  -1.2413  -1.2323
    -1.2322  -1.2313  -1.2301  -1.2255  -1.2245  -1.1975  -1.1970  -1.1891
    -1.1880  -1.1821  -1.1820  -1.1655  -1.1648  -1.1617  -1.1539  -1.1280
    -1.1278  -1.1014  -1.0944  -1.0920  -1.0916  -1.0892  -1.0890  -1.0862
    -1.0860  -1.0817  -1.0782  -1.0587  -1.0583  -1.0549  -1.0548  -1.0530
    -1.0528  -1.0440  -1.0427  -1.0426  -1.0214  -1.0213  -1.0177  -1.0151
    -1.0067  -1.0024  -1.0020  -0.9951  -0.9942  -0.9794  -0.9783  -0.9779
    -0.9650  -0.9640  -0.9632  -0.9628  -0.9616  -0.9614  -0.9569  -0.9364
    -0.9363  -0.9324  -0.9321  -0.9319  -0.9187  -0.9179  -0.9066  -0.9064
    -0.9062  -0.9059  -0.9037  -0.8982  -0.8965  -0.8922  -0.8878  -0.8873
    -0.8724  -0.8718  -0.8626  -0.8618  -0.8496  -0.8223  -0.8221  -0.8085
    -0.8084  -0.8051  -0.8050  -0.8049  -0.8044  -0.7886  -0.7885  -0.7781
    -0.7544  -0.7433  -0.7426  -0.7326  -0.6792  -0.6781  -0.6684  -0.4410
    -0.4340  -0.4002  -0.4001  -0.3019  -0.3016  -0.2521  -0.2488  -0.2010
    -0.0874  -0.0867  -0.0733  -0.0732   0.3628   0.4186   0.4218   0.5949
     0.5959   0.6106   0.6114   0.9209   0.9442   1.1003   1.2443   1.2502
     1.2532   1.2658   1.6154   1.6158   1.8078   2.0533   2.0763   2.0808
     2.0891   2.0904   2.0909   2.1355   2.1379   2.2481   2.2555   2.2785
     2.7033   2.8437   2.8445   2.9950   3.0686   3.0758   3.3210   3.3347
     3.5147   3.5150   3.6627   3.7934   3.9032   3.9051   3.9624   3.9680
     3.9702   3.9723   4.0864   4.0906   4.2827   4.4205   4.5032   4.6708
     4.7979   4.9196   4.9856   5.0334   5.0917   5.1209   5.1476   5.1970
     5.2659   5.2974   5.2992   5.3076   5.3874   5.4171   5.4430   5.4540
     5.5156   5.5495   5.5526   5.5858   5.6658   5.6916   5.7301   5.7935
     5.8616   5.9006   5.9066   6.0448   6.0972   6.1852   6.2005   6.2028
     6.2080   6.2171   6.2284   6.2539   6.2732   6.3036   6.3719   6.4748
     6.5434   6.5789   6.5872   6.6177   6.6766   6.6976

          k =-0.5000-0.5774 0.0000 (183316 PWs)   bands (ev):

   -26.6088 -26.3850 -25.1413 -24.9480 -15.7790 -14.1695 -11.9402 -10.6070
    -8.9587  -8.9238  -8.4767  -8.4072  -8.0353  -7.5484  -7.5474  -7.4393
    -7.1767  -6.9202  -6.7092  -6.7085  -6.2547  -6.1882  -6.1877  -5.8776
    -5.8402  -5.4585  -5.4526  -5.4521  -5.4486  -5.4323  -5.3899  -5.1148
    -5.1141  -5.0378  -5.0012  -4.7783  -4.7643  -4.6323  -4.6139  -4.6127
    -4.5701  -4.5377  -4.5366  -4.5068  -4.4549  -4.4549  -4.4274  -4.4261
    -4.3408  -4.2777  -4.2694  -4.1899  -4.1897  -4.1883  -4.1836  -4.1835
    -4.0574  -4.0570  -4.0139  -3.9983  -3.9631  -3.9630  -3.9043  -3.8959
    -3.8943  -3.8668  -3.8608  -3.8605  -3.7943  -3.7940  -3.7234  -3.7229
    -3.7010  -3.6150  -3.6147  -3.5940  -3.5931  -3.5740  -3.5734  -3.5207
    -3.5201  -3.5190  -3.5189  -3.5181  -3.5174  -3.5149  -3.5069  -3.4510
    -3.4067  -3.4063  -3.3915  -3.3911  -3.3874  -3.3869  -3.3683  -3.3683
    -3.3547  -3.3543  -3.3529  -3.3340  -3.2905  -3.2903  -3.2850  -3.2798
    -3.2793  -3.2463  -3.2307  -3.2132  -3.2113  -3.2111  -3.1882  -3.1881
    -3.1591  -3.1394  -3.1383  -3.1194  -3.0852  -3.0732  -3.0725  -3.0477
    -3.0470  -3.0442  -3.0413  -3.0403  -3.0394  -3.0384  -3.0383  -2.9804
    -2.9541  -2.9236  -2.8883  -2.8868  -2.8867  -2.8785  -2.8564  -2.8509
    -2.8508  -2.8285  -2.8272  -2.8122  -2.8113  -2.8003  -2.8001  -2.7673
    -2.7670  -2.7527  -2.7523  -2.7515  -2.7513  -2.7306  -2.7302  -2.6913
    -2.6794  -2.6793  -2.6201  -2.6195  -2.6001  -2.5930  -2.5919  -2.5783
    -2.5740  -2.5526  -2.5521  -2.5501  -2.5462  -2.5307  -2.5305  -2.5299
    -2.5295  -2.5031  -2.5029  -2.4996  -2.4989  -2.4825  -2.4476  -2.4472
    -2.4453  -2.4445  -2.4115  -2.4091  -2.4027  -2.3867  -2.3739  -2.3734
    -2.3708  -2.3702  -2.3665  -2.3516  -2.3499  -2.3364  -2.3304  -2.3303
    -2.3264  -2.3151  -2.3147  -2.3117  -2.3116  -2.2841  -2.2629  -2.2532
    -2.2529  -2.2474  -2.2448  -2.2378  -2.2377  -2.2311  -2.2289  -2.2283
    -2.2246  -2.2245  -2.2117  -2.2116  -2.2104  -2.2100  -2.2011  -2.1996
    -2.1714  -2.1650  -2.1649  -2.1554  -2.1552  -2.1408  -2.1383  -2.1357
    -2.1299  -2.1298  -2.1286  -2.1240  -2.1237  -2.1108  -2.1092  -2.0892
    -2.0874  -2.0869  -2.0827  -2.0826  -2.0740  -2.0736  -2.0590  -2.0547
    -2.0512  -2.0208  -2.0172  -2.0169  -2.0134  -2.0089  -2.0076  -2.0002
    -1.9965  -1.9918  -1.9915  -1.9886  -1.9885  -1.9742  -1.9741  -1.9456
    -1.9341  -1.9341  -1.9184  -1.9050  -1.9047  -1.8760  -1.8562  -1.8561
    -1.8427  -1.8423  -1.8422  -1.8202  -1.8093  -1.8090  -1.8070  -1.8062
    -1.7933  -1.7927  -1.7912  -1.7902  -1.7802  -1.7756  -1.7516  -1.7514
    -1.7079  -1.7078  -1.6967  -1.6952  -1.6947  -1.6941  -1.6851  -1.6839
    -1.6836  -1.6828  -1.6757  -1.6755  -1.6648  -1.6635  -1.6356  -1.6353
    -1.6336  -1.6183  -1.6179  -1.6169  -1.6158  -1.6108  -1.5801  -1.5777
    -1.5686  -1.5631  -1.5630  -1.5598  -1.5410  -1.5398  -1.5320  -1.5239
    -1.4870  -1.4863  -1.4716  -1.4715  -1.4703  -1.4697  -1.4543  -1.4542
    -1.4468  -1.4466  -1.4437  -1.4268  -1.4266  -1.4233  -1.4209  -1.4179
    -1.4175  -1.4116  -1.3884  -1.3688  -1.3559  -1.3523  -1.3446  -1.3437
    -1.3288  -1.3286  -1.3204  -1.3202  -1.2910  -1.2902  -1.2704  -1.2692
    -1.2684  -1.2639  -1.2599  -1.2479  -1.2464  -1.2420  -1.2415  -1.2323
    -1.2321  -1.2310  -1.2304  -1.2256  -1.2245  -1.1974  -1.1971  -1.1890
    -1.1882  -1.1822  -1.1820  -1.1653  -1.1650  -1.1616  -1.1538  -1.1280
    -1.1278  -1.1015  -1.0944  -1.0919  -1.0917  -1.0892  -1.0890  -1.0862
    -1.0860  -1.0816  -1.0783  -1.0587  -1.0584  -1.0548  -1.0548  -1.0531
    -1.0527  -1.0440  -1.0427  -1.0425  -1.0214  -1.0213  -1.0177  -1.0151
    -1.0067  -1.0023  -1.0020  -0.9947  -0.9946  -0.9791  -0.9784  -0.9779
    -0.9650  -0.9640  -0.9631  -0.9630  -0.9616  -0.9614  -0.9569  -0.9364
    -0.9363  -0.9324  -0.9321  -0.9319  -0.9187  -0.9179  -0.9065  -0.9065
    -0.9062  -0.9060  -0.9037  -0.8982  -0.8965  -0.8922  -0.8879  -0.8872
    -0.8724  -0.8719  -0.8626  -0.8619  -0.8496  -0.8223  -0.8221  -0.8085
    -0.8083  -0.8051  -0.8050  -0.8048  -0.8044  -0.7886  -0.7885  -0.7781
    -0.7544  -0.7433  -0.7425  -0.7326  -0.6794  -0.6781  -0.6683  -0.4406
    -0.4344  -0.4001  -0.4001  -0.3020  -0.3015  -0.2515  -0.2491  -0.2008
    -0.0875  -0.0868  -0.0733  -0.0732   0.3635   0.4180   0.4214   0.5947
     0.5958   0.6106   0.6116   0.9230   0.9418   1.1008   1.2432   1.2502
     1.2541   1.2668   1.6155   1.6158   1.8077   2.0584   2.0753   2.0790
     2.0858   2.0900   2.0907   2.1357   2.1384   2.2476   2.2556   2.2780
     2.7030   2.8440   2.8443   2.9947   3.0686   3.0767   3.3239   3.3329
     3.5147   3.5151   3.6628   3.8012   3.9034   3.9050   3.9608   3.9662
     3.9704   3.9717   4.0874   4.0887   4.1436   4.5033   4.5312   4.6600
     4.7980   4.9210   4.9857   5.0208   5.0762   5.1211   5.1639   5.1869
     5.2385   5.2979   5.2994   5.3023   5.3719   5.4170   5.4410   5.4596
     5.4719   5.5489   5.5508   5.6044   5.7077   5.7349   5.8175   5.8455
     5.8774   5.9025   5.9655   6.0400   6.1386   6.1840   6.1982   6.2010
     6.2028   6.2166   6.2259   6.2693   6.2763   6.3117   6.3925   6.4498
     6.5157   6.5421   6.5921   6.6058   6.6355   6.6562

     the Fermi energy is     0.6877 ev

!    total energy              =  -17322.00541541 Ry
     estimated scf accuracy    <          7.2E-11 Ry
     smearing contrib. (-TS)   =      -0.01032655 Ry
     internal energy E=F+TS    =  -17321.99508886 Ry

     The total energy is F=E-TS. E is the sum of the following terms:
     one-electron contribution = -199494.50363079 Ry
     hartree contribution      =  100709.30225374 Ry
     xc contribution           =   -3628.67824490 Ry
     ewald contribution        =   92303.94790182 Ry
     one-center paw contrib.   =   -7212.06336873 Ry

     convergence has been achieved in  16 iterations

     negative rho (up, down):  2.847E-03 0.000E+00

     Forces acting on atoms (cartesian axes, Ry/au):

     atom    1 type  1   force =    -0.00001307   -0.00001666   -0.00010354
     atom    2 type  1   force =     0.00003305   -0.00001186   -0.00009064
     atom    3 type  1   force =     0.00001953    0.00005451   -0.00010195
     atom    4 type  1   force =    -0.00003773    0.00004779   -0.00010375
     atom    5 type  1   force =     0.00002002    0.00002363   -0.00009744
     atom    6 type  1   force =     0.00004238    0.00001360   -0.00011248
     atom    7 type  1   force =     0.00001115    0.00002150   -0.00012142
     atom    8 type  1   force =    -0.00007234    0.00003122   -0.00011078
     atom    9 type  1   force =     0.00004904   -0.00002200   -0.00010382
     atom   10 type  1   force =     0.00004869   -0.00000854   -0.00012191
     atom   11 type  1   force =    -0.00005705   -0.00001398   -0.00010965
     atom   12 type  1   force =    -0.00004065   -0.00003135   -0.00010106
     atom   13 type  1   force =     0.00002809   -0.00003300   -0.00010197
     atom   14 type  1   force =     0.00001657   -0.00007429   -0.00009520
     atom   15 type  1   force =    -0.00006380   -0.00001068   -0.00009541
     atom   16 type  1   force =     0.00002028    0.00002883   -0.00010224
     atom   17 type  1   force =     0.00000311   -0.00002797   -0.00021365
     atom   18 type  1   force =     0.00001156   -0.00003679   -0.00021771
     atom   19 type  1   force =    -0.00000281    0.00000528   -0.00021587
     atom   20 type  1   force =    -0.00001112    0.00000370   -0.00023628
     atom   21 type  1   force =    -0.00000278   -0.00002719   -0.00027175
     atom   22 type  1   force =     0.00005203    0.00002534   -0.00018589
     atom   23 type  1   force =    -0.00001784    0.00006439   -0.00011974
     atom   24 type  1   force =    -0.00002888    0.00001250   -0.00020122
     atom   25 type  1   force =     0.00007159    0.00000963   -0.00019970
     atom   26 type  1   force =     0.00005253    0.00001355   -0.00007947
     atom   27 type  1   force =    -0.00007064    0.00002049   -0.00006134
     atom   28 type  1   force =    -0.00005215    0.00002476   -0.00023204
     atom   29 type  1   force =     0.00006211   -0.00003206   -0.00015497
     atom   30 type  1   force =    -0.00000560   -0.00006500   -0.00007220
     atom   31 type  1   force =    -0.00004078   -0.00001188   -0.00015031
     atom   32 type  1   force =    -0.00001266    0.00002100   -0.00023548
     atom   33 type  1   force =     0.00001960   -0.00004551   -0.00013540
     atom   34 type  1   force =     0.00000341   -0.00002272   -0.00012672
     atom   35 type  1   force =     0.00000012    0.00001579   -0.00011935
     atom   36 type  1   force =    -0.00002084   -0.00001514   -0.00012691
     atom   37 type  1   force =     0.00003627   -0.00000277   -0.00020353
     atom   38 type  1   force =     0.00003917    0.00003262   -0.00001669
     atom   39 type  1   force =    -0.00004024    0.00003179   -0.00008335
     atom   40 type  1   force =    -0.00003278    0.00001541   -0.00012070
     atom   41 type  1   force =     0.00006315   -0.00000494   -0.00003858
     atom   42 type  1   force =     0.00000137   -0.00000482    0.00008035
     atom   43 type  1   force =    -0.00004589    0.00001332   -0.00003249
     atom   44 type  1   force =    -0.00001899    0.00001612   -0.00017682
     atom   45 type  1   force =     0.00002831   -0.00003060   -0.00009831
     atom   46 type  1   force =    -0.00000969   -0.00002483   -0.00008138
     atom   47 type  1   force =    -0.00002789    0.00000430   -0.00000837
     atom   48 type  1   force =     0.00001106    0.00002171   -0.00011618
     atom   49 type  1   force =    -0.00000371   -0.00001624    0.00009578
     atom   50 type  1   force =     0.00000233   -0.00000743    0.00012323
     atom   51 type  1   force =     0.00000098   -0.00004081   -0.00005011
     atom   52 type  1   force =     0.00000752    0.00000284    0.00002710
     atom   53 type  1   force =     0.00002607    0.00000825    0.00016692
     atom   54 type  1   force =    -0.00006633   -0.00003877   -0.00024565
     atom   55 type  1   force =     0.00007859   -0.00003413   -0.00043021
     atom   56 type  1   force =    -0.00003635   -0.00000812   -0.00006302
     atom   57 type  1   force =    -0.00003363    0.00000512    0.00007062
     atom   58 type  1   force =     0.00001520    0.00010341   -0.00038475
     atom   59 type  1   force =     0.00002843    0.00004703   -0.00025734
     atom   60 type  1   force =    -0.00001048   -0.00000223    0.00020375
     atom   61 type  1   force =     0.00001908    0.00001100    0.00007322
     atom   62 type  1   force =     0.00001908   -0.00001861   -0.00004518
     atom   63 type  1   force =    -0.00004896   -0.00001589    0.00016824
     atom   64 type  1   force =     0.00001363    0.00002048    0.00028191
     atom   65 type  1   force =     0.00002808   -0.00010628    0.00014308
     atom   66 type  1   force =    -0.00002861   -0.00012138    0.00010265
     atom   67 type  1   force =    -0.00003380   -0.00008755    0.00012070
     atom   68 type  1   force =     0.00003704   -0.00000282    0.00009006
     atom   69 type  1   force =    -0.00008941   -0.00009240    0.00000205
     atom   70 type  1   force =     0.00030675    0.00037147    0.00023252
     atom   71 type  1   force =    -0.00015448    0.00063468    0.00040899
     atom   72 type  1   force =    -0.00006010    0.00016601    0.00016070
     atom   73 type  1   force =     0.00049759   -0.00003371    0.00022538
     atom   74 type  1   force =     0.00032156    0.00001814    0.00053057
     atom   75 type  1   force =    -0.00047871    0.00004345    0.00046964
     atom   76 type  1   force =    -0.00033562    0.00000568    0.00011390
     atom   77 type  1   force =     0.00047728   -0.00027429    0.00030416
     atom   78 type  1   force =    -0.00021067   -0.00050549    0.00045793
     atom   79 type  1   force =    -0.00010748   -0.00011565    0.00019660
     atom   80 type  1   force =    -0.00015616    0.00012513    0.00007529
     atom   81 type  2   force =     0.00051988   -0.00011934    0.00007417
     atom   82 type  2   force =     0.00028181    0.00000762   -0.00025018
     atom   83 type  3   force =     0.00047008    0.00018756    0.00054214
     atom   84 type  3   force =    -0.00015632    0.00024562   -0.00001073
     atom   85 type  3   force =    -0.00068064    0.00005762   -0.00011914
     atom   86 type  2   force =     0.00048889   -0.00008416    0.00045710
     atom   87 type  4   force =    -0.00050176    0.00001588   -0.00115534
     atom   88 type  3   force =     0.00028701    0.00038179    0.00115336
     atom   89 type  2   force =     0.00021176   -0.00002576    0.00022555
     atom   90 type  4   force =    -0.00050376   -0.00038161   -0.00040732
     atom   91 type  3   force =     0.00035083   -0.00054411    0.00123659
     atom   92 type  4   force =    -0.00028569   -0.00042462   -0.00038086
     atom   93 type  4   force =    -0.00055897    0.00081017   -0.00025304
     atom   94 type  3   force =     0.00003418   -0.00016578    0.00144429

     Total force =     0.004050     Total SCF correction =     0.000048


     Computing stress (Cartesian axis) and pressure


     negative rho (up, down):  2.847E-03 0.000E+00
          total   stress  (Ry/bohr**3)                   (kbar)     P=       -2.21
  -0.00002426  -0.00000007   0.00000015           -3.57       -0.01        0.02
  -0.00000007  -0.00002438  -0.00000008           -0.01       -3.59       -0.01
   0.00000015  -0.00000008   0.00000347            0.02       -0.01        0.51

     Energy error            =      2.7E-05 Ry
     Gradient error          =      1.4E-03 Ry/Bohr

     number of scf cycles    =   7
     number of bfgs steps    =   6

     energy             old  =  -17322.0053879547 Ry
     energy             new  =  -17322.0054154060 Ry

     CASE: energy            _new < energy            _old

     new trust radius        =       0.0049882705 bohr
     new conv_thr            =            1.0E-10 Ry


ATOMIC_POSITIONS (angstrom)
Cu              10.2108024564        1.4738753989       14.9905323065
Cu               2.5523838273        1.4738165324       14.9902293723
Cu               5.1051199337        1.4733024278       14.9900797512
Cu               7.6582611350        1.4733153920       14.9900048865
Cu              11.4868196469        3.6842489783       14.9901108480
Cu               3.8284705711        3.6842299668       14.9902335938
Cu               6.3816186155        3.6841436662       14.9902667214
Cu               8.9349831216        3.6841690394       14.9902079479
Cu              12.7628336179        5.8952425887       14.9899765153
Cu               5.1049081448        5.8953310919       14.9902747044
Cu               7.6584473456        5.8953300747       14.9900774138
Cu              10.2110094856        5.8952593277       14.9901898019
Cu              14.0393740185        8.1060825540       14.9901048793
Cu               6.3815899284        8.1064507598       14.9900837519
Cu               8.9346667897        8.1059532614       14.9901866683
Cu              11.4868696653        8.1055875386       14.9902580863
Cu              -0.0000955767       -0.0001749273       17.0792107606
Cu               2.5527421326       -0.0001297765       17.0792638152
Cu               5.1054173205        0.0000285711       17.0792106580
Cu               7.6578920845       -0.0000256226       17.0792349621
Cu               1.2764635578        2.2108202077       17.0794897858
Cu               3.8289895758        2.2105942107       17.0790207260
Cu               6.3817652959        2.2104591998       17.0786945358
Cu               8.9340467574        2.2106717603       17.0790990557
Cu               2.5524722663        4.4214336909       17.0790511959
Cu               5.1052638432        4.4213333106       17.0784053860
Cu               7.6581456818        4.4212748011       17.0784813144
Cu              10.2107040068        4.4214834844       17.0792839216
Cu               3.8288193913        6.6321239331       17.0788212421
Cu               6.3816979566        6.6321541095       17.0785527052
Cu               8.9343065055        6.6320020058       17.0789665918
Cu              11.4870533697        6.6319551297       17.0792756374
Cu               1.2761512781        0.7366754781       19.1678114944
Cu               3.8291000908        0.7368416942       19.1683871387
Cu               6.3816533036        0.7371261855       19.1686672739
Cu               8.9343686522        0.7369432561       19.1681111493
Cu               2.5532772024        2.9478418421       19.1685083658
Cu               5.1057792069        2.9480279093       19.1690597931
Cu               7.6574436216        2.9481460120       19.1697170094
Cu              10.2101000699        2.9475215977       19.1676893968
Cu               3.8296666744        5.1582109147       19.1688559011
Cu               6.3815896760        5.1581058956       19.1697677561
Cu               8.9337708788        5.1582020903       19.1692516719
Cu              11.4868762133        5.1583461204       19.1684387040
Cu               5.1054473200        7.3681172513       19.1694719773
Cu               7.6577956030        7.3683404759       19.1695535573
Cu              10.2104704597        7.3687927629       19.1681030426
Cu              12.7634811706        7.3689650883       19.1683502089
Cu              10.2111817482        1.4740359274       21.2564899901
Cu               2.5516518819        1.4735009961       21.2556045929
Cu               5.1047432512        1.4731144163       21.2568359549
Cu               7.6590441233        1.4729457888       21.2566048848
Cu              11.4862364999        3.6836043309       21.2548063569
Cu               3.8281749431        3.6839967242       21.2582174826
Cu               6.3816776149        3.6841751510       21.2610484345
Cu               8.9358447879        3.6838118434       21.2581210211
Cu              12.7626543416        5.8952655167       21.2558648268
Cu               5.1049353214        5.8955788402       21.2605556038
Cu               7.6586627739        5.8953829015       21.2600035859
Cu              10.2109284152        5.8952185148       21.2576719641
Cu              14.0395120884        8.1067520776       21.2569354913
Cu               6.3815985666        8.1073991941       21.2574149766
Cu               8.9345660644        8.1060554446       21.2577529104
Cu              11.4868298829        8.1054653798       21.2571009533
Cu              -0.0004629713        0.0020460379       23.3452771803
Cu               2.5532058209        0.0018998682       23.3462278345
Cu               5.1058125963       -0.0009478786       23.3466671147
Cu               7.6574058767       -0.0007035864       23.3468855489
Cu               1.2765670062        2.2111910710       23.3464841721
Cu               3.8262739084        2.2074700772       23.3423173172
Cu               6.3826309167        2.2048668589       23.3402769349
Cu               8.9360445809        2.2086194528       23.3449182352
Cu               2.5481927821        4.4215764398       23.3419118661
Cu               5.1021419230        4.4210493409       23.3399984489
Cu               7.6624832417        4.4206100744       23.3409967815
Cu              10.2138012933        4.4211762092       23.3460821465
Cu               3.8242247205        6.6351286387       23.3423579645
Cu               6.3830356319        6.6368983526       23.3408264870
Cu               8.9373301731        6.6338317975       23.3463494614
Cu              11.4871337275        6.6320918151       23.3473447287
C                3.8120459193        4.8804652727       28.1818824055
C                5.1740946374        5.0733143923       27.5493394976
H                3.0417062382        5.0725954451       27.4249941286
H                3.7059261969        3.8512570103       28.5456276233
H                3.6782955447        5.5775898279       29.0184237990
C                6.3497976949        4.8444582449       28.4992166671
F                5.2816586883        4.2062316115       26.4644919925
H                6.2568883556        3.8286938290       28.9093651394
C                7.7648059433        4.9821529996       27.9542527214
F                5.2412022037        6.3619044428       27.0265637262
H                6.2499381806        5.5515927448       29.3353916141
F                7.9989330351        6.2421248326       27.4392630854
F                8.0215895667        4.0684927971       26.9505152118
H                8.5139516191        4.8107392914       28.7448712629



     Writing config-only to output data dir ./tmp/cu_pvdf.save/ :
     XML data file
     NEW-OLD atomic charge density approx. for the potential

     negative rho (up, down):  2.836E-03 0.000E+00

     total cpu time spent up to now is    21368.3 secs

     Self-consistent Calculation

     iteration #  1     ecut=    60.00 Ry     beta= 0.30
     Davidson diagonalization with overlap
     ethr =  1.00E-06,  avg # of iterations =  2.0

     Threshold (ethr) on eigenvalues was too large:
     Diagonalizing with lowered threshold

     Davidson diagonalization with overlap
     ethr =  1.20E-09,  avg # of iterations =  5.7

     negative rho (up, down):  2.836E-03 0.000E+00

     total cpu time spent up to now is    22643.8 secs

     total energy              =  -17322.00544978 Ry
     estimated scf accuracy    <       0.00001851 Ry

     iteration #  2     ecut=    60.00 Ry     beta= 0.30
     Davidson diagonalization with overlap
     ethr =  1.99E-09,  avg # of iterations =  2.3

     negative rho (up, down):  2.836E-03 0.000E+00

     total cpu time spent up to now is    23071.8 secs

     total energy              =  -17322.00544243 Ry
     estimated scf accuracy    <       0.00019089 Ry

     iteration #  3     ecut=    60.00 Ry     beta= 0.30
     Davidson diagonalization with overlap
     ethr =  1.99E-09,  avg # of iterations =  2.0

     negative rho (up, down):  2.836E-03 0.000E+00

     total cpu time spent up to now is    23482.8 secs

     total energy              =  -17322.00544937 Ry
     estimated scf accuracy    <       0.00008303 Ry

     iteration #  4     ecut=    60.00 Ry     beta= 0.30
     Davidson diagonalization with overlap
     ethr =  1.99E-09,  avg # of iterations =  1.4

     negative rho (up, down):  2.837E-03 0.000E+00

     total cpu time spent up to now is    23857.7 secs

     total energy              =  -17322.00544925 Ry
     estimated scf accuracy    <       0.00007719 Ry

     iteration #  5     ecut=    60.00 Ry     beta= 0.30
     Davidson diagonalization with overlap
     ethr =  1.99E-09,  avg # of iterations =  1.8

     negative rho (up, down):  2.837E-03 0.000E+00

     total cpu time spent up to now is    24251.8 secs

     total energy              =  -17322.00544995 Ry
     estimated scf accuracy    <       0.00000170 Ry

     iteration #  6     ecut=    60.00 Ry     beta= 0.30
     Davidson diagonalization with overlap
     ethr =  1.83E-10,  avg # of iterations =  2.0

     negative rho (up, down):  2.837E-03 0.000E+00

     total cpu time spent up to now is    24663.7 secs

     total energy              =  -17322.00544972 Ry
     estimated scf accuracy    <       0.00000076 Ry

     iteration #  7     ecut=    60.00 Ry     beta= 0.30
     Davidson diagonalization with overlap
     ethr =  8.20E-11,  avg # of iterations =  3.6

     negative rho (up, down):  2.837E-03 0.000E+00

     total cpu time spent up to now is    25082.2 secs

     total energy              =  -17322.00544967 Ry
     estimated scf accuracy    <       0.00000055 Ry

     iteration #  8     ecut=    60.00 Ry     beta= 0.30
     Davidson diagonalization with overlap
     ethr =  5.96E-11,  avg # of iterations =  1.9

     negative rho (up, down):  2.837E-03 0.000E+00

     total cpu time spent up to now is    25484.1 secs

     total energy              =  -17322.00544968 Ry
     estimated scf accuracy    <       0.00000005 Ry

     iteration #  9     ecut=    60.00 Ry     beta= 0.30
     Davidson diagonalization with overlap
     ethr =  5.87E-12,  avg # of iterations =  5.0

     negative rho (up, down):  2.837E-03 0.000E+00

     total cpu time spent up to now is    25920.8 secs

     total energy              =  -17322.00544968 Ry
     estimated scf accuracy    <       0.00000003 Ry

     iteration # 10     ecut=    60.00 Ry     beta= 0.30
     Davidson diagonalization with overlap
     ethr =  3.18E-12,  avg # of iterations =  2.0

     negative rho (up, down):  2.837E-03 0.000E+00

     total cpu time spent up to now is    26329.8 secs

     total energy              =  -17322.00544968 Ry
     estimated scf accuracy    <          6.5E-09 Ry

     iteration # 11     ecut=    60.00 Ry     beta= 0.30
     Davidson diagonalization with overlap
     ethr =  7.00E-13,  avg # of iterations =  3.6

     negative rho (up, down):  2.837E-03 0.000E+00

     total cpu time spent up to now is    26753.8 secs

     total energy              =  -17322.00544968 Ry
     estimated scf accuracy    <          1.2E-09 Ry

     iteration # 12     ecut=    60.00 Ry     beta= 0.30
     Davidson diagonalization with overlap
     ethr =  1.31E-13,  avg # of iterations =  4.0

     negative rho (up, down):  2.837E-03 0.000E+00

     total cpu time spent up to now is    27193.9 secs

     total energy              =  -17322.00544968 Ry
     estimated scf accuracy    <          7.8E-10 Ry

     iteration # 13     ecut=    60.00 Ry     beta= 0.30
     Davidson diagonalization with overlap
     ethr =  1.00E-13,  avg # of iterations =  2.0

     negative rho (up, down):  2.837E-03 0.000E+00

     total cpu time spent up to now is    27606.1 secs

     total energy              =  -17322.00544968 Ry
     estimated scf accuracy    <          5.6E-10 Ry

     iteration # 14     ecut=    60.00 Ry     beta= 0.30
     Davidson diagonalization with overlap
     ethr =  1.00E-13,  avg # of iterations =  1.3

     negative rho (up, down):  2.837E-03 0.000E+00

     total cpu time spent up to now is    27976.7 secs

     total energy              =  -17322.00544968 Ry
     estimated scf accuracy    <       0.00000001 Ry

     iteration # 15     ecut=    60.00 Ry     beta= 0.30
     Davidson diagonalization with overlap
     ethr =  1.00E-13,  avg # of iterations =  1.3

     negative rho (up, down):  2.837E-03 0.000E+00

     total cpu time spent up to now is    28347.1 secs

     total energy              =  -17322.00544968 Ry
     estimated scf accuracy    <          7.8E-10 Ry

     iteration # 16     ecut=    60.00 Ry     beta= 0.30
     Davidson diagonalization with overlap
     ethr =  1.00E-13,  avg # of iterations =  1.0

     negative rho (up, down):  2.837E-03 0.000E+00

     total cpu time spent up to now is    28702.6 secs

     End of self-consistent calculation

          k = 0.0000 0.0000 0.0000 (183353 PWs)   bands (ev):

   -26.6106 -26.3855 -25.1398 -24.9492 -15.7754 -14.1645 -11.9381 -10.6082
    -8.9569  -8.9255  -8.4761  -8.4084  -8.4033  -7.5388  -7.4399  -6.9244
    -6.5185  -6.5183  -6.5180  -6.5171  -6.5168  -6.5162  -6.2529  -6.2158
    -5.8408  -5.7562  -5.7561  -5.7555  -5.7551  -5.7550  -5.7535  -5.4355
    -5.0359  -5.0028  -4.9589  -4.7713  -4.6731  -4.6727  -4.6719  -4.6702
    -4.6686  -4.6482  -4.5690  -4.5045  -4.4370  -4.3423  -4.2311  -4.2311
    -4.2309  -4.0719  -4.0718  -4.0718  -3.9360  -3.9359  -3.9355  -3.9353
    -3.9346  -3.9345  -3.9017  -3.9015  -3.9015  -3.8709  -3.7547  -3.7542
    -3.7535  -3.7513  -3.7501  -3.7473  -3.7412  -3.7411  -3.7409  -3.7407
    -3.7406  -3.7406  -3.6634  -3.6634  -3.6631  -3.6242  -3.6242  -3.6241
    -3.5350  -3.5348  -3.5347  -3.5342  -3.5342  -3.5341  -3.4742  -3.4741
    -3.4737  -3.4731  -3.4730  -3.4723  -3.4722  -3.4721  -3.4718  -3.4321
    -3.4321  -3.4313  -3.4311  -3.4310  -3.4310  -3.3171  -3.3170  -3.3170
    -3.1621  -3.1621  -3.1619  -3.1618  -3.1617  -3.1615  -3.1095  -3.1090
    -3.1085  -3.1085  -3.1083  -3.1082  -3.0984  -3.0982  -3.0982  -3.0978
    -3.0977  -3.0975  -2.9809  -2.9578  -2.9577  -2.9575  -2.9575  -2.9574
    -2.9572  -2.8807  -2.8806  -2.8805  -2.8442  -2.8438  -2.8425  -2.8424
    -2.8422  -2.8421  -2.8313  -2.8312  -2.8310  -2.8303  -2.8301  -2.8298
    -2.7111  -2.7109  -2.7108  -2.7108  -2.7107  -2.7105  -2.6511  -2.6508
    -2.6505  -2.6504  -2.6497  -2.6497  -2.6494  -2.6492  -2.6480  -2.6479
    -2.6474  -2.6473  -2.6417  -2.6417  -2.6416  -2.6414  -2.6413  -2.6412
    -2.4807  -2.4807  -2.4806  -2.4441  -2.4439  -2.4438  -2.4436  -2.4434
    -2.4434  -2.4322  -2.4283  -2.4281  -2.4277  -2.4270  -2.4269  -2.4260
    -2.4220  -2.4218  -2.4207  -2.4205  -2.4203  -2.4201  -2.4075  -2.3707
    -2.3707  -2.3706  -2.2949  -2.2949  -2.2391  -2.2386  -2.2382  -2.2377
    -2.2368  -2.2365  -2.2349  -2.2235  -2.2235  -2.2119  -2.2119  -2.2119
    -2.2036  -2.2036  -2.1909  -2.1908  -2.1903  -2.1897  -2.1894  -2.1887
    -2.0945  -2.0941  -2.0938  -2.0932  -2.0929  -2.0921  -2.0685  -2.0682
    -2.0677  -2.0675  -2.0673  -2.0665  -2.0582  -2.0581  -2.0578  -2.0576
    -2.0575  -2.0570  -2.0402  -2.0396  -2.0396  -2.0391  -2.0390  -2.0388
    -2.0180  -2.0178  -2.0172  -2.0151  -2.0145  -2.0139  -2.0133  -2.0125
    -2.0120  -1.9854  -1.9854  -1.9686  -1.9681  -1.9677  -1.9674  -1.9667
    -1.9666  -1.9658  -1.9658  -1.9326  -1.9323  -1.9315  -1.9312  -1.9308
    -1.9296  -1.9283  -1.9281  -1.9279  -1.8965  -1.8962  -1.8952  -1.8949
    -1.8942  -1.8927  -1.8925  -1.8924  -1.8924  -1.8714  -1.8018  -1.8012
    -1.8011  -1.8006  -1.8006  -1.8002  -1.7235  -1.7234  -1.7233  -1.7232
    -1.7229  -1.7228  -1.7007  -1.7006  -1.7005  -1.6998  -1.6998  -1.6994
    -1.6010  -1.6008  -1.6006  -1.5998  -1.5998  -1.5992  -1.5842  -1.5841
    -1.5833  -1.5821  -1.5819  -1.5800  -1.5794  -1.5794  -1.5791  -1.5789
    -1.5787  -1.5786  -1.4635  -1.4635  -1.4508  -1.4507  -1.4506  -1.4324
    -1.4323  -1.4322  -1.4322  -1.4321  -1.4320  -1.4249  -1.4243  -1.4242
    -1.4235  -1.4234  -1.4231  -1.4031  -1.4030  -1.3913  -1.3911  -1.3899
    -1.3878  -1.3873  -1.3838  -1.3509  -1.3509  -1.3500  -1.3293  -1.3291
    -1.3290  -1.3287  -1.3281  -1.3273  -1.3270  -1.3267  -1.3267  -1.3256
    -1.3252  -1.3251  -1.2926  -1.2920  -1.2919  -1.2917  -1.2907  -1.2905
    -1.2539  -1.2529  -1.2529  -1.2520  -1.2517  -1.2516  -1.1961  -1.1960
    -1.1796  -1.1792  -1.1791  -1.1785  -1.1785  -1.1783  -1.1641  -1.1640
    -1.1639  -1.0839  -1.0838  -1.0838  -1.0570  -1.0565  -1.0564  -1.0561
    -1.0560  -1.0554  -0.9766  -0.9765  -0.9765  -0.9764  -0.9762  -0.9761
    -0.9662  -0.9661  -0.9306  -0.9306  -0.9305  -0.9058  -0.9057  -0.9040
    -0.9013  -0.9006  -0.8959  -0.8808  -0.8808  -0.8735  -0.8734  -0.8734
    -0.8681  -0.8678  -0.8676  -0.8676  -0.8670  -0.8667  -0.8640  -0.8640
    -0.8640  -0.8590  -0.8588  -0.8587  -0.8585  -0.8584  -0.8581  -0.8402
    -0.8400  -0.8399  -0.8399  -0.8396  -0.8395  -0.8380  -0.8378  -0.8373
    -0.7843  -0.7843  -0.7843  -0.7722  -0.7720  -0.7719  -0.7719  -0.7718
    -0.7716  -0.6347  -0.6347  -0.6346  -0.6311  -0.6311  -0.6311  -0.3043
     0.1449   0.1451   0.1478   0.1524   0.1536   0.1613   0.3051   0.3052
     0.3053   0.3746   0.5230   0.5231   0.5233   0.5233   0.5234   0.5234
     0.8980   0.8984   0.8987   0.8987   0.8991   0.8994   1.1791   1.1791
     1.1792   1.7520   1.7522   1.7523   1.7802   1.7802   1.7807   1.7814
     1.7816   1.7826   1.9000   1.9020   1.9092   1.9200   1.9235   1.9448
     2.1074   2.1077   2.1078   2.2239   2.2241   2.2242   3.2567   3.2576
     3.2585   3.2588   3.2599   3.2616   3.4907   3.5015   3.5111   3.5145
     3.5326   3.5435   3.5620   4.3146   4.5975   4.8207   4.8277   4.8278
     4.8335   4.9420   4.9647   5.0019   5.1584   5.2074   5.2095   5.2132
     5.2177   5.2187   5.2203   5.3501   5.5205   5.6183   5.6355   5.6363
     5.6439   5.7362   5.7921   5.9681   6.0996   6.1413   6.1534   6.1906
     6.2359   6.2553   6.2899   6.3191   6.3238   6.3262   6.3446   6.3676
     6.3867   6.3932   6.5012   6.5216   6.5507   6.5764   6.6838   6.7103
     6.7528   6.7583   6.7695   6.8065   6.8123   6.8599

          k = 0.0000 0.2887 0.0000 (183317 PWs)   bands (ev):

   -26.6106 -26.3855 -25.1398 -24.9492 -15.7754 -14.1645 -11.9381 -10.6082
    -8.9569  -8.9255  -8.4761  -8.4035  -8.2824  -7.4405  -7.4161  -7.3091
    -6.9243  -6.8465  -6.8463  -6.4837  -6.2518  -6.1013  -6.0518  -6.0516
    -5.9925  -5.9924  -5.8392  -5.6216  -5.4367  -5.2948  -5.2940  -5.2531
    -5.0360  -5.0056  -5.0009  -4.8949  -4.8844  -4.8590  -4.7381  -4.5800
    -4.5797  -4.5695  -4.5048  -4.3590  -4.3575  -4.3510  -4.3445  -4.3387
    -4.2281  -4.1979  -4.1978  -4.1681  -4.1676  -4.1239  -4.1218  -4.0344
    -4.0343  -3.9946  -3.9946  -3.9752  -3.8775  -3.8716  -3.8712  -3.8545
    -3.8489  -3.8017  -3.8017  -3.7752  -3.7390  -3.7387  -3.6594  -3.6424
    -3.6422  -3.6294  -3.6214  -3.6212  -3.6143  -3.6136  -3.5877  -3.5871
    -3.5870  -3.5850  -3.5849  -3.5568  -3.5564  -3.5322  -3.5322  -3.4532
    -3.4532  -3.4447  -3.4239  -3.4238  -3.4166  -3.4165  -3.3987  -3.3985
    -3.3896  -3.3451  -3.3448  -3.3210  -3.3208  -3.3169  -3.3169  -3.2771
    -3.2771  -3.2688  -3.2680  -3.2200  -3.2199  -3.2108  -3.2107  -3.1710
    -3.1709  -3.1261  -3.1260  -3.0739  -3.0737  -3.0440  -3.0440  -2.9998
    -2.9996  -2.9904  -2.9814  -2.9781  -2.9779  -2.9777  -2.9770  -2.9733
    -2.9731  -2.8898  -2.8896  -2.8723  -2.8721  -2.8685  -2.8679  -2.8676
    -2.8664  -2.8013  -2.8012  -2.7965  -2.7963  -2.7843  -2.7843  -2.7790
    -2.7789  -2.7719  -2.7718  -2.7571  -2.7238  -2.7235  -2.7123  -2.7122
    -2.6945  -2.6940  -2.6939  -2.6617  -2.6616  -2.6380  -2.6379  -2.6270
    -2.6267  -2.6090  -2.5849  -2.5849  -2.5670  -2.5666  -2.5476  -2.5377
    -2.5072  -2.5071  -2.4992  -2.4987  -2.4864  -2.4782  -2.4733  -2.4578
    -2.4540  -2.4539  -2.4275  -2.4274  -2.4269  -2.4264  -2.4252  -2.4252
    -2.3806  -2.3803  -2.3547  -2.3544  -2.3524  -2.3524  -2.3474  -2.3467
    -2.3309  -2.2891  -2.2886  -2.2745  -2.2742  -2.2563  -2.2561  -2.2522
    -2.2502  -2.2488  -2.2419  -2.2312  -2.2310  -2.2305  -2.2051  -2.2044
    -2.2044  -2.1965  -2.1915  -2.1781  -2.1763  -2.1752  -2.1600  -2.1510
    -2.1507  -2.1501  -2.1497  -2.1409  -2.1402  -2.1243  -2.1238  -2.1235
    -2.1105  -2.1101  -2.1048  -2.0920  -2.0719  -2.0719  -2.0646  -2.0564
    -2.0557  -2.0509  -2.0506  -2.0477  -2.0458  -2.0454  -2.0411  -2.0409
    -2.0235  -2.0185  -2.0180  -2.0069  -2.0069  -2.0010  -1.9948  -1.9931
    -1.9928  -1.9755  -1.9745  -1.9696  -1.9691  -1.9619  -1.9614  -1.9502
    -1.9502  -1.9492  -1.9485  -1.9400  -1.9271  -1.9266  -1.9242  -1.9236
    -1.9209  -1.9199  -1.9072  -1.8824  -1.8804  -1.8801  -1.8551  -1.8545
    -1.8462  -1.8435  -1.8435  -1.8214  -1.8030  -1.8029  -1.7893  -1.7737
    -1.7736  -1.7667  -1.7605  -1.7335  -1.7332  -1.7327  -1.7323  -1.7295
    -1.7292  -1.7274  -1.7273  -1.7170  -1.7169  -1.6949  -1.6789  -1.6782
    -1.6409  -1.6405  -1.6247  -1.6157  -1.6019  -1.6018  -1.5631  -1.5628
    -1.5516  -1.5516  -1.5508  -1.5507  -1.5318  -1.5315  -1.5251  -1.5133
    -1.5133  -1.5054  -1.4989  -1.4952  -1.4900  -1.4898  -1.4795  -1.4788
    -1.4502  -1.4439  -1.4350  -1.4245  -1.4233  -1.4101  -1.4100  -1.4068
    -1.4067  -1.3910  -1.3790  -1.3783  -1.3770  -1.3765  -1.3758  -1.3696
    -1.3696  -1.3605  -1.3582  -1.3495  -1.3494  -1.3352  -1.3350  -1.3202
    -1.3197  -1.3193  -1.2644  -1.2640  -1.2559  -1.2557  -1.2535  -1.2533
    -1.2487  -1.2443  -1.2418  -1.2418  -1.2365  -1.2365  -1.2327  -1.2322
    -1.2045  -1.1990  -1.1961  -1.1871  -1.1868  -1.1860  -1.1856  -1.1813
    -1.1810  -1.1761  -1.1617  -1.1175  -1.1011  -1.1010  -1.0985  -1.0977
    -1.0974  -1.0968  -1.0960  -1.0820  -1.0664  -1.0622  -1.0619  -1.0561
    -1.0538  -1.0531  -1.0479  -1.0476  -1.0210  -1.0208  -1.0193  -1.0189
    -1.0100  -1.0096  -0.9723  -0.9667  -0.9633  -0.9601  -0.9600  -0.9590
    -0.9560  -0.9212  -0.9175  -0.9175  -0.9168  -0.9166  -0.9129  -0.9126
    -0.9121  -0.8976  -0.8925  -0.8924  -0.8871  -0.8870  -0.8832  -0.8827
    -0.8826  -0.8820  -0.8790  -0.8772  -0.8771  -0.8706  -0.8703  -0.8691
    -0.8689  -0.8669  -0.8454  -0.8411  -0.8410  -0.8314  -0.8313  -0.8184
    -0.8156  -0.8154  -0.8088  -0.8087  -0.7691  -0.7691  -0.7580  -0.7579
    -0.7097  -0.7097  -0.6971  -0.6953  -0.6873  -0.6807  -0.6456  -0.3368
    -0.3094  -0.2478  -0.2478  -0.0508  -0.0503  -0.0354  -0.0278  -0.0126
     0.2656   0.3887   0.3888   0.5106   0.5123   0.5124   0.5141   0.6256
     0.6272   0.7189   0.7592   0.8873   0.8874   0.9182   1.0198   1.0199
     1.1702   1.6116   1.6198   1.6284   1.6297   1.6338   1.6339   1.7539
     1.7542   2.0570   2.0600   2.1588   2.1593   2.2480   2.4092   2.4104
     2.4141   2.4198   2.4299   2.7707   2.8535   2.8536   3.0712   3.0836
     3.1420   3.1432   3.1974   3.1990   3.3651   3.6240   4.0829   4.0874
     4.2181   4.2303   4.4290   4.4502   4.4517   4.5657   4.7211   4.7395
     4.8560   4.9016   4.9173   4.9248   4.9345   4.9363   5.0032   5.1088
     5.1482   5.2226   5.2228   5.3812   5.4294   5.6279   5.6526   5.6877
     5.7324   5.7374   5.8226   5.8566   5.8840   5.9124   5.9357   5.9618
     5.9626   5.9899   6.0037   6.0046   6.0377   6.0584   6.1290   6.2163
     6.2381   6.2706   6.3345   6.3659   6.3978   6.5207   6.5273   6.5389
     6.5866   6.6091   6.6840   6.7428   6.7492   6.7635

          k = 0.0000-0.5774 0.0000 (183406 PWs)   bands (ev):

   -26.6106 -26.3855 -25.1398 -24.9492 -15.7754 -14.1645 -11.9381 -10.6082
    -8.9570  -8.9256  -8.4760  -8.4035  -7.9108  -7.9098  -7.4401  -7.0573
    -7.0569  -6.9583  -6.9581  -6.9233  -6.2518  -6.1534  -6.1531  -5.8412
    -5.7661  -5.7635  -5.4365  -5.3170  -5.3166  -5.3166  -5.3165  -5.0364
    -5.0139  -4.9691  -4.9531  -4.8080  -4.8067  -4.7716  -4.7304  -4.7300
    -4.7299  -4.7248  -4.5701  -4.5482  -4.5320  -4.5044  -4.4255  -4.4249
    -4.3420  -4.1123  -4.1097  -4.1080  -4.1079  -4.1073  -4.1073  -4.0443
    -4.0440  -4.0222  -4.0220  -4.0218  -4.0208  -3.9315  -3.9315  -3.9307
    -3.9306  -3.8998  -3.8918  -3.8636  -3.7804  -3.7800  -3.7800  -3.7799
    -3.6414  -3.6410  -3.5837  -3.5834  -3.5180  -3.5180  -3.5177  -3.5174
    -3.5112  -3.5111  -3.5088  -3.5088  -3.5004  -3.5002  -3.5002  -3.4998
    -3.4947  -3.4942  -3.4738  -3.4737  -3.4732  -3.4732  -3.3692  -3.3691
    -3.3144  -3.3143  -3.2781  -3.2777  -3.2773  -3.2766  -3.2642  -3.2640
    -3.2637  -3.2637  -3.2633  -3.2632  -3.1993  -3.1991  -3.1557  -3.1556
    -3.1549  -3.1546  -3.1491  -3.1480  -3.1129  -3.1128  -3.1127  -3.1126
    -3.0575  -3.0572  -2.9988  -2.9986  -2.9807  -2.9243  -2.9243  -2.9082
    -2.9080  -2.9078  -2.9073  -2.8782  -2.8781  -2.8525  -2.8524  -2.8519
    -2.8517  -2.8327  -2.8326  -2.8325  -2.8323  -2.8312  -2.8312  -2.8246
    -2.8235  -2.8191  -2.8189  -2.7157  -2.7156  -2.7154  -2.7154  -2.6671
    -2.6671  -2.6426  -2.6424  -2.6381  -2.6379  -2.6168  -2.6165  -2.5867
    -2.5862  -2.5859  -2.5855  -2.5691  -2.5686  -2.5686  -2.5683  -2.5659
    -2.5656  -2.4757  -2.4749  -2.4681  -2.4677  -2.4464  -2.4455  -2.4274
    -2.4274  -2.4157  -2.4157  -2.4152  -2.4151  -2.3892  -2.3878  -2.3701
    -2.3697  -2.3157  -2.3150  -2.3133  -2.3132  -2.3131  -2.3130  -2.2808
    -2.2801  -2.2745  -2.2732  -2.2555  -2.2549  -2.2426  -2.2425  -2.2423
    -2.2421  -2.2395  -2.2394  -2.2374  -2.2373  -2.2336  -2.2331  -2.2252
    -2.2224  -2.1939  -2.1937  -2.1934  -2.1932  -2.1756  -2.1751  -2.1625
    -2.1620  -2.1618  -2.1613  -2.1534  -2.1525  -2.1520  -2.1519  -2.1509
    -2.1508  -2.1403  -2.1394  -2.1355  -2.1348  -2.1099  -2.1096  -2.1096
    -2.1091  -2.0992  -2.0989  -2.0932  -2.0920  -2.0794  -2.0787  -2.0747
    -2.0744  -2.0433  -2.0410  -2.0346  -2.0341  -2.0331  -2.0326  -2.0242
    -2.0233  -2.0233  -2.0232  -1.9977  -1.9971  -1.9913  -1.9909  -1.9228
    -1.9218  -1.9217  -1.9214  -1.8842  -1.8834  -1.8647  -1.8644  -1.8639
    -1.8639  -1.8626  -1.8624  -1.8619  -1.8608  -1.8555  -1.8548  -1.8221
    -1.8218  -1.8046  -1.8026  -1.7922  -1.7921  -1.7890  -1.7888  -1.7883
    -1.7882  -1.7416  -1.7416  -1.7397  -1.7388  -1.6979  -1.6979  -1.6978
    -1.6975  -1.6800  -1.6793  -1.6677  -1.6667  -1.6501  -1.6501  -1.6000
    -1.5982  -1.5625  -1.5623  -1.5622  -1.5619  -1.5439  -1.5423  -1.5359
    -1.5358  -1.5197  -1.5195  -1.5195  -1.5193  -1.5079  -1.5076  -1.5074
    -1.5069  -1.4607  -1.4604  -1.4593  -1.4590  -1.4565  -1.4534  -1.4356
    -1.4354  -1.4349  -1.4345  -1.4167  -1.4159  -1.4137  -1.4123  -1.3877
    -1.3843  -1.3832  -1.3815  -1.3814  -1.3811  -1.3677  -1.3674  -1.3670
    -1.3666  -1.3532  -1.3522  -1.3269  -1.3269  -1.3267  -1.3262  -1.3119
    -1.3118  -1.2460  -1.2458  -1.2457  -1.2453  -1.2345  -1.2345  -1.2345
    -1.2341  -1.2236  -1.2226  -1.2092  -1.2035  -1.1974  -1.1969  -1.1726
    -1.1723  -1.1676  -1.1673  -1.1668  -1.1665  -1.1181  -1.1179  -1.1176
    -1.1168  -1.0962  -1.0961  -1.0956  -1.0955  -1.0878  -1.0878  -1.0874
    -1.0874  -1.0778  -1.0773  -1.0575  -1.0573  -1.0556  -1.0555  -1.0333
    -1.0330  -1.0320  -1.0319  -1.0319  -1.0317  -1.0056  -1.0050  -1.0029
    -1.0022  -0.9994  -0.9991  -0.9989  -0.9980  -0.9862  -0.9853  -0.9721
    -0.9720  -0.9686  -0.9683  -0.9645  -0.9644  -0.9643  -0.9642  -0.9463
    -0.9459  -0.9005  -0.9004  -0.8919  -0.8915  -0.8914  -0.8914  -0.8912
    -0.8907  -0.8891  -0.8890  -0.8860  -0.8847  -0.8810  -0.8807  -0.8803
    -0.8801  -0.8741  -0.8737  -0.8390  -0.8388  -0.8383  -0.8380  -0.8300
    -0.8274  -0.7957  -0.7942  -0.7618  -0.7617  -0.7611  -0.7611  -0.7562
    -0.7559  -0.7559  -0.7557  -0.7227  -0.7224  -0.6903  -0.6889  -0.6888
    -0.6885  -0.6882  -0.6830  -0.2223  -0.2212  -0.2206  -0.2194  -0.0920
    -0.0907  -0.0801  -0.0767   0.4761   0.4761   0.4764   0.4765   0.5105
     0.5322   0.8893   0.8894   0.8899   0.8900   1.1289   1.1305   1.1312
     1.1346   1.4601   1.4700   1.5155   1.5321   1.5598   1.5633   1.6771
     1.6772   1.6783   1.6790   2.8955   2.8955   2.9152   2.9204   2.9241
     2.9262   2.9302   2.9376   3.1278   3.1280   3.1318   3.1365   3.1378
     3.1458   3.5594   3.5600   3.6240   3.6254   3.8055   3.9045   3.9055
     3.9062   3.9069   4.0469   4.0480   4.2267   4.6318   4.6322   4.7604
     4.7808   4.8210   4.8412   5.0491   5.0565   5.1329   5.1419   5.1495
     5.1629   5.2828   5.2930   5.2932   5.2951   5.2954   5.3411   5.3843
     5.4622   5.5790   5.5801   5.5897   5.6903   5.7625   5.8256   5.8560
     5.8630   5.8884   5.8954   6.0588   6.1048   6.1324   6.1355   6.1359
     6.1591   6.2096   6.2511   6.2746   6.3165   6.3322   6.4194   6.4337
     6.4630   6.4925   6.6665   6.6738   6.7079   6.7084

          k = 0.2500-0.7217 0.0000 (183316 PWs)   bands (ev):

   -26.6106 -26.3855 -25.1398 -24.9492 -15.7754 -14.1645 -11.9379 -10.6082
    -8.9569  -8.9258  -8.4761  -8.4042  -8.0335  -7.5468  -7.5453  -7.4395
    -7.1755  -6.9241  -6.7082  -6.7070  -6.2516  -6.1861  -6.1860  -5.8770
    -5.8380  -5.4603  -5.4518  -5.4503  -5.4479  -5.4251  -5.3882  -5.1131
    -5.1119  -5.0360  -5.0016  -4.7807  -4.7635  -4.6316  -4.6126  -4.6113
    -4.5698  -4.5358  -4.5347  -4.5048  -4.4532  -4.4532  -4.4266  -4.4247
    -4.3424  -4.2773  -4.2688  -4.1886  -4.1883  -4.1874  -4.1821  -4.1820
    -4.0564  -4.0554  -4.0124  -3.9967  -3.9618  -3.9616  -3.9028  -3.8956
    -3.8930  -3.8703  -3.8594  -3.8580  -3.7927  -3.7924  -3.7219  -3.7214
    -3.6998  -3.6138  -3.6137  -3.5930  -3.5921  -3.5729  -3.5724  -3.5193
    -3.5188  -3.5177  -3.5176  -3.5169  -3.5162  -3.5136  -3.5058  -3.4500
    -3.4055  -3.4051  -3.3901  -3.3898  -3.3862  -3.3856  -3.3675  -3.3675
    -3.3535  -3.3531  -3.3513  -3.3324  -3.2893  -3.2891  -3.2842  -3.2790
    -3.2785  -3.2448  -3.2292  -3.2122  -3.2104  -3.2103  -3.1873  -3.1872
    -3.1577  -3.1383  -3.1373  -3.1181  -3.0839  -3.0722  -3.0715  -3.0468
    -3.0462  -3.0430  -3.0406  -3.0391  -3.0380  -3.0374  -3.0373  -2.9798
    -2.9531  -2.9226  -2.8872  -2.8858  -2.8857  -2.8775  -2.8554  -2.8500
    -2.8499  -2.8277  -2.8262  -2.8112  -2.8105  -2.7994  -2.7992  -2.7664
    -2.7661  -2.7518  -2.7514  -2.7505  -2.7504  -2.7293  -2.7290  -2.6906
    -2.6786  -2.6784  -2.6192  -2.6183  -2.5990  -2.5918  -2.5907  -2.5777
    -2.5734  -2.5517  -2.5510  -2.5495  -2.5453  -2.5300  -2.5297  -2.5292
    -2.5288  -2.5024  -2.5022  -2.4988  -2.4979  -2.4817  -2.4466  -2.4462
    -2.4443  -2.4434  -2.4108  -2.4081  -2.4017  -2.3860  -2.3733  -2.3730
    -2.3697  -2.3690  -2.3661  -2.3510  -2.3492  -2.3356  -2.3295  -2.3294
    -2.3260  -2.3145  -2.3142  -2.3113  -2.3112  -2.2828  -2.2623  -2.2525
    -2.2523  -2.2473  -2.2443  -2.2369  -2.2366  -2.2309  -2.2283  -2.2278
    -2.2241  -2.2238  -2.2107  -2.2105  -2.2099  -2.2094  -2.2003  -2.1993
    -2.1703  -2.1639  -2.1639  -2.1541  -2.1540  -2.1406  -2.1377  -2.1346
    -2.1291  -2.1289  -2.1275  -2.1239  -2.1234  -2.1105  -2.1087  -2.0888
    -2.0865  -2.0864  -2.0817  -2.0816  -2.0728  -2.0723  -2.0586  -2.0541
    -2.0508  -2.0204  -2.0165  -2.0163  -2.0130  -2.0087  -2.0072  -1.9998
    -1.9962  -1.9913  -1.9909  -1.9877  -1.9876  -1.9739  -1.9739  -1.9454
    -1.9335  -1.9334  -1.9179  -1.9044  -1.9039  -1.8753  -1.8555  -1.8554
    -1.8421  -1.8414  -1.8412  -1.8194  -1.8088  -1.8085  -1.8061  -1.8058
    -1.7925  -1.7920  -1.7905  -1.7892  -1.7795  -1.7754  -1.7513  -1.7510
    -1.7075  -1.7072  -1.6959  -1.6947  -1.6939  -1.6934  -1.6850  -1.6832
    -1.6830  -1.6823  -1.6751  -1.6748  -1.6643  -1.6630  -1.6353  -1.6352
    -1.6330  -1.6179  -1.6176  -1.6164  -1.6151  -1.6103  -1.5798  -1.5773
    -1.5685  -1.5623  -1.5623  -1.5592  -1.5407  -1.5393  -1.5314  -1.5232
    -1.4867  -1.4857  -1.4712  -1.4708  -1.4696  -1.4690  -1.4537  -1.4535
    -1.4466  -1.4464  -1.4429  -1.4262  -1.4260  -1.4229  -1.4204  -1.4173
    -1.4169  -1.4110  -1.3883  -1.3684  -1.3554  -1.3518  -1.3443  -1.3433
    -1.3285  -1.3281  -1.3202  -1.3200  -1.2908  -1.2899  -1.2703  -1.2688
    -1.2680  -1.2636  -1.2594  -1.2476  -1.2460  -1.2418  -1.2410  -1.2318
    -1.2317  -1.2309  -1.2298  -1.2251  -1.2242  -1.1970  -1.1966  -1.1888
    -1.1879  -1.1816  -1.1816  -1.1652  -1.1645  -1.1615  -1.1535  -1.1275
    -1.1274  -1.1010  -1.0942  -1.0918  -1.0913  -1.0888  -1.0885  -1.0859
    -1.0857  -1.0814  -1.0779  -1.0587  -1.0580  -1.0545  -1.0544  -1.0526
    -1.0525  -1.0438  -1.0424  -1.0422  -1.0210  -1.0209  -1.0173  -1.0148
    -1.0064  -1.0022  -1.0016  -0.9947  -0.9941  -0.9789  -0.9781  -0.9775
    -0.9647  -0.9637  -0.9628  -0.9626  -0.9614  -0.9613  -0.9567  -0.9363
    -0.9362  -0.9322  -0.9319  -0.9317  -0.9183  -0.9175  -0.9063  -0.9061
    -0.9059  -0.9058  -0.9035  -0.8980  -0.8964  -0.8921  -0.8877  -0.8870
    -0.8724  -0.8715  -0.8624  -0.8615  -0.8494  -0.8220  -0.8218  -0.8083
    -0.8081  -0.8049  -0.8047  -0.8045  -0.8043  -0.7884  -0.7883  -0.7779
    -0.7543  -0.7429  -0.7423  -0.7322  -0.6792  -0.6780  -0.6680  -0.4411
    -0.4341  -0.3996  -0.3996  -0.3015  -0.3009  -0.2520  -0.2488  -0.2010
    -0.0869  -0.0864  -0.0730  -0.0728   0.3625   0.4181   0.4212   0.5951
     0.5959   0.6108   0.6116   0.9204   0.9434   1.0998   1.2436   1.2511
     1.2526   1.2655   1.6163   1.6166   1.8084   2.0530   2.0754   2.0799
     2.0888   2.0906   2.0915   2.1353   2.1375   2.2469   2.2544   2.2788
     2.7036   2.8444   2.8449   2.9951   3.0696   3.0747   3.3197   3.3333
     3.5150   3.5158   3.6634   3.7940   3.9025   3.9045   3.9596   3.9678
     3.9703   3.9733   4.0855   4.0891   4.2784   4.4264   4.5040   4.6762
     4.7990   4.9318   4.9854   5.0304   5.0784   5.1217   5.1598   5.2118
     5.2596   5.2953   5.2991   5.3034   5.3846   5.4177   5.4379   5.4556
     5.5146   5.5485   5.5512   5.5689   5.6576   5.7018   5.7332   5.7880
     5.8756   5.9030   5.9195   6.0320   6.0862   6.1463   6.1996   6.2024
     6.2075   6.2147   6.2234   6.2580   6.2717   6.3155   6.3359   6.4660
     6.5574   6.5908   6.6004   6.6202   6.6528   6.7106

          k =-0.2500 0.1443 0.0000 (183317 PWs)   bands (ev):

   -26.6106 -26.3855 -25.1398 -24.9492 -15.7754 -14.1645 -11.9379 -10.6083
    -8.9569  -8.9258  -8.4761  -8.4042  -8.2824  -7.4401  -7.4160  -7.3090
    -6.9243  -6.8464  -6.8462  -6.4838  -6.2519  -6.1014  -6.0517  -6.0513
    -5.9925  -5.9923  -5.8390  -5.6217  -5.4357  -5.2945  -5.2943  -5.2535
    -5.0364  -5.0093  -4.9940  -4.8973  -4.8873  -4.8576  -4.7375  -4.5799
    -4.5796  -4.5695  -4.5048  -4.3598  -4.3579  -4.3510  -4.3423  -4.3394
    -4.2285  -4.1979  -4.1978  -4.1682  -4.1677  -4.1240  -4.1220  -4.0344
    -4.0344  -3.9946  -3.9946  -3.9752  -3.8737  -3.8716  -3.8698  -3.8554
    -3.8535  -3.8017  -3.8017  -3.7750  -3.7390  -3.7386  -3.6594  -3.6424
    -3.6422  -3.6293  -3.6214  -3.6213  -3.6143  -3.6135  -3.5877  -3.5871
    -3.5870  -3.5850  -3.5850  -3.5569  -3.5564  -3.5323  -3.5322  -3.4532
    -3.4532  -3.4448  -3.4239  -3.4238  -3.4166  -3.4165  -3.3987  -3.3985
    -3.3896  -3.3451  -3.3448  -3.3211  -3.3208  -3.3169  -3.3169  -3.2771
    -3.2771  -3.2689  -3.2679  -3.2200  -3.2199  -3.2108  -3.2107  -3.1710
    -3.1709  -3.1261  -3.1260  -3.0740  -3.0737  -3.0440  -3.0440  -2.9997
    -2.9995  -2.9907  -2.9805  -2.9781  -2.9779  -2.9777  -2.9772  -2.9733
    -2.9730  -2.8898  -2.8896  -2.8723  -2.8722  -2.8684  -2.8679  -2.8675
    -2.8664  -2.8013  -2.8011  -2.7965  -2.7963  -2.7843  -2.7843  -2.7790
    -2.7789  -2.7720  -2.7718  -2.7571  -2.7237  -2.7235  -2.7123  -2.7123
    -2.6944  -2.6940  -2.6940  -2.6617  -2.6617  -2.6380  -2.6379  -2.6270
    -2.6267  -2.6090  -2.5850  -2.5849  -2.5669  -2.5666  -2.5476  -2.5377
    -2.5072  -2.5072  -2.4992  -2.4987  -2.4864  -2.4782  -2.4732  -2.4578
    -2.4540  -2.4540  -2.4274  -2.4274  -2.4269  -2.4265  -2.4252  -2.4252
    -2.3805  -2.3804  -2.3547  -2.3544  -2.3524  -2.3524  -2.3476  -2.3466
    -2.3309  -2.2890  -2.2888  -2.2745  -2.2742  -2.2563  -2.2561  -2.2522
    -2.2502  -2.2487  -2.2419  -2.2312  -2.2310  -2.2306  -2.2051  -2.2044
    -2.2043  -2.1965  -2.1915  -2.1777  -2.1765  -2.1752  -2.1600  -2.1511
    -2.1508  -2.1500  -2.1497  -2.1408  -2.1402  -2.1242  -2.1238  -2.1235
    -2.1105  -2.1101  -2.1048  -2.0920  -2.0720  -2.0718  -2.0645  -2.0563
    -2.0559  -2.0509  -2.0506  -2.0477  -2.0457  -2.0455  -2.0411  -2.0410
    -2.0235  -2.0185  -2.0181  -2.0070  -2.0069  -2.0010  -1.9948  -1.9931
    -1.9928  -1.9754  -1.9746  -1.9697  -1.9692  -1.9618  -1.9615  -1.9503
    -1.9501  -1.9491  -1.9484  -1.9400  -1.9270  -1.9266  -1.9243  -1.9236
    -1.9208  -1.9201  -1.9071  -1.8824  -1.8805  -1.8801  -1.8552  -1.8545
    -1.8462  -1.8436  -1.8435  -1.8214  -1.8030  -1.8029  -1.7893  -1.7737
    -1.7736  -1.7665  -1.7603  -1.7335  -1.7333  -1.7328  -1.7323  -1.7294
    -1.7293  -1.7274  -1.7272  -1.7170  -1.7169  -1.6948  -1.6789  -1.6783
    -1.6408  -1.6405  -1.6247  -1.6155  -1.6019  -1.6018  -1.5631  -1.5627
    -1.5516  -1.5516  -1.5508  -1.5507  -1.5318  -1.5315  -1.5251  -1.5133
    -1.5132  -1.5054  -1.4990  -1.4951  -1.4900  -1.4898  -1.4794  -1.4790
    -1.4502  -1.4438  -1.4349  -1.4246  -1.4234  -1.4101  -1.4100  -1.4068
    -1.4067  -1.3911  -1.3787  -1.3785  -1.3769  -1.3766  -1.3758  -1.3696
    -1.3696  -1.3605  -1.3582  -1.3495  -1.3494  -1.3353  -1.3351  -1.3202
    -1.3196  -1.3193  -1.2643  -1.2641  -1.2559  -1.2556  -1.2534  -1.2533
    -1.2487  -1.2443  -1.2419  -1.2418  -1.2365  -1.2365  -1.2327  -1.2323
    -1.2045  -1.1990  -1.1961  -1.1870  -1.1869  -1.1859  -1.1857  -1.1812
    -1.1810  -1.1761  -1.1617  -1.1175  -1.1010  -1.1009  -1.0983  -1.0978
    -1.0974  -1.0969  -1.0960  -1.0820  -1.0664  -1.0622  -1.0620  -1.0561
    -1.0539  -1.0531  -1.0480  -1.0476  -1.0209  -1.0208  -1.0193  -1.0190
    -1.0099  -1.0096  -0.9724  -0.9667  -0.9632  -0.9600  -0.9600  -0.9590
    -0.9560  -0.9212  -0.9175  -0.9175  -0.9167  -0.9167  -0.9129  -0.9126
    -0.9121  -0.8976  -0.8925  -0.8923  -0.8871  -0.8870  -0.8832  -0.8827
    -0.8826  -0.8821  -0.8790  -0.8771  -0.8771  -0.8705  -0.8703  -0.8691
    -0.8689  -0.8669  -0.8454  -0.8412  -0.8410  -0.8314  -0.8312  -0.8184
    -0.8155  -0.8155  -0.8088  -0.8086  -0.7691  -0.7691  -0.7580  -0.7579
    -0.7097  -0.7097  -0.6969  -0.6955  -0.6873  -0.6807  -0.6455  -0.3368
    -0.3092  -0.2478  -0.2478  -0.0507  -0.0503  -0.0338  -0.0291  -0.0130
     0.2656   0.3887   0.3888   0.5110   0.5123   0.5124   0.5136   0.6259
     0.6270   0.7182   0.7601   0.8872   0.8873   0.9183   1.0197   1.0199
     1.1708   1.6116   1.6199   1.6281   1.6291   1.6338   1.6339   1.7537
     1.7540   2.0576   2.0598   2.1589   2.1592   2.2482   2.4093   2.4104
     2.4138   2.4193   2.4303   2.7714   2.8534   2.8536   3.0717   3.0831
     3.1423   3.1432   3.1970   3.1982   3.3653   3.6185   4.0830   4.0880
     4.2181   4.2301   4.4093   4.4497   4.4515   4.4576   4.6925   4.7425
     4.8229   4.9128   4.9173   4.9342   4.9347   4.9812   5.0852   5.1093
     5.1692   5.2228   5.2230   5.3357   5.5315   5.6048   5.6729   5.7207
     5.7354   5.7598   5.8252   5.8607   5.8833   5.9213   5.9549   5.9611
     5.9629   5.9694   6.0027   6.0055   6.0373   6.0632   6.1117   6.2145
     6.2428   6.3146   6.3398   6.4040   6.4456   6.4807   6.5241   6.5311
     6.5469   6.6018   6.6509   6.7296   6.7535   6.7648

          k = 0.2500 0.1443 0.0000 (183317 PWs)   bands (ev):

   -26.6106 -26.3855 -25.1398 -24.9492 -15.7754 -14.1645 -11.9379 -10.6083
    -8.9569  -8.9258  -8.4761  -8.4042  -8.2824  -7.4400  -7.4160  -7.3090
    -6.9242  -6.8465  -6.8461  -6.4838  -6.2519  -6.1014  -6.0518  -6.0513
    -5.9925  -5.9923  -5.8390  -5.6216  -5.4357  -5.2945  -5.2943  -5.2536
    -5.0363  -5.0098  -4.9939  -4.8967  -4.8870  -4.8580  -4.7379  -4.5798
    -4.5797  -4.5695  -4.5048  -4.3601  -4.3578  -4.3509  -4.3422  -4.3394
    -4.2285  -4.1979  -4.1978  -4.1682  -4.1676  -4.1239  -4.1220  -4.0344
    -4.0344  -3.9946  -3.9946  -3.9752  -3.8726  -3.8716  -3.8707  -3.8556
    -3.8535  -3.8017  -3.8017  -3.7750  -3.7390  -3.7385  -3.6594  -3.6424
    -3.6422  -3.6293  -3.6214  -3.6212  -3.6144  -3.6135  -3.5877  -3.5872
    -3.5871  -3.5850  -3.5849  -3.5569  -3.5564  -3.5323  -3.5322  -3.4532
    -3.4532  -3.4448  -3.4240  -3.4238  -3.4165  -3.4165  -3.3988  -3.3985
    -3.3896  -3.3451  -3.3448  -3.3211  -3.3208  -3.3169  -3.3169  -3.2771
    -3.2771  -3.2688  -3.2681  -3.2200  -3.2199  -3.2108  -3.2107  -3.1710
    -3.1709  -3.1261  -3.1260  -3.0740  -3.0737  -3.0441  -3.0439  -2.9997
    -2.9995  -2.9906  -2.9805  -2.9781  -2.9779  -2.9777  -2.9771  -2.9733
    -2.9730  -2.8898  -2.8896  -2.8723  -2.8722  -2.8683  -2.8679  -2.8676
    -2.8664  -2.8014  -2.8011  -2.7965  -2.7963  -2.7843  -2.7843  -2.7790
    -2.7789  -2.7719  -2.7717  -2.7571  -2.7238  -2.7235  -2.7123  -2.7123
    -2.6945  -2.6940  -2.6939  -2.6617  -2.6616  -2.6380  -2.6379  -2.6270
    -2.6267  -2.6090  -2.5850  -2.5849  -2.5670  -2.5666  -2.5476  -2.5377
    -2.5072  -2.5071  -2.4992  -2.4988  -2.4864  -2.4782  -2.4731  -2.4578
    -2.4540  -2.4540  -2.4275  -2.4273  -2.4268  -2.4265  -2.4252  -2.4251
    -2.3806  -2.3804  -2.3547  -2.3544  -2.3524  -2.3524  -2.3476  -2.3466
    -2.3309  -2.2890  -2.2888  -2.2745  -2.2742  -2.2563  -2.2561  -2.2522
    -2.2502  -2.2487  -2.2420  -2.2312  -2.2310  -2.2306  -2.2051  -2.2044
    -2.2043  -2.1965  -2.1915  -2.1776  -2.1767  -2.1752  -2.1600  -2.1510
    -2.1507  -2.1501  -2.1498  -2.1409  -2.1401  -2.1243  -2.1238  -2.1235
    -2.1105  -2.1101  -2.1048  -2.0920  -2.0720  -2.0718  -2.0645  -2.0563
    -2.0559  -2.0509  -2.0506  -2.0477  -2.0458  -2.0455  -2.0411  -2.0410
    -2.0235  -2.0184  -2.0181  -2.0070  -2.0069  -2.0010  -1.9948  -1.9931
    -1.9928  -1.9755  -1.9747  -1.9697  -1.9692  -1.9618  -1.9615  -1.9502
    -1.9501  -1.9492  -1.9482  -1.9399  -1.9271  -1.9265  -1.9243  -1.9236
    -1.9208  -1.9201  -1.9070  -1.8824  -1.8805  -1.8802  -1.8552  -1.8545
    -1.8462  -1.8436  -1.8435  -1.8214  -1.8030  -1.8029  -1.7893  -1.7737
    -1.7736  -1.7664  -1.7603  -1.7337  -1.7332  -1.7327  -1.7324  -1.7294
    -1.7293  -1.7274  -1.7272  -1.7170  -1.7169  -1.6947  -1.6789  -1.6783
    -1.6409  -1.6405  -1.6247  -1.6155  -1.6019  -1.6019  -1.5631  -1.5627
    -1.5517  -1.5516  -1.5507  -1.5506  -1.5318  -1.5315  -1.5251  -1.5133
    -1.5132  -1.5054  -1.4989  -1.4952  -1.4900  -1.4898  -1.4794  -1.4789
    -1.4502  -1.4438  -1.4349  -1.4247  -1.4234  -1.4101  -1.4100  -1.4068
    -1.4067  -1.3911  -1.3788  -1.3785  -1.3769  -1.3767  -1.3756  -1.3696
    -1.3696  -1.3605  -1.3583  -1.3495  -1.3494  -1.3353  -1.3350  -1.3202
    -1.3196  -1.3193  -1.2644  -1.2640  -1.2559  -1.2557  -1.2535  -1.2533
    -1.2487  -1.2443  -1.2419  -1.2418  -1.2365  -1.2365  -1.2327  -1.2322
    -1.2044  -1.1990  -1.1961  -1.1870  -1.1869  -1.1859  -1.1858  -1.1812
    -1.1810  -1.1760  -1.1617  -1.1175  -1.1010  -1.1009  -1.0983  -1.0978
    -1.0974  -1.0968  -1.0960  -1.0819  -1.0664  -1.0622  -1.0619  -1.0561
    -1.0539  -1.0531  -1.0480  -1.0476  -1.0209  -1.0208  -1.0194  -1.0190
    -1.0100  -1.0096  -0.9724  -0.9667  -0.9632  -0.9600  -0.9600  -0.9590
    -0.9560  -0.9212  -0.9175  -0.9175  -0.9167  -0.9167  -0.9128  -0.9126
    -0.9121  -0.8976  -0.8925  -0.8923  -0.8871  -0.8870  -0.8832  -0.8827
    -0.8826  -0.8821  -0.8790  -0.8772  -0.8771  -0.8706  -0.8703  -0.8690
    -0.8689  -0.8669  -0.8454  -0.8412  -0.8410  -0.8314  -0.8312  -0.8183
    -0.8156  -0.8155  -0.8088  -0.8086  -0.7691  -0.7691  -0.7580  -0.7579
    -0.7097  -0.7097  -0.6970  -0.6955  -0.6873  -0.6807  -0.6455  -0.3368
    -0.3092  -0.2478  -0.2478  -0.0508  -0.0503  -0.0335  -0.0294  -0.0130
     0.2657   0.3887   0.3888   0.5109   0.5123   0.5124   0.5138   0.6258
     0.6272   0.7181   0.7602   0.8872   0.8873   0.9184   1.0197   1.0198
     1.1709   1.6110   1.6203   1.6281   1.6288   1.6338   1.6339   1.7537
     1.7539   2.0575   2.0600   2.1589   2.1593   2.2483   2.4088   2.4106
     2.4144   2.4195   2.4299   2.7714   2.8534   2.8536   3.0705   3.0839
     3.1421   3.1434   3.1970   3.1981   3.3654   3.6190   4.0827   4.0885
     4.2168   4.2308   4.4183   4.4416   4.4507   4.4525   4.7023   4.7397
     4.8327   4.9136   4.9156   4.9339   4.9351   4.9955   5.0987   5.1096
     5.1830   5.2228   5.2230   5.3050   5.4977   5.6049   5.6632   5.7269
     5.7340   5.7571   5.8178   5.8688   5.8845   5.9283   5.9345   5.9621
     5.9627   5.9859   6.0026   6.0066   6.0308   6.0742   6.1123   6.2063
     6.2454   6.2957   6.3404   6.4026   6.4374   6.4792   6.5260   6.5337
     6.5441   6.5907   6.7007   6.7369   6.7569   6.7640

          k = 0.5000-0.2887 0.0000 (183406 PWs)   bands (ev):

   -26.6106 -26.3855 -25.1398 -24.9492 -15.7754 -14.1646 -11.9377 -10.6083
    -8.9570  -8.9260  -8.4760  -8.4049  -7.9111  -7.9095  -7.4391  -7.0574
    -7.0564  -6.9587  -6.9581  -6.9227  -6.2521  -6.1533  -6.1526  -5.8405
    -5.7670  -5.7638  -5.4335  -5.3169  -5.3167  -5.3166  -5.3165  -5.0364
    -5.0077  -4.9709  -4.9616  -4.8079  -4.8065  -4.7702  -4.7304  -4.7303
    -4.7298  -4.7245  -4.5704  -4.5476  -4.5320  -4.5045  -4.4251  -4.4249
    -4.3424  -4.1125  -4.1096  -4.1082  -4.1080  -4.1072  -4.1071  -4.0445
    -4.0441  -4.0225  -4.0221  -4.0217  -4.0208  -3.9316  -3.9316  -3.9306
    -3.9305  -3.8947  -3.8918  -3.8686  -3.7803  -3.7801  -3.7800  -3.7799
    -3.6414  -3.6408  -3.5839  -3.5834  -3.5180  -3.5180  -3.5177  -3.5174
    -3.5112  -3.5111  -3.5088  -3.5088  -3.5004  -3.5002  -3.5001  -3.4999
    -3.4947  -3.4941  -3.4737  -3.4737  -3.4732  -3.4732  -3.3693  -3.3690
    -3.3144  -3.3143  -3.2783  -3.2779  -3.2770  -3.2764  -3.2642  -3.2641
    -3.2637  -3.2636  -3.2632  -3.2631  -3.1993  -3.1991  -3.1559  -3.1557
    -3.1547  -3.1544  -3.1492  -3.1478  -3.1129  -3.1128  -3.1127  -3.1126
    -3.0575  -3.0573  -2.9987  -2.9986  -2.9792  -2.9244  -2.9243  -2.9081
    -2.9080  -2.9076  -2.9075  -2.8782  -2.8781  -2.8528  -2.8526  -2.8517
    -2.8516  -2.8328  -2.8326  -2.8324  -2.8324  -2.8312  -2.8312  -2.8246
    -2.8234  -2.8191  -2.8189  -2.7156  -2.7156  -2.7154  -2.7154  -2.6672
    -2.6671  -2.6426  -2.6423  -2.6381  -2.6379  -2.6168  -2.6165  -2.5869
    -2.5863  -2.5858  -2.5853  -2.5690  -2.5687  -2.5685  -2.5683  -2.5660
    -2.5655  -2.4759  -2.4746  -2.4681  -2.4677  -2.4464  -2.4454  -2.4274
    -2.4274  -2.4158  -2.4157  -2.4152  -2.4150  -2.3892  -2.3877  -2.3700
    -2.3698  -2.3157  -2.3153  -2.3134  -2.3131  -2.3130  -2.3129  -2.2808
    -2.2800  -2.2745  -2.2732  -2.2554  -2.2549  -2.2425  -2.2424  -2.2422
    -2.2422  -2.2397  -2.2395  -2.2373  -2.2370  -2.2338  -2.2329  -2.2255
    -2.2221  -2.1940  -2.1938  -2.1934  -2.1931  -2.1756  -2.1753  -2.1623
    -2.1620  -2.1616  -2.1614  -2.1535  -2.1525  -2.1521  -2.1520  -2.1508
    -2.1506  -2.1404  -2.1393  -2.1354  -2.1347  -2.1097  -2.1097  -2.1094
    -2.1093  -2.0992  -2.0989  -2.0934  -2.0918  -2.0793  -2.0789  -2.0747
    -2.0744  -2.0434  -2.0409  -2.0346  -2.0340  -2.0331  -2.0327  -2.0239
    -2.0236  -2.0233  -2.0231  -1.9977  -1.9970  -1.9913  -1.9909  -1.9226
    -1.9220  -1.9218  -1.9215  -1.8841  -1.8833  -1.8648  -1.8645  -1.8640
    -1.8639  -1.8630  -1.8623  -1.8618  -1.8605  -1.8555  -1.8548  -1.8222
    -1.8218  -1.8050  -1.8022  -1.7923  -1.7921  -1.7888  -1.7886  -1.7885
    -1.7884  -1.7417  -1.7416  -1.7398  -1.7389  -1.6979  -1.6979  -1.6977
    -1.6976  -1.6796  -1.6796  -1.6677  -1.6668  -1.6502  -1.6501  -1.6000
    -1.5981  -1.5625  -1.5623  -1.5622  -1.5619  -1.5440  -1.5421  -1.5359
    -1.5358  -1.5197  -1.5195  -1.5195  -1.5193  -1.5082  -1.5080  -1.5072
    -1.5066  -1.4606  -1.4605  -1.4594  -1.4590  -1.4564  -1.4534  -1.4357
    -1.4352  -1.4349  -1.4346  -1.4165  -1.4160  -1.4135  -1.4128  -1.3878
    -1.3844  -1.3832  -1.3816  -1.3814  -1.3808  -1.3679  -1.3674  -1.3670
    -1.3665  -1.3528  -1.3522  -1.3270  -1.3268  -1.3266  -1.3262  -1.3119
    -1.3117  -1.2461  -1.2458  -1.2456  -1.2452  -1.2346  -1.2344  -1.2344
    -1.2342  -1.2234  -1.2228  -1.2094  -1.2032  -1.1975  -1.1969  -1.1727
    -1.1722  -1.1677  -1.1672  -1.1669  -1.1666  -1.1181  -1.1178  -1.1176
    -1.1168  -1.0963  -1.0962  -1.0955  -1.0955  -1.0879  -1.0878  -1.0875
    -1.0872  -1.0778  -1.0773  -1.0574  -1.0574  -1.0557  -1.0555  -1.0332
    -1.0331  -1.0320  -1.0319  -1.0318  -1.0317  -1.0057  -1.0050  -1.0032
    -1.0019  -0.9996  -0.9996  -0.9986  -0.9978  -0.9865  -0.9851  -0.9721
    -0.9721  -0.9689  -0.9680  -0.9645  -0.9644  -0.9643  -0.9642  -0.9463
    -0.9460  -0.9005  -0.9004  -0.8918  -0.8915  -0.8914  -0.8914  -0.8913
    -0.8907  -0.8891  -0.8890  -0.8859  -0.8848  -0.8810  -0.8809  -0.8802
    -0.8800  -0.8742  -0.8736  -0.8393  -0.8392  -0.8380  -0.8377  -0.8300
    -0.8274  -0.7957  -0.7942  -0.7620  -0.7618  -0.7611  -0.7608  -0.7561
    -0.7560  -0.7558  -0.7558  -0.7227  -0.7224  -0.6906  -0.6889  -0.6887
    -0.6884  -0.6882  -0.6826  -0.2219  -0.2212  -0.2208  -0.2195  -0.0917
    -0.0908  -0.0800  -0.0770   0.4760   0.4761   0.4764   0.4766   0.5088
     0.5342   0.8892   0.8894   0.8899   0.8900   1.1291   1.1304   1.1314
     1.1344   1.4572   1.4750   1.5122   1.5325   1.5602   1.5638   1.6763
     1.6769   1.6784   1.6792   2.8955   2.8956   2.9155   2.9221   2.9240
     2.9253   2.9300   2.9345   3.1277   3.1279   3.1326   3.1363   3.1385
     3.1462   3.5596   3.5600   3.6242   3.6263   3.8347   3.9042   3.9047
     3.9065   3.9071   4.0411   4.0473   4.0484   4.6319   4.6324   4.6836
     4.7366   4.8380   4.9631   5.0335   5.0983   5.1315   5.1523   5.1565
     5.1671   5.2810   5.2921   5.2936   5.2948   5.2960   5.3553   5.3873
     5.5230   5.5794   5.5801   5.6795   5.6996   5.7595   5.8205   5.8401
     5.9166   5.9438   5.9809   6.0449   6.1236   6.1315   6.1379   6.1481
     6.2002   6.2063   6.2479   6.2570   6.3162   6.3304   6.4065   6.4353
     6.4524   6.4765   6.5551   6.6711   6.6747   6.7076

          k =-0.5000-0.2887 0.0000 (183406 PWs)   bands (ev):

   -26.6106 -26.3855 -25.1398 -24.9492 -15.7754 -14.1646 -11.9377 -10.6083
    -8.9569  -8.9260  -8.4761  -8.4049  -7.9108  -7.9099  -7.4390  -7.0570
    -7.0569  -6.9586  -6.9581  -6.9227  -6.2521  -6.1534  -6.1526  -5.8406
    -5.7658  -5.7649  -5.4335  -5.3170  -5.3166  -5.3166  -5.3165  -5.0367
    -5.0081  -4.9703  -4.9609  -4.8077  -4.8067  -4.7712  -4.7305  -4.7302
    -4.7297  -4.7244  -4.5704  -4.5471  -4.5321  -4.5046  -4.4252  -4.4250
    -4.3423  -4.1123  -4.1098  -4.1080  -4.1079  -4.1074  -4.1071  -4.0445
    -4.0441  -4.0227  -4.0221  -4.0218  -4.0207  -3.9315  -3.9312  -3.9310
    -3.9307  -3.8945  -3.8919  -3.8687  -3.7805  -3.7801  -3.7799  -3.7798
    -3.6413  -3.6410  -3.5839  -3.5834  -3.5183  -3.5181  -3.5174  -3.5173
    -3.5112  -3.5110  -3.5088  -3.5088  -3.5004  -3.5002  -3.5000  -3.4999
    -3.4945  -3.4943  -3.4739  -3.4738  -3.4731  -3.4730  -3.3695  -3.3689
    -3.3144  -3.3142  -3.2781  -3.2780  -3.2768  -3.2767  -3.2641  -3.2639
    -3.2639  -3.2637  -3.2633  -3.2632  -3.1994  -3.1990  -3.1563  -3.1556
    -3.1546  -3.1542  -3.1490  -3.1481  -3.1129  -3.1128  -3.1127  -3.1125
    -3.0575  -3.0572  -2.9987  -2.9986  -2.9793  -2.9243  -2.9243  -2.9082
    -2.9079  -2.9077  -2.9074  -2.8783  -2.8781  -2.8529  -2.8528  -2.8516
    -2.8514  -2.8328  -2.8326  -2.8324  -2.8323  -2.8313  -2.8313  -2.8242
    -2.8238  -2.8191  -2.8189  -2.7157  -2.7156  -2.7155  -2.7153  -2.6672
    -2.6671  -2.6425  -2.6424  -2.6381  -2.6379  -2.6168  -2.6165  -2.5868
    -2.5866  -2.5856  -2.5853  -2.5690  -2.5687  -2.5684  -2.5683  -2.5658
    -2.5657  -2.4761  -2.4744  -2.4680  -2.4678  -2.4462  -2.4457  -2.4274
    -2.4274  -2.4158  -2.4154  -2.4153  -2.4152  -2.3891  -2.3878  -2.3700
    -2.3698  -2.3157  -2.3154  -2.3134  -2.3132  -2.3130  -2.3127  -2.2808
    -2.2800  -2.2746  -2.2731  -2.2554  -2.2549  -2.2426  -2.2424  -2.2422
    -2.2421  -2.2398  -2.2392  -2.2375  -2.2371  -2.2337  -2.2330  -2.2253
    -2.2223  -2.1942  -2.1939  -2.1933  -2.1930  -2.1756  -2.1753  -2.1624
    -2.1622  -2.1616  -2.1613  -2.1530  -2.1529  -2.1526  -2.1523  -2.1503
    -2.1503  -2.1402  -2.1395  -2.1360  -2.1341  -2.1099  -2.1098  -2.1094
    -2.1092  -2.0992  -2.0989  -2.0934  -2.0918  -2.0792  -2.0789  -2.0747
    -2.0744  -2.0432  -2.0411  -2.0345  -2.0341  -2.0331  -2.0327  -2.0240
    -2.0235  -2.0234  -2.0230  -1.9975  -1.9973  -1.9913  -1.9909  -1.9226
    -1.9221  -1.9217  -1.9215  -1.8842  -1.8832  -1.8648  -1.8644  -1.8641
    -1.8639  -1.8629  -1.8623  -1.8616  -1.8606  -1.8555  -1.8548  -1.8222
    -1.8218  -1.8049  -1.8022  -1.7922  -1.7921  -1.7893  -1.7892  -1.7880
    -1.7877  -1.7416  -1.7416  -1.7398  -1.7389  -1.6980  -1.6980  -1.6976
    -1.6975  -1.6803  -1.6788  -1.6677  -1.6669  -1.6502  -1.6501  -1.6003
    -1.5978  -1.5625  -1.5623  -1.5622  -1.5619  -1.5439  -1.5423  -1.5360
    -1.5358  -1.5197  -1.5195  -1.5195  -1.5193  -1.5087  -1.5076  -1.5073
    -1.5066  -1.4606  -1.4605  -1.4594  -1.4589  -1.4565  -1.4532  -1.4360
    -1.4358  -1.4346  -1.4341  -1.4165  -1.4160  -1.4135  -1.4128  -1.3880
    -1.3842  -1.3833  -1.3815  -1.3815  -1.3807  -1.3675  -1.3674  -1.3669
    -1.3669  -1.3528  -1.3520  -1.3270  -1.3269  -1.3267  -1.3261  -1.3120
    -1.3117  -1.2460  -1.2457  -1.2456  -1.2453  -1.2347  -1.2345  -1.2344
    -1.2341  -1.2234  -1.2228  -1.2096  -1.2029  -1.1973  -1.1970  -1.1730
    -1.1720  -1.1677  -1.1676  -1.1666  -1.1664  -1.1181  -1.1179  -1.1176
    -1.1167  -1.0962  -1.0961  -1.0956  -1.0955  -1.0882  -1.0877  -1.0874
    -1.0870  -1.0779  -1.0772  -1.0575  -1.0573  -1.0557  -1.0555  -1.0334
    -1.0332  -1.0320  -1.0318  -1.0318  -1.0317  -1.0056  -1.0050  -1.0030
    -1.0022  -1.0001  -0.9992  -0.9982  -0.9980  -0.9865  -0.9851  -0.9721
    -0.9720  -0.9690  -0.9679  -0.9645  -0.9644  -0.9643  -0.9642  -0.9463
    -0.9460  -0.9005  -0.9004  -0.8917  -0.8916  -0.8914  -0.8913  -0.8913
    -0.8909  -0.8891  -0.8890  -0.8859  -0.8848  -0.8809  -0.8808  -0.8802
    -0.8802  -0.8744  -0.8735  -0.8396  -0.8388  -0.8382  -0.8377  -0.8298
    -0.8276  -0.7955  -0.7944  -0.7620  -0.7616  -0.7612  -0.7609  -0.7562
    -0.7560  -0.7558  -0.7558  -0.7227  -0.7224  -0.6905  -0.6889  -0.6888
    -0.6886  -0.6881  -0.6825  -0.2219  -0.2213  -0.2207  -0.2194  -0.0916
    -0.0909  -0.0801  -0.0770   0.4759   0.4759   0.4765   0.4766   0.5087
     0.5344   0.8893   0.8894   0.8897   0.8899   1.1292   1.1302   1.1312
     1.1348   1.4571   1.4757   1.5113   1.5328   1.5611   1.5631   1.6765
     1.6769   1.6784   1.6789   2.8955   2.8956   2.9144   2.9221   2.9244
     2.9263   2.9291   2.9341   3.1277   3.1280   3.1323   3.1364   3.1386
     3.1465   3.5595   3.5602   3.6230   3.6272   3.8383   3.9043   3.9046
     3.9063   3.9069   4.0358   4.0471   4.0485   4.6320   4.6324   4.6809
     4.7828   4.8269   4.9899   5.0321   5.0951   5.1325   5.1512   5.1600
     5.1664   5.2741   5.2924   5.2927   5.2951   5.2965   5.3494   5.3999
     5.5044   5.5798   5.5801   5.6418   5.6739   5.7550   5.8149   5.8362
     5.8980   5.9506   5.9920   6.0597   6.1182   6.1221   6.1334   6.1404
     6.1669   6.2170   6.2203   6.2881   6.3135   6.3482   6.3868   6.4119
     6.4606   6.4753   6.5906   6.6709   6.6751   6.7077

          k =-0.2500-0.7217 0.0000 (183316 PWs)   bands (ev):

   -26.6106 -26.3855 -25.1398 -24.9492 -15.7754 -14.1645 -11.9379 -10.6082
    -8.9570  -8.9258  -8.4760  -8.4042  -8.0335  -7.5465  -7.5456  -7.4395
    -7.1755  -6.9241  -6.7080  -6.7071  -6.2516  -6.1862  -6.1859  -5.8770
    -5.8381  -5.4598  -5.4518  -5.4502  -5.4483  -5.4254  -5.3881  -5.1129
    -5.1121  -5.0360  -5.0016  -4.7800  -4.7639  -4.6319  -4.6125  -4.6117
    -4.5694  -4.5357  -4.5349  -4.5047  -4.4532  -4.4532  -4.4265  -4.4249
    -4.3423  -4.2772  -4.2689  -4.1886  -4.1883  -4.1874  -4.1821  -4.1820
    -4.0563  -4.0554  -4.0124  -3.9967  -3.9618  -3.9616  -3.9028  -3.8955
    -3.8931  -3.8702  -3.8595  -3.8581  -3.7928  -3.7924  -3.7219  -3.7213
    -3.6998  -3.6138  -3.6137  -3.5930  -3.5921  -3.5729  -3.5724  -3.5194
    -3.5188  -3.5177  -3.5176  -3.5169  -3.5162  -3.5136  -3.5058  -3.4500
    -3.4056  -3.4050  -3.3903  -3.3897  -3.3860  -3.3858  -3.3675  -3.3674
    -3.3535  -3.3532  -3.3513  -3.3325  -3.2893  -3.2891  -3.2842  -3.2790
    -3.2785  -3.2448  -3.2292  -3.2123  -3.2106  -3.2100  -3.1873  -3.1873
    -3.1577  -3.1384  -3.1373  -3.1181  -3.0839  -3.0722  -3.0715  -3.0469
    -3.0462  -3.0430  -3.0405  -3.0393  -3.0380  -3.0374  -3.0373  -2.9798
    -2.9531  -2.9226  -2.8872  -2.8858  -2.8857  -2.8775  -2.8553  -2.8500
    -2.8499  -2.8274  -2.8265  -2.8111  -2.8106  -2.7995  -2.7991  -2.7663
    -2.7662  -2.7517  -2.7515  -2.7504  -2.7504  -2.7293  -2.7290  -2.6906
    -2.6786  -2.6785  -2.6192  -2.6184  -2.5990  -2.5917  -2.5908  -2.5777
    -2.5734  -2.5517  -2.5510  -2.5495  -2.5453  -2.5299  -2.5297  -2.5291
    -2.5289  -2.5024  -2.5022  -2.4988  -2.4980  -2.4817  -2.4466  -2.4461
    -2.4443  -2.4434  -2.4108  -2.4081  -2.4017  -2.3859  -2.3732  -2.3730
    -2.3695  -2.3692  -2.3662  -2.3509  -2.3492  -2.3356  -2.3296  -2.3293
    -2.3260  -2.3145  -2.3142  -2.3113  -2.3113  -2.2829  -2.2623  -2.2524
    -2.2523  -2.2474  -2.2443  -2.2370  -2.2366  -2.2309  -2.2283  -2.2279
    -2.2241  -2.2237  -2.2107  -2.2105  -2.2098  -2.2096  -2.2003  -2.1992
    -2.1703  -2.1639  -2.1639  -2.1541  -2.1540  -2.1406  -2.1378  -2.1346
    -2.1290  -2.1289  -2.1274  -2.1240  -2.1234  -2.1104  -2.1088  -2.0888
    -2.0869  -2.0860  -2.0817  -2.0816  -2.0727  -2.0723  -2.0586  -2.0541
    -2.0508  -2.0204  -2.0171  -2.0157  -2.0130  -2.0086  -2.0073  -1.9998
    -1.9962  -1.9915  -1.9908  -1.9877  -1.9876  -1.9739  -1.9739  -1.9454
    -1.9338  -1.9332  -1.9179  -1.9044  -1.9039  -1.8753  -1.8556  -1.8554
    -1.8422  -1.8414  -1.8412  -1.8194  -1.8091  -1.8082  -1.8065  -1.8054
    -1.7928  -1.7916  -1.7905  -1.7892  -1.7795  -1.7754  -1.7513  -1.7510
    -1.7076  -1.7071  -1.6957  -1.6947  -1.6940  -1.6934  -1.6848  -1.6833
    -1.6828  -1.6825  -1.6750  -1.6748  -1.6642  -1.6632  -1.6353  -1.6350
    -1.6332  -1.6177  -1.6177  -1.6165  -1.6152  -1.6104  -1.5796  -1.5775
    -1.5685  -1.5623  -1.5623  -1.5592  -1.5407  -1.5393  -1.5314  -1.5232
    -1.4867  -1.4857  -1.4712  -1.4707  -1.4694  -1.4691  -1.4537  -1.4535
    -1.4466  -1.4465  -1.4427  -1.4265  -1.4260  -1.4227  -1.4203  -1.4173
    -1.4169  -1.4110  -1.3883  -1.3684  -1.3554  -1.3518  -1.3443  -1.3433
    -1.3285  -1.3281  -1.3202  -1.3200  -1.2907  -1.2900  -1.2703  -1.2687
    -1.2680  -1.2636  -1.2594  -1.2477  -1.2458  -1.2418  -1.2410  -1.2318
    -1.2317  -1.2309  -1.2298  -1.2251  -1.2242  -1.1970  -1.1966  -1.1889
    -1.1878  -1.1817  -1.1816  -1.1652  -1.1645  -1.1615  -1.1536  -1.1275
    -1.1274  -1.1010  -1.0942  -1.0918  -1.0913  -1.0888  -1.0885  -1.0859
    -1.0857  -1.0814  -1.0780  -1.0585  -1.0582  -1.0545  -1.0544  -1.0526
    -1.0525  -1.0438  -1.0424  -1.0423  -1.0210  -1.0209  -1.0173  -1.0147
    -1.0064  -1.0021  -1.0017  -0.9948  -0.9940  -0.9791  -0.9779  -0.9775
    -0.9648  -0.9636  -0.9629  -0.9624  -0.9614  -0.9613  -0.9567  -0.9363
    -0.9362  -0.9322  -0.9319  -0.9317  -0.9183  -0.9175  -0.9064  -0.9061
    -0.9059  -0.9057  -0.9035  -0.8980  -0.8964  -0.8921  -0.8876  -0.8871
    -0.8723  -0.8716  -0.8624  -0.8616  -0.8494  -0.8220  -0.8218  -0.8083
    -0.8082  -0.8049  -0.8048  -0.8046  -0.8042  -0.7884  -0.7883  -0.7779
    -0.7543  -0.7429  -0.7423  -0.7322  -0.6792  -0.6780  -0.6680  -0.4411
    -0.4341  -0.3996  -0.3996  -0.3013  -0.3011  -0.2521  -0.2488  -0.2010
    -0.0870  -0.0863  -0.0730  -0.0728   0.3624   0.4182   0.4213   0.5950
     0.5960   0.6108   0.6115   0.9203   0.9435   1.0997   1.2436   1.2511
     1.2526   1.2652   1.6164   1.6166   1.8084   2.0526   2.0756   2.0803
     2.0888   2.0908   2.0914   2.1351   2.1375   2.2470   2.2544   2.2790
     2.7037   2.8443   2.8449   2.9952   3.0696   3.0745   3.3197   3.3334
     3.5152   3.5155   3.6634   3.7931   3.9026   3.9045   3.9615   3.9676
     3.9704   3.9720   4.0853   4.0893   4.2822   4.4204   4.5039   4.6712
     4.7989   4.9197   4.9854   5.0326   5.0919   5.1216   5.1479   5.1965
     5.2654   5.2971   5.2991   5.3068   5.3873   5.4177   5.4422   5.4532
     5.5150   5.5497   5.5528   5.5848   5.6661   5.6914   5.7299   5.7927
     5.8609   5.9003   5.9062   6.0444   6.0971   6.1849   6.2004   6.2026
     6.2079   6.2169   6.2282   6.2535   6.2730   6.3034   6.3718   6.4746
     6.5429   6.5788   6.5869   6.6175   6.6756   6.6968

          k =-0.5000-0.5774 0.0000 (183316 PWs)   bands (ev):

   -26.6106 -26.3855 -25.1398 -24.9492 -15.7754 -14.1646 -11.9377 -10.6083
    -8.9569  -8.9260  -8.4761  -8.4049  -8.0335  -7.5465  -7.5456  -7.4390
    -7.1754  -6.9239  -6.7079  -6.7072  -6.2517  -6.1862  -6.1858  -5.8769
    -5.8384  -5.4565  -5.4513  -5.4509  -5.4478  -5.4276  -5.3879  -5.1129
    -5.1122  -5.0363  -5.0028  -4.7790  -4.7644  -4.6319  -4.6125  -4.6113
    -4.5697  -4.5359  -4.5348  -4.5049  -4.4532  -4.4532  -4.4265  -4.4251
    -4.3419  -4.2771  -4.2690  -4.1885  -4.1882  -4.1874  -4.1821  -4.1820
    -4.0562  -4.0558  -4.0124  -3.9971  -3.9618  -3.9617  -3.9028  -3.8950
    -3.8934  -3.8689  -3.8595  -3.8593  -3.7927  -3.7925  -3.7218  -3.7214
    -3.6998  -3.6139  -3.6137  -3.5929  -3.5920  -3.5731  -3.5725  -3.5193
    -3.5188  -3.5177  -3.5176  -3.5169  -3.5163  -3.5136  -3.5058  -3.4499
    -3.4055  -3.4051  -3.3901  -3.3898  -3.3861  -3.3857  -3.3675  -3.3674
    -3.3535  -3.3531  -3.3513  -3.3325  -3.2893  -3.2891  -3.2842  -3.2790
    -3.2785  -3.2448  -3.2292  -3.2122  -3.2104  -3.2103  -3.1873  -3.1872
    -3.1577  -3.1383  -3.1373  -3.1181  -3.0839  -3.0721  -3.0715  -3.0468
    -3.0462  -3.0430  -3.0404  -3.0394  -3.0380  -3.0373  -3.0373  -2.9791
    -2.9530  -2.9226  -2.8872  -2.8858  -2.8857  -2.8775  -2.8554  -2.8500
    -2.8499  -2.8276  -2.8263  -2.8113  -2.8104  -2.7994  -2.7991  -2.7664
    -2.7662  -2.7517  -2.7515  -2.7505  -2.7504  -2.7293  -2.7290  -2.6905
    -2.6786  -2.6784  -2.6191  -2.6185  -2.5990  -2.5918  -2.5908  -2.5777
    -2.5733  -2.5516  -2.5511  -2.5495  -2.5453  -2.5300  -2.5299  -2.5291
    -2.5287  -2.5024  -2.5022  -2.4988  -2.4980  -2.4817  -2.4465  -2.4462
    -2.4442  -2.4434  -2.4108  -2.4081  -2.4017  -2.3860  -2.3733  -2.3730
    -2.3697  -2.3691  -2.3660  -2.3509  -2.3493  -2.3356  -2.3295  -2.3295
    -2.3258  -2.3146  -2.3142  -2.3113  -2.3112  -2.2828  -2.2623  -2.2526
    -2.2523  -2.2470  -2.2446  -2.2368  -2.2367  -2.2310  -2.2283  -2.2278
    -2.2240  -2.2238  -2.2107  -2.2106  -2.2098  -2.2095  -2.2003  -2.1993
    -2.1703  -2.1639  -2.1639  -2.1542  -2.1540  -2.1404  -2.1380  -2.1347
    -2.1290  -2.1289  -2.1275  -2.1237  -2.1234  -2.1104  -2.1088  -2.0887
    -2.0866  -2.0863  -2.0817  -2.0816  -2.0728  -2.0723  -2.0586  -2.0542
    -2.0509  -2.0204  -2.0167  -2.0163  -2.0130  -2.0086  -2.0073  -1.9997
    -1.9962  -1.9913  -1.9909  -1.9877  -1.9876  -1.9740  -1.9739  -1.9454
    -1.9334  -1.9334  -1.9179  -1.9043  -1.9040  -1.8753  -1.8556  -1.8554
    -1.8422  -1.8414  -1.8412  -1.8194  -1.8088  -1.8085  -1.8064  -1.8056
    -1.7925  -1.7919  -1.7904  -1.7893  -1.7795  -1.7754  -1.7513  -1.7511
    -1.7074  -1.7072  -1.6961  -1.6946  -1.6940  -1.6934  -1.6846  -1.6834
    -1.6831  -1.6824  -1.6750  -1.6748  -1.6642  -1.6630  -1.6353  -1.6351
    -1.6332  -1.6178  -1.6174  -1.6164  -1.6154  -1.6103  -1.5798  -1.5773
    -1.5685  -1.5624  -1.5623  -1.5592  -1.5406  -1.5394  -1.5314  -1.5233
    -1.4866  -1.4858  -1.4710  -1.4709  -1.4696  -1.4690  -1.4537  -1.4536
    -1.4466  -1.4462  -1.4432  -1.4262  -1.4260  -1.4228  -1.4205  -1.4173
    -1.4169  -1.4110  -1.3883  -1.3683  -1.3553  -1.3518  -1.3442  -1.3433
    -1.3284  -1.3281  -1.3202  -1.3200  -1.2906  -1.2900  -1.2701  -1.2690
    -1.2680  -1.2636  -1.2594  -1.2475  -1.2460  -1.2417  -1.2412  -1.2318
    -1.2317  -1.2306  -1.2300  -1.2253  -1.2241  -1.1969  -1.1967  -1.1887
    -1.1880  -1.1817  -1.1816  -1.1650  -1.1647  -1.1613  -1.1535  -1.1276
    -1.1274  -1.1011  -1.0942  -1.0917  -1.0914  -1.0888  -1.0885  -1.0859
    -1.0857  -1.0812  -1.0780  -1.0586  -1.0582  -1.0545  -1.0544  -1.0527
    -1.0524  -1.0437  -1.0424  -1.0422  -1.0210  -1.0209  -1.0173  -1.0148
    -1.0064  -1.0020  -1.0017  -0.9945  -0.9944  -0.9788  -0.9782  -0.9775
    -0.9648  -0.9637  -0.9627  -0.9627  -0.9614  -0.9613  -0.9567  -0.9363
    -0.9362  -0.9322  -0.9319  -0.9318  -0.9182  -0.9175  -0.9063  -0.9062
    -0.9059  -0.9057  -0.9036  -0.8980  -0.8964  -0.8921  -0.8877  -0.8871
    -0.8722  -0.8717  -0.8623  -0.8616  -0.8494  -0.8220  -0.8218  -0.8083
    -0.8081  -0.8049  -0.8048  -0.8046  -0.8042  -0.7884  -0.7883  -0.7779
    -0.7543  -0.7430  -0.7422  -0.7322  -0.6794  -0.6780  -0.6679  -0.4407
    -0.4345  -0.3996  -0.3996  -0.3014  -0.3010  -0.2515  -0.2491  -0.2008
    -0.0870  -0.0864  -0.0730  -0.0728   0.3632   0.4175   0.4209   0.5948
     0.5960   0.6108   0.6117   0.9224   0.9412   1.1002   1.2426   1.2511
     1.2535   1.2662   1.6164   1.6166   1.8084   2.0576   2.0746   2.0785
     2.0852   2.0907   2.0913   2.1354   2.1380   2.2465   2.2545   2.2786
     2.7034   2.8445   2.8447   2.9949   3.0696   3.0754   3.3225   3.3315
     3.5152   3.5156   3.6635   3.8010   3.9027   3.9043   3.9600   3.9656
     3.9706   3.9716   4.0862   4.0873   4.1431   4.5040   4.5312   4.6604
     4.7990   4.9210   4.9854   5.0204   5.0762   5.1218   5.1639   5.1862
     5.2384   5.2976   5.2992   5.3018   5.3719   5.4176   5.4404   5.4591
     5.4713   5.5491   5.5511   5.6043   5.7071   5.7342   5.8163   5.8453
     5.8771   5.9027   5.9627   6.0403   6.1383   6.1835   6.1978   6.2008
     6.2025   6.2165   6.2257   6.2688   6.2758   6.3113   6.3928   6.4484
     6.5157   6.5423   6.5917   6.6052   6.6352   6.6556

     the Fermi energy is     0.6878 ev

!    total energy              =  -17322.00544968 Ry
     estimated scf accuracy    <          3.5E-11 Ry
     smearing contrib. (-TS)   =      -0.01035029 Ry
     internal energy E=F+TS    =  -17321.99509939 Ry

     The total energy is F=E-TS. E is the sum of the following terms:
     one-electron contribution = -199459.33421360 Ry
     hartree contribution      =  100691.73339732 Ry
     xc contribution           =   -3628.66814887 Ry
     ewald contribution        =   92286.33576834 Ry
     one-center paw contrib.   =   -7212.06190258 Ry

     convergence has been achieved in  16 iterations

     negative rho (up, down):  2.837E-03 0.000E+00

     Forces acting on atoms (cartesian axes, Ry/au):

     atom    1 type  1   force =    -0.00001525   -0.00001432   -0.00006686
     atom    2 type  1   force =     0.00003113   -0.00000974   -0.00005128
     atom    3 type  1   force =     0.00001916    0.00004981   -0.00005401
     atom    4 type  1   force =    -0.00003330    0.00004748   -0.00005668
     atom    5 type  1   force =     0.00001539    0.00001858   -0.00005418
     atom    6 type  1   force =     0.00005234    0.00001779   -0.00006001
     atom    7 type  1   force =     0.00000592    0.00002861   -0.00006059
     atom    8 type  1   force =    -0.00007257    0.00002984   -0.00005785
     atom    9 type  1   force =     0.00004868   -0.00001548   -0.00005575
     atom   10 type  1   force =     0.00004743   -0.00001741   -0.00006211
     atom   11 type  1   force =    -0.00005239   -0.00001944   -0.00004621
     atom   12 type  1   force =    -0.00004348   -0.00001624   -0.00005944
     atom   13 type  1   force =     0.00002771   -0.00003236   -0.00005859
     atom   14 type  1   force =     0.00001012   -0.00007225   -0.00004442
     atom   15 type  1   force =    -0.00004515   -0.00001769   -0.00005337
     atom   16 type  1   force =     0.00000842    0.00002139   -0.00006858
     atom   17 type  1   force =     0.00000687   -0.00002994   -0.00014941
     atom   18 type  1   force =     0.00000377   -0.00003193   -0.00014826
     atom   19 type  1   force =    -0.00000631    0.00000290   -0.00015237
     atom   20 type  1   force =    -0.00000346    0.00000787   -0.00017396
     atom   21 type  1   force =    -0.00000263   -0.00001685   -0.00019453
     atom   22 type  1   force =     0.00004911    0.00002260   -0.00012308
     atom   23 type  1   force =    -0.00001593    0.00005605   -0.00007094
     atom   24 type  1   force =    -0.00002816    0.00001746   -0.00013869
     atom   25 type  1   force =     0.00006144    0.00001039   -0.00013672
     atom   26 type  1   force =     0.00004635    0.00001233   -0.00002669
     atom   27 type  1   force =    -0.00005823    0.00002335   -0.00001433
     atom   28 type  1   force =    -0.00004837    0.00001241   -0.00016068
     atom   29 type  1   force =     0.00005101   -0.00003134   -0.00009845
     atom   30 type  1   force =    -0.00000144   -0.00005870   -0.00002258
     atom   31 type  1   force =    -0.00003560   -0.00001373   -0.00009100
     atom   32 type  1   force =    -0.00001121    0.00001644   -0.00016922
     atom   33 type  1   force =     0.00001430   -0.00001001   -0.00014240
     atom   34 type  1   force =    -0.00000795   -0.00001997   -0.00012651
     atom   35 type  1   force =    -0.00000039   -0.00001171   -0.00011939
     atom   36 type  1   force =    -0.00000342   -0.00000756   -0.00013469
     atom   37 type  1   force =    -0.00001101   -0.00001959   -0.00020757
     atom   38 type  1   force =     0.00000404   -0.00000608   -0.00010409
     atom   39 type  1   force =     0.00000612   -0.00000793   -0.00015708
     atom   40 type  1   force =     0.00000294    0.00000306   -0.00012658
     atom   41 type  1   force =     0.00000432    0.00000199   -0.00010851
     atom   42 type  1   force =     0.00000702    0.00000670   -0.00005925
     atom   43 type  1   force =     0.00000511    0.00000993   -0.00008652
     atom   44 type  1   force =    -0.00001677    0.00000608   -0.00015211
     atom   45 type  1   force =     0.00000931    0.00001995   -0.00015966
     atom   46 type  1   force =     0.00000797    0.00001234   -0.00013308
     atom   47 type  1   force =    -0.00000799    0.00000729    0.00000264
     atom   48 type  1   force =    -0.00000739    0.00001516   -0.00010192
     atom   49 type  1   force =    -0.00001825   -0.00001773    0.00004140
     atom   50 type  1   force =     0.00003647    0.00000110    0.00009880
     atom   51 type  1   force =     0.00002218   -0.00002194   -0.00000585
     atom   52 type  1   force =    -0.00003399    0.00001730    0.00005771
     atom   53 type  1   force =     0.00002677    0.00003692    0.00014163
     atom   54 type  1   force =     0.00001599    0.00000613   -0.00017181
     atom   55 type  1   force =     0.00002552    0.00000056   -0.00031044
     atom   56 type  1   force =    -0.00006617    0.00001840   -0.00003382
     atom   57 type  1   force =    -0.00000847    0.00000997    0.00008413
     atom   58 type  1   force =     0.00001300    0.00002121   -0.00026866
     atom   59 type  1   force =     0.00000337    0.00002068   -0.00014391
     atom   60 type  1   force =    -0.00000825   -0.00001679    0.00011603
     atom   61 type  1   force =     0.00000834   -0.00002037    0.00005699
     atom   62 type  1   force =     0.00001574   -0.00005743    0.00000231
     atom   63 type  1   force =    -0.00003912   -0.00001150    0.00010079
     atom   64 type  1   force =     0.00001783    0.00003112    0.00015803
     atom   65 type  1   force =     0.00003755   -0.00013368    0.00006862
     atom   66 type  1   force =    -0.00003937   -0.00012426    0.00002884
     atom   67 type  1   force =    -0.00003842    0.00004164    0.00005564
     atom   68 type  1   force =     0.00004357    0.00004980    0.00001897
     atom   69 type  1   force =    -0.00003360   -0.00005141   -0.00005386
     atom   70 type  1   force =     0.00025882    0.00029296    0.00014516
     atom   71 type  1   force =    -0.00010987    0.00050151    0.00029787
     atom   72 type  1   force =    -0.00011495    0.00015332    0.00008240
     atom   73 type  1   force =     0.00040190   -0.00000851    0.00014854
     atom   74 type  1   force =     0.00026935    0.00003027    0.00034503
     atom   75 type  1   force =    -0.00039575    0.00005929    0.00033491
     atom   76 type  1   force =    -0.00027080   -0.00000058    0.00003897
     atom   77 type  1   force =     0.00039579   -0.00025452    0.00020610
     atom   78 type  1   force =    -0.00013797   -0.00041737    0.00033073
     atom   79 type  1   force =    -0.00020673   -0.00014126    0.00011595
     atom   80 type  1   force =    -0.00004655    0.00002565    0.00001981
     atom   81 type  2   force =     0.00022284   -0.00018506   -0.00007875
     atom   82 type  2   force =    -0.00103223    0.00110731    0.00125455
     atom   83 type  3   force =     0.00053808    0.00015509    0.00025936
     atom   84 type  3   force =    -0.00006571   -0.00004545    0.00012720
     atom   85 type  3   force =    -0.00002253   -0.00005110   -0.00033425
     atom   86 type  2   force =     0.00017104   -0.00011336   -0.00008085
     atom   87 type  4   force =    -0.00006765    0.00011853   -0.00073591
     atom   88 type  3   force =     0.00043558    0.00026673    0.00105420
     atom   89 type  2   force =    -0.00017800   -0.00017187    0.00016876
     atom   90 type  4   force =    -0.00000833   -0.00075781   -0.00050663
     atom   91 type  3   force =     0.00022738   -0.00073780    0.00037374
     atom   92 type  4   force =     0.00001861   -0.00020508    0.00016038
     atom   93 type  4   force =    -0.00029456    0.00060814    0.00049265
     atom   94 type  3   force =     0.00001392   -0.00002630    0.00043612

     Total force =     0.003473     Total SCF correction =     0.000037


     Computing stress (Cartesian axis) and pressure


     negative rho (up, down):  2.837E-03 0.000E+00
          total   stress  (Ry/bohr**3)                   (kbar)     P=       -2.31
  -0.00002464  -0.00000003   0.00000011           -3.62       -0.00        0.02
  -0.00000003  -0.00002470  -0.00000014           -0.00       -3.63       -0.02
   0.00000011  -0.00000014   0.00000224            0.02       -0.02        0.33

     Energy error            =      3.4E-05 Ry
     Gradient error          =      1.3E-03 Ry/Bohr

     number of scf cycles    =   8
     number of bfgs steps    =   7

     energy             old  =  -17322.0054154060 Ry
     energy             new  =  -17322.0054496816 Ry

     CASE: energy            _new < energy            _old

     new trust radius        =       0.0037496230 bohr
     new conv_thr            =            1.0E-10 Ry


ATOMIC_POSITIONS (angstrom)
Cu              10.2107940576        1.4738568085       14.9898281966
Cu               2.5524141902        1.4738002522       14.9895285012
Cu               5.1051365776        1.4733479969       14.9893512594
Cu               7.6582261541        1.4733552225       14.9892697598
Cu              11.4868386935        3.6842702787       14.9893945212
Cu               3.8285006468        3.6842362306       14.9894975771
Cu               6.3816349848        3.6841572677       14.9895181301
Cu               8.9349211852        3.6841972617       14.9894758514
Cu              12.7628752648        5.8952221726       14.9892406387
Cu               5.1049548925        5.8953334452       14.9895264044
Cu               7.6583967581        5.8953245674       14.9893403066
Cu              10.2109731809        5.8952282318       14.9894691691
Cu              14.0394003297        8.1060553386       14.9893777560
Cu               6.3816107672        8.1063860432       14.9893683539
Cu               8.9346011304        8.1059472999       14.9894744335
Cu              11.4868907059        8.1056167037       14.9895364127
Cu              -0.0000951696       -0.0002181052       17.0786143492
Cu               2.5527624395       -0.0001844052       17.0786668091
Cu               5.1054179480        0.0000318297       17.0786104349
Cu               7.6578734452       -0.0000216094       17.0786025945
Cu               1.2764644545        2.2107897309       17.0788243209
Cu               3.8290586328        2.2106178252       17.0784567950
Cu               6.3817482402        2.2105283504       17.0782090381
Cu               8.9339991517        2.2106865192       17.0785150645
Cu               2.5525542168        4.4214524545       17.0784665385
Cu               5.1053314160        4.4213509067       17.0779680502
Cu               7.6580658493        4.4213015010       17.0780742388
Cu              10.2106382400        4.4215228198       17.0786661595
Cu               3.8288898385        6.6320918561       17.0782903094
Cu               6.3816970758        6.6320800938       17.0781335558
Cu               8.9342585364        6.6319903562       17.0784534721
Cu              11.4870373245        6.6319858817       17.0786489664
Cu               1.2761685178        0.7366148505       19.1675792112
Cu               3.8291023226        0.7368029267       19.1682033369
Cu               6.3816552070        0.7371450042       19.1685094265
Cu               8.9343528279        0.7369277280       19.1679071627
Cu               2.5533378476        2.9478403560       19.1682115265
Cu               5.1058452039        2.9480769328       19.1690516365
Cu               7.6573818926        2.9482018982       19.1696491910
Cu              10.2100414114        2.9475332464       19.1674725652
Cu               3.8297648299        5.1582073393       19.1688085359
Cu               6.3815948417        5.1581002763       19.1699337496
Cu               8.9337044768        5.1582200143       19.1692436437
Cu              11.4868406790        5.1583715678       19.1681886001
Cu               5.1054877255        7.3680620363       19.1693719022
Cu               7.6577835112        7.3682992092       19.1694884593
Cu              10.2104300498        7.3687977430       19.1680893117
Cu              12.7634973211        7.3690048919       19.1681843874
Cu              10.2112059780        1.4740257630       21.2568258498
Cu               2.5516071236        1.4734775737       21.2559470172
Cu               5.1047175804        1.4730179957       21.2570142666
Cu               7.6591051054        1.4729070666       21.2568821966
Cu              11.4862348632        3.6835745623       21.2551695116
Cu               3.8280542349        3.6839248676       21.2581878419
Cu               6.3817806528        3.6841176832       21.2609202354
Cu               8.9358708908        3.6837691635       21.2583466896
Cu              12.7625734325        5.8952839864       21.2561599979
Cu               5.1049348050        5.8957356145       21.2604676009
Cu               7.6587394880        5.8954642081       21.2600796782
Cu              10.2109327516        5.8952136484       21.2582345575
Cu              14.0395344175        8.1068180334       21.2572825501
Cu               6.3816243468        8.1074556096       21.2576353706
Cu               8.9345078195        8.1060528755       21.2582743820
Cu              11.4868458264        8.1054848487       21.2577350033
Cu              -0.0004395359        0.0019893042       23.3459483815
Cu               2.5531869404        0.0018216927       23.3468914089
Cu               5.1057847881       -0.0010811113       23.3473898000
Cu               7.6574359210       -0.0007240513       23.3475705815
Cu               1.2764669059        2.2110948821       23.3470110882
Cu               3.8265685016        2.2078248940       23.3429497652
Cu               6.3824688567        2.2054591838       23.3410575317
Cu               8.9360312347        2.2087527515       23.3455941213
Cu               2.5486607583        4.4215462028       23.3425146451
Cu               5.1024384168        4.4210663234       23.3409244605
Cu               7.6620367993        4.4206429374       23.3419021138
Cu              10.2134939431        4.4211705651       23.3467545489
Cu               3.8246555310        6.6348960427       23.3431004904
Cu               6.3828220527        6.6364376040       23.3417065185
Cu               8.9372935675        6.6337482298       23.3471660583
Cu              11.4869496502        6.6322476687       23.3480400446
C                3.8126598015        4.8805594627       28.1821227139
C                5.1743761092        5.0731699930       27.5495290132
H                3.0423088880        5.0728265155       27.4255616122
H                3.7056553494        3.8513865116       28.5457385203
H                3.6772173378        5.5775997573       29.0184048880
C                6.3502287330        4.8446281060       28.5000159677
F                5.2813441835        4.2061598782       26.4638387566
H                6.2570958533        3.8290110989       28.9109173137
C                7.7652318437        4.9820854294       27.9552831442
F                5.2408220223        6.3614377759       27.0261443086
H                6.2503698616        5.5508640801       29.3371859967
F                7.9986266927        6.2417912476       27.4391569724
F                8.0208611369        4.0694238662       26.9503982589
H                8.5139299648        4.8105601301       28.7465017209



     Writing config-only to output data dir ./tmp/cu_pvdf.save/ :
     XML data file
     NEW-OLD atomic charge density approx. for the potential

     negative rho (up, down):  2.830E-03 0.000E+00

     total cpu time spent up to now is    29192.1 secs

     Self-consistent Calculation

     iteration #  1     ecut=    60.00 Ry     beta= 0.30
     Davidson diagonalization with overlap
     ethr =  1.00E-06,  avg # of iterations =  2.0

     Threshold (ethr) on eigenvalues was too large:
     Diagonalizing with lowered threshold

     Davidson diagonalization with overlap
     ethr =  6.10E-10,  avg # of iterations =  6.5

     negative rho (up, down):  2.830E-03 0.000E+00

     total cpu time spent up to now is    30508.0 secs

     total energy              =  -17322.00546526 Ry
     estimated scf accuracy    <       0.00000973 Ry

     iteration #  2     ecut=    60.00 Ry     beta= 0.30
     Davidson diagonalization with overlap
     ethr =  1.05E-09,  avg # of iterations =  2.4

     negative rho (up, down):  2.830E-03 0.000E+00

     total cpu time spent up to now is    30941.0 secs

     total energy              =  -17322.00546128 Ry
     estimated scf accuracy    <       0.00010445 Ry

     iteration #  3     ecut=    60.00 Ry     beta= 0.30
     Davidson diagonalization with overlap
     ethr =  1.05E-09,  avg # of iterations =  2.0

     negative rho (up, down):  2.830E-03 0.000E+00

     total cpu time spent up to now is    31356.9 secs

     total energy              =  -17322.00546501 Ry
     estimated scf accuracy    <       0.00004956 Ry

     iteration #  4     ecut=    60.00 Ry     beta= 0.30
     Davidson diagonalization with overlap
     ethr =  1.05E-09,  avg # of iterations =  1.4

     negative rho (up, down):  2.831E-03 0.000E+00

     total cpu time spent up to now is    31736.3 secs

     total energy              =  -17322.00546513 Ry
     estimated scf accuracy    <       0.00003303 Ry

     iteration #  5     ecut=    60.00 Ry     beta= 0.30
     Davidson diagonalization with overlap
     ethr =  1.05E-09,  avg # of iterations =  1.0

     negative rho (up, down):  2.831E-03 0.000E+00

     total cpu time spent up to now is    32094.3 secs

     total energy              =  -17322.00546531 Ry
     estimated scf accuracy    <       0.00000166 Ry

     iteration #  6     ecut=    60.00 Ry     beta= 0.30
     Davidson diagonalization with overlap
     ethr =  1.78E-10,  avg # of iterations =  2.0

     negative rho (up, down):  2.831E-03 0.000E+00

     total cpu time spent up to now is    32511.7 secs

     total energy              =  -17322.00546524 Ry
     estimated scf accuracy    <       0.00000055 Ry

     iteration #  7     ecut=    60.00 Ry     beta= 0.30
     Davidson diagonalization with overlap
     ethr =  5.89E-11,  avg # of iterations =  2.0

     negative rho (up, down):  2.831E-03 0.000E+00

     total cpu time spent up to now is    32925.5 secs

     total energy              =  -17322.00546521 Ry
     estimated scf accuracy    <       0.00000024 Ry

     iteration #  8     ecut=    60.00 Ry     beta= 0.30
     Davidson diagonalization with overlap
     ethr =  2.60E-11,  avg # of iterations =  2.0

     negative rho (up, down):  2.831E-03 0.000E+00

     total cpu time spent up to now is    33339.7 secs

     total energy              =  -17322.00546521 Ry
     estimated scf accuracy    <       0.00000004 Ry

     iteration #  9     ecut=    60.00 Ry     beta= 0.30
     Davidson diagonalization with overlap
     ethr =  4.00E-12,  avg # of iterations =  4.2

     negative rho (up, down):  2.831E-03 0.000E+00

     total cpu time spent up to now is    33774.7 secs

     total energy              =  -17322.00546521 Ry
     estimated scf accuracy    <       0.00000002 Ry

     iteration # 10     ecut=    60.00 Ry     beta= 0.30
     Davidson diagonalization with overlap
     ethr =  2.26E-12,  avg # of iterations =  2.0

     negative rho (up, down):  2.831E-03 0.000E+00

     total cpu time spent up to now is    34188.2 secs

     total energy              =  -17322.00546521 Ry
     estimated scf accuracy    <          2.9E-09 Ry

     iteration # 11     ecut=    60.00 Ry     beta= 0.30
     Davidson diagonalization with overlap
     ethr =  3.10E-13,  avg # of iterations =  4.0

     negative rho (up, down):  2.831E-03 0.000E+00

     total cpu time spent up to now is    34624.4 secs

     total energy              =  -17322.00546521 Ry
     estimated scf accuracy    <          1.1E-09 Ry

     iteration # 12     ecut=    60.00 Ry     beta= 0.30
     Davidson diagonalization with overlap
     ethr =  1.14E-13,  avg # of iterations =  2.2

     negative rho (up, down):  2.831E-03 0.000E+00

     total cpu time spent up to now is    35052.0 secs

     total energy              =  -17322.00546521 Ry
     estimated scf accuracy    <          7.9E-10 Ry

     iteration # 13     ecut=    60.00 Ry     beta= 0.30
     Davidson diagonalization with overlap
     ethr =  1.00E-13,  avg # of iterations =  2.0

     negative rho (up, down):  2.831E-03 0.000E+00

     total cpu time spent up to now is    35467.4 secs

     total energy              =  -17322.00546521 Ry
     estimated scf accuracy    <          2.0E-09 Ry

     iteration # 14     ecut=    60.00 Ry     beta= 0.30
     Davidson diagonalization with overlap
     ethr =  1.00E-13,  avg # of iterations =  1.3

     negative rho (up, down):  2.831E-03 0.000E+00

     total cpu time spent up to now is    35843.2 secs

     total energy              =  -17322.00546521 Ry
     estimated scf accuracy    <          3.6E-09 Ry

     iteration # 15     ecut=    60.00 Ry     beta= 0.30
     Davidson diagonalization with overlap
     ethr =  1.00E-13,  avg # of iterations =  1.0

     negative rho (up, down):  2.831E-03 0.000E+00

     total cpu time spent up to now is    36204.3 secs

     total energy              =  -17322.00546521 Ry
     estimated scf accuracy    <          5.9E-10 Ry

     iteration # 16     ecut=    60.00 Ry     beta= 0.30
     Davidson diagonalization with overlap
     ethr =  1.00E-13,  avg # of iterations =  1.0

     negative rho (up, down):  2.831E-03 0.000E+00

     total cpu time spent up to now is    36566.0 secs

     End of self-consistent calculation

          k = 0.0000 0.0000 0.0000 (183353 PWs)   bands (ev):

   -26.6112 -26.3834 -25.1376 -24.9460 -15.7753 -14.1660 -11.9377 -10.6085
    -8.9546  -8.9276  -8.4744  -8.4067  -8.4030  -7.5374  -7.4406  -6.9271
    -6.5165  -6.5163  -6.5160  -6.5153  -6.5150  -6.5145  -6.2492  -6.2147
    -5.8399  -5.7547  -5.7545  -5.7541  -5.7537  -5.7535  -5.7521  -5.4334
    -5.0343  -5.0043  -4.9583  -4.7732  -4.6718  -4.6713  -4.6706  -4.6691
    -4.6674  -4.6477  -4.5672  -4.5020  -4.4360  -4.3403  -4.2294  -4.2294
    -4.2292  -4.0702  -4.0702  -4.0702  -3.9342  -3.9341  -3.9336  -3.9334
    -3.9328  -3.9327  -3.9004  -3.9002  -3.9001  -3.8730  -3.7535  -3.7529
    -3.7523  -3.7503  -3.7491  -3.7464  -3.7395  -3.7394  -3.7393  -3.7391
    -3.7390  -3.7390  -3.6622  -3.6621  -3.6619  -3.6227  -3.6227  -3.6227
    -3.5335  -3.5333  -3.5332  -3.5328  -3.5328  -3.5327  -3.4728  -3.4728
    -3.4724  -3.4719  -3.4718  -3.4712  -3.4711  -3.4710  -3.4707  -3.4305
    -3.4305  -3.4299  -3.4297  -3.4296  -3.4296  -3.3158  -3.3158  -3.3157
    -3.1607  -3.1607  -3.1604  -3.1603  -3.1603  -3.1601  -3.1080  -3.1076
    -3.1072  -3.1071  -3.1069  -3.1068  -3.0971  -3.0969  -3.0969  -3.0965
    -3.0964  -3.0963  -2.9828  -2.9565  -2.9564  -2.9563  -2.9563  -2.9561
    -2.9560  -2.8796  -2.8794  -2.8793  -2.8427  -2.8425  -2.8412  -2.8411
    -2.8410  -2.8409  -2.8301  -2.8300  -2.8298  -2.8291  -2.8290  -2.8288
    -2.7097  -2.7096  -2.7095  -2.7094  -2.7094  -2.7091  -2.6497  -2.6494
    -2.6490  -2.6489  -2.6484  -2.6483  -2.6481  -2.6480  -2.6469  -2.6468
    -2.6464  -2.6463  -2.6405  -2.6405  -2.6404  -2.6402  -2.6401  -2.6400
    -2.4799  -2.4799  -2.4798  -2.4429  -2.4426  -2.4426  -2.4423  -2.4422
    -2.4421  -2.4315  -2.4274  -2.4272  -2.4268  -2.4262  -2.4260  -2.4252
    -2.4208  -2.4207  -2.4196  -2.4194  -2.4192  -2.4191  -2.4068  -2.3701
    -2.3700  -2.3700  -2.2937  -2.2937  -2.2383  -2.2377  -2.2374  -2.2370
    -2.2362  -2.2358  -2.2344  -2.2222  -2.2222  -2.2103  -2.2103  -2.2103
    -2.2026  -2.2026  -2.1899  -2.1899  -2.1894  -2.1888  -2.1885  -2.1880
    -2.0936  -2.0931  -2.0929  -2.0923  -2.0921  -2.0913  -2.0676  -2.0673
    -2.0668  -2.0667  -2.0665  -2.0658  -2.0572  -2.0571  -2.0568  -2.0568
    -2.0567  -2.0562  -2.0386  -2.0380  -2.0380  -2.0376  -2.0374  -2.0372
    -2.0168  -2.0166  -2.0160  -2.0141  -2.0137  -2.0130  -2.0126  -2.0116
    -2.0113  -1.9844  -1.9844  -1.9677  -1.9673  -1.9669  -1.9666  -1.9659
    -1.9658  -1.9649  -1.9649  -1.9318  -1.9315  -1.9307  -1.9305  -1.9300
    -1.9288  -1.9271  -1.9270  -1.9268  -1.8956  -1.8954  -1.8944  -1.8940
    -1.8934  -1.8919  -1.8913  -1.8911  -1.8911  -1.8708  -1.8005  -1.8000
    -1.7998  -1.7993  -1.7992  -1.7988  -1.7228  -1.7228  -1.7227  -1.7227
    -1.7223  -1.7222  -1.6996  -1.6994  -1.6994  -1.6987  -1.6986  -1.6982
    -1.6000  -1.5998  -1.5996  -1.5988  -1.5987  -1.5981  -1.5835  -1.5834
    -1.5827  -1.5815  -1.5813  -1.5795  -1.5787  -1.5786  -1.5783  -1.5780
    -1.5780  -1.5778  -1.4625  -1.4625  -1.4498  -1.4497  -1.4496  -1.4316
    -1.4315  -1.4314  -1.4314  -1.4313  -1.4313  -1.4238  -1.4233  -1.4233
    -1.4226  -1.4225  -1.4222  -1.4021  -1.4020  -1.3905  -1.3903  -1.3891
    -1.3871  -1.3866  -1.3831  -1.3500  -1.3499  -1.3490  -1.3285  -1.3283
    -1.3282  -1.3280  -1.3270  -1.3266  -1.3264  -1.3259  -1.3258  -1.3247
    -1.3244  -1.3244  -1.2917  -1.2912  -1.2912  -1.2910  -1.2900  -1.2899
    -1.2529  -1.2522  -1.2521  -1.2512  -1.2510  -1.2509  -1.1951  -1.1951
    -1.1787  -1.1784  -1.1784  -1.1778  -1.1777  -1.1775  -1.1634  -1.1633
    -1.1632  -1.0832  -1.0831  -1.0830  -1.0563  -1.0559  -1.0558  -1.0555
    -1.0553  -1.0547  -0.9759  -0.9758  -0.9758  -0.9756  -0.9755  -0.9754
    -0.9654  -0.9654  -0.9299  -0.9299  -0.9298  -0.9051  -0.9050  -0.9034
    -0.9007  -0.9000  -0.8953  -0.8802  -0.8802  -0.8725  -0.8725  -0.8725
    -0.8674  -0.8671  -0.8669  -0.8669  -0.8664  -0.8660  -0.8631  -0.8630
    -0.8630  -0.8584  -0.8583  -0.8582  -0.8579  -0.8578  -0.8576  -0.8394
    -0.8392  -0.8392  -0.8391  -0.8389  -0.8388  -0.8373  -0.8371  -0.8367
    -0.7835  -0.7835  -0.7835  -0.7715  -0.7713  -0.7712  -0.7712  -0.7711
    -0.7709  -0.6339  -0.6338  -0.6337  -0.6304  -0.6303  -0.6303  -0.3039
     0.1452   0.1454   0.1481   0.1526   0.1538   0.1615   0.3063   0.3064
     0.3065   0.3747   0.5241   0.5241   0.5243   0.5243   0.5244   0.5244
     0.8990   0.8993   0.8995   0.8996   0.8999   0.9002   1.1799   1.1800
     1.1801   1.7529   1.7531   1.7531   1.7809   1.7810   1.7814   1.7819
     1.7821   1.7831   1.9000   1.9019   1.9090   1.9197   1.9232   1.9444
     2.1082   2.1085   2.1086   2.2246   2.2248   2.2249   3.2571   3.2579
     3.2586   3.2591   3.2601   3.2618   3.4907   3.5015   3.5109   3.5142
     3.5324   3.5432   3.5617   4.3144   4.5974   4.8204   4.8281   4.8281
     4.8335   4.9409   4.9633   5.0008   5.1578   5.2071   5.2091   5.2129
     5.2174   5.2183   5.2200   5.3473   5.5199   5.6176   5.6358   5.6366
     5.6440   5.7359   5.7926   5.9675   6.0990   6.1403   6.1513   6.1900
     6.2356   6.2550   6.2896   6.3193   6.3240   6.3265   6.3443   6.3673
     6.3865   6.3930   6.5004   6.5200   6.5504   6.5761   6.6837   6.7100
     6.7526   6.7583   6.7692   6.8064   6.8124   6.8594

          k = 0.0000 0.2887 0.0000 (183317 PWs)   bands (ev):

   -26.6112 -26.3834 -25.1376 -24.9460 -15.7753 -14.1660 -11.9377 -10.6084
    -8.9546  -8.9277  -8.4744  -8.4033  -8.2806  -7.4411  -7.4147  -7.3072
    -6.9271  -6.8446  -6.8444  -6.4822  -6.2480  -6.1002  -6.0504  -6.0501
    -5.9906  -5.9905  -5.8383  -5.6197  -5.4347  -5.2933  -5.2926  -5.2520
    -5.0344  -5.0068  -4.9994  -4.8941  -4.8834  -4.8585  -4.7399  -4.5781
    -4.5778  -4.5676  -4.5023  -4.3577  -4.3562  -4.3499  -4.3427  -4.3368
    -4.2268  -4.1962  -4.1962  -4.1665  -4.1661  -4.1224  -4.1208  -4.0328
    -4.0327  -3.9929  -3.9928  -3.9737  -3.8787  -3.8703  -3.8700  -3.8535
    -3.8486  -3.8001  -3.8000  -3.7740  -3.7376  -3.7373  -3.6582  -3.6409
    -3.6407  -3.6281  -3.6202  -3.6200  -3.6130  -3.6125  -3.5863  -3.5854
    -3.5853  -3.5836  -3.5835  -3.5555  -3.5552  -3.5306  -3.5306  -3.4518
    -3.4518  -3.4436  -3.4225  -3.4224  -3.4156  -3.4154  -3.3972  -3.3970
    -3.3883  -3.3438  -3.3436  -3.3196  -3.3194  -3.3155  -3.3154  -3.2759
    -3.2758  -3.2676  -3.2668  -3.2185  -3.2185  -3.2094  -3.2093  -3.1697
    -3.1697  -3.1249  -3.1247  -3.0726  -3.0724  -3.0427  -3.0427  -2.9986
    -2.9983  -2.9893  -2.9829  -2.9769  -2.9767  -2.9764  -2.9761  -2.9719
    -2.9718  -2.8887  -2.8885  -2.8711  -2.8709  -2.8673  -2.8664  -2.8662
    -2.8653  -2.8001  -2.8000  -2.7953  -2.7952  -2.7831  -2.7831  -2.7776
    -2.7775  -2.7706  -2.7704  -2.7559  -2.7227  -2.7225  -2.7110  -2.7110
    -2.6933  -2.6928  -2.6927  -2.6604  -2.6604  -2.6368  -2.6366  -2.6259
    -2.6257  -2.6078  -2.5835  -2.5834  -2.5658  -2.5655  -2.5465  -2.5363
    -2.5062  -2.5061  -2.4982  -2.4978  -2.4855  -2.4772  -2.4724  -2.4569
    -2.4528  -2.4527  -2.4263  -2.4262  -2.4259  -2.4255  -2.4238  -2.4238
    -2.3795  -2.3793  -2.3536  -2.3533  -2.3517  -2.3516  -2.3467  -2.3459
    -2.3298  -2.2882  -2.2878  -2.2733  -2.2730  -2.2555  -2.2553  -2.2510
    -2.2493  -2.2481  -2.2409  -2.2305  -2.2302  -2.2298  -2.2042  -2.2029
    -2.2029  -2.1948  -2.1902  -2.1772  -2.1754  -2.1745  -2.1590  -2.1501
    -2.1498  -2.1492  -2.1489  -2.1399  -2.1394  -2.1234  -2.1226  -2.1224
    -2.1091  -2.1088  -2.1040  -2.0904  -2.0711  -2.0710  -2.0635  -2.0555
    -2.0550  -2.0494  -2.0491  -2.0462  -2.0447  -2.0445  -2.0403  -2.0401
    -2.0227  -2.0176  -2.0172  -2.0057  -2.0057  -1.9998  -1.9939  -1.9924
    -1.9921  -1.9746  -1.9737  -1.9689  -1.9684  -1.9610  -1.9606  -1.9495
    -1.9492  -1.9483  -1.9477  -1.9392  -1.9263  -1.9258  -1.9231  -1.9226
    -1.9199  -1.9191  -1.9063  -1.8811  -1.8795  -1.8792  -1.8541  -1.8535
    -1.8451  -1.8424  -1.8423  -1.8201  -1.8021  -1.8020  -1.7881  -1.7726
    -1.7725  -1.7658  -1.7596  -1.7324  -1.7321  -1.7316  -1.7313  -1.7287
    -1.7285  -1.7265  -1.7265  -1.7163  -1.7162  -1.6940  -1.6779  -1.6773
    -1.6400  -1.6396  -1.6238  -1.6149  -1.6009  -1.6008  -1.5620  -1.5617
    -1.5509  -1.5509  -1.5500  -1.5498  -1.5310  -1.5307  -1.5240  -1.5125
    -1.5125  -1.5044  -1.4979  -1.4944  -1.4892  -1.4890  -1.4785  -1.4780
    -1.4492  -1.4431  -1.4340  -1.4237  -1.4225  -1.4091  -1.4090  -1.4061
    -1.4060  -1.3901  -1.3780  -1.3774  -1.3762  -1.3757  -1.3750  -1.3686
    -1.3686  -1.3595  -1.3574  -1.3488  -1.3487  -1.3345  -1.3344  -1.3195
    -1.3189  -1.3185  -1.2636  -1.2633  -1.2551  -1.2550  -1.2527  -1.2525
    -1.2481  -1.2434  -1.2410  -1.2410  -1.2358  -1.2358  -1.2318  -1.2314
    -1.2038  -1.1981  -1.1951  -1.1863  -1.1862  -1.1852  -1.1849  -1.1804
    -1.1801  -1.1753  -1.1609  -1.1168  -1.1003  -1.1002  -1.0978  -1.0971
    -1.0966  -1.0961  -1.0952  -1.0813  -1.0656  -1.0614  -1.0612  -1.0553
    -1.0531  -1.0523  -1.0472  -1.0469  -1.0201  -1.0200  -1.0187  -1.0182
    -1.0093  -1.0089  -0.9716  -0.9659  -0.9626  -0.9593  -0.9593  -0.9584
    -0.9552  -0.9203  -0.9167  -0.9166  -0.9161  -0.9159  -0.9122  -0.9120
    -0.9114  -0.8967  -0.8917  -0.8916  -0.8865  -0.8864  -0.8826  -0.8820
    -0.8819  -0.8814  -0.8783  -0.8765  -0.8764  -0.8699  -0.8696  -0.8684
    -0.8682  -0.8663  -0.8449  -0.8404  -0.8403  -0.8306  -0.8305  -0.8176
    -0.8149  -0.8148  -0.8081  -0.8079  -0.7684  -0.7683  -0.7572  -0.7571
    -0.7090  -0.7089  -0.6965  -0.6948  -0.6864  -0.6800  -0.6451  -0.3358
    -0.3089  -0.2469  -0.2469  -0.0499  -0.0495  -0.0351  -0.0274  -0.0123
     0.2664   0.3898   0.3899   0.5108   0.5132   0.5134   0.5144   0.6263
     0.6277   0.7190   0.7593   0.8882   0.8883   0.9189   1.0206   1.0208
     1.1702   1.6116   1.6199   1.6292   1.6303   1.6349   1.6350   1.7545
     1.7549   2.0572   2.0602   2.1598   2.1602   2.2485   2.4097   2.4111
     2.4142   2.4196   2.4297   2.7703   2.8543   2.8544   3.0712   3.0834
     3.1428   3.1438   3.1977   3.1993   3.3657   3.6231   4.0825   4.0869
     4.2180   4.2302   4.4288   4.4508   4.4522   4.5644   4.7210   4.7393
     4.8551   4.9010   4.9174   4.9246   4.9349   4.9365   5.0034   5.1093
     5.1478   5.2235   5.2237   5.3801   5.4279   5.6270   5.6512   5.6875
     5.7328   5.7376   5.8220   5.8561   5.8844   5.9121   5.9349   5.9625
     5.9631   5.9897   6.0045   6.0052   6.0373   6.0578   6.1284   6.2160
     6.2380   6.2706   6.3337   6.3656   6.3975   6.5210   6.5276   6.5391
     6.5855   6.6085   6.6834   6.7421   6.7496   6.7639

          k = 0.0000-0.5774 0.0000 (183406 PWs)   bands (ev):

   -26.6112 -26.3834 -25.1376 -24.9460 -15.7753 -14.1660 -11.9377 -10.6084
    -8.9546  -8.9277  -8.4744  -8.4033  -7.9090  -7.9080  -7.4407  -7.0559
    -7.0555  -6.9564  -6.9562  -6.9260  -6.2481  -6.1520  -6.1516  -5.8404
    -5.7650  -5.7624  -5.4344  -5.3151  -5.3148  -5.3147  -5.3147  -5.0348
    -5.0147  -4.9681  -4.9527  -4.8063  -4.8049  -4.7736  -4.7288  -4.7285
    -4.7284  -4.7235  -4.5683  -4.5472  -4.5313  -4.5019  -4.4239  -4.4234
    -4.3400  -4.1112  -4.1086  -4.1063  -4.1062  -4.1057  -4.1056  -4.0429
    -4.0426  -4.0208  -4.0206  -4.0205  -4.0195  -3.9299  -3.9298  -3.9291
    -3.9291  -3.8993  -3.8908  -3.8652  -3.7789  -3.7786  -3.7786  -3.7785
    -3.6401  -3.6397  -3.5824  -3.5822  -3.5166  -3.5166  -3.5164  -3.5161
    -3.5095  -3.5094  -3.5072  -3.5071  -3.4991  -3.4990  -3.4988  -3.4986
    -3.4932  -3.4928  -3.4724  -3.4723  -3.4718  -3.4717  -3.3681  -3.3680
    -3.3129  -3.3128  -3.2769  -3.2765  -3.2761  -3.2755  -3.2627  -3.2626
    -3.2623  -3.2623  -3.2618  -3.2617  -3.1978  -3.1976  -3.1545  -3.1544
    -3.1537  -3.1535  -3.1479  -3.1469  -3.1117  -3.1116  -3.1115  -3.1115
    -3.0561  -3.0559  -2.9975  -2.9974  -2.9826  -2.9228  -2.9228  -2.9068
    -2.9068  -2.9066  -2.9061  -2.8771  -2.8769  -2.8513  -2.8512  -2.8508
    -2.8505  -2.8314  -2.8314  -2.8313  -2.8312  -2.8300  -2.8300  -2.8234
    -2.8224  -2.8177  -2.8175  -2.7144  -2.7143  -2.7142  -2.7141  -2.6659
    -2.6659  -2.6416  -2.6413  -2.6369  -2.6367  -2.6157  -2.6155  -2.5853
    -2.5849  -2.5846  -2.5843  -2.5680  -2.5676  -2.5675  -2.5673  -2.5648
    -2.5646  -2.4747  -2.4741  -2.4671  -2.4667  -2.4452  -2.4442  -2.4262
    -2.4261  -2.4145  -2.4143  -2.4139  -2.4139  -2.3881  -2.3866  -2.3690
    -2.3687  -2.3148  -2.3142  -2.3122  -2.3121  -2.3120  -2.3120  -2.2801
    -2.2793  -2.2736  -2.2723  -2.2545  -2.2540  -2.2414  -2.2412  -2.2411
    -2.2409  -2.2384  -2.2383  -2.2364  -2.2363  -2.2323  -2.2318  -2.2245
    -2.2218  -2.1927  -2.1925  -2.1923  -2.1921  -2.1747  -2.1743  -2.1614
    -2.1610  -2.1608  -2.1604  -2.1518  -2.1510  -2.1509  -2.1509  -2.1499
    -2.1498  -2.1390  -2.1381  -2.1345  -2.1338  -2.1088  -2.1087  -2.1086
    -2.1082  -2.0979  -2.0975  -2.0924  -2.0914  -2.0785  -2.0780  -2.0732
    -2.0730  -2.0424  -2.0402  -2.0335  -2.0330  -2.0322  -2.0318  -2.0234
    -2.0226  -2.0226  -2.0225  -1.9969  -1.9963  -1.9906  -1.9903  -1.9217
    -1.9209  -1.9208  -1.9206  -1.8833  -1.8826  -1.8637  -1.8633  -1.8629
    -1.8629  -1.8616  -1.8614  -1.8611  -1.8598  -1.8542  -1.8535  -1.8210
    -1.8207  -1.8036  -1.8018  -1.7911  -1.7910  -1.7879  -1.7878  -1.7874
    -1.7872  -1.7410  -1.7409  -1.7389  -1.7380  -1.6969  -1.6969  -1.6969
    -1.6966  -1.6790  -1.6783  -1.6667  -1.6658  -1.6492  -1.6492  -1.5990
    -1.5973  -1.5616  -1.5615  -1.5614  -1.5610  -1.5428  -1.5414  -1.5352
    -1.5351  -1.5188  -1.5187  -1.5186  -1.5185  -1.5070  -1.5067  -1.5065
    -1.5060  -1.4597  -1.4595  -1.4582  -1.4579  -1.4557  -1.4526  -1.4347
    -1.4345  -1.4340  -1.4337  -1.4158  -1.4150  -1.4128  -1.4115  -1.3868
    -1.3834  -1.3824  -1.3808  -1.3807  -1.3803  -1.3668  -1.3665  -1.3662
    -1.3657  -1.3524  -1.3515  -1.3260  -1.3260  -1.3258  -1.3253  -1.3113
    -1.3111  -1.2451  -1.2451  -1.2449  -1.2445  -1.2337  -1.2336  -1.2336
    -1.2332  -1.2228  -1.2219  -1.2084  -1.2027  -1.1965  -1.1960  -1.1717
    -1.1714  -1.1668  -1.1665  -1.1661  -1.1658  -1.1174  -1.1172  -1.1170
    -1.1161  -1.0954  -1.0954  -1.0949  -1.0948  -1.0871  -1.0870  -1.0867
    -1.0866  -1.0769  -1.0763  -1.0568  -1.0566  -1.0549  -1.0548  -1.0326
    -1.0323  -1.0312  -1.0311  -1.0311  -1.0309  -1.0047  -1.0041  -1.0022
    -1.0015  -0.9988  -0.9984  -0.9983  -0.9974  -0.9854  -0.9845  -0.9715
    -0.9713  -0.9679  -0.9676  -0.9637  -0.9636  -0.9636  -0.9634  -0.9457
    -0.9453  -0.8999  -0.8998  -0.8911  -0.8909  -0.8908  -0.8907  -0.8906
    -0.8901  -0.8884  -0.8883  -0.8853  -0.8840  -0.8803  -0.8800  -0.8795
    -0.8794  -0.8735  -0.8731  -0.8383  -0.8381  -0.8376  -0.8373  -0.8291
    -0.8267  -0.7950  -0.7936  -0.7611  -0.7610  -0.7604  -0.7604  -0.7553
    -0.7551  -0.7551  -0.7550  -0.7221  -0.7218  -0.6896  -0.6881  -0.6879
    -0.6877  -0.6874  -0.6824  -0.2216  -0.2205  -0.2201  -0.2189  -0.0915
    -0.0901  -0.0798  -0.0764   0.4771   0.4772   0.4774   0.4776   0.5108
     0.5324   0.8902   0.8903   0.8907   0.8909   1.1292   1.1306   1.1313
     1.1347   1.4602   1.4700   1.5154   1.5320   1.5599   1.5635   1.6778
     1.6780   1.6790   1.6797   2.8967   2.8968   2.9153   2.9205   2.9246
     2.9267   2.9306   2.9378   3.1290   3.1291   3.1315   3.1361   3.1373
     3.1454   3.5605   3.5610   3.6238   3.6249   3.8044   3.9051   3.9063
     3.9068   3.9076   4.0479   4.0488   4.2258   4.6325   4.6328   4.7599
     4.7799   4.8200   4.8406   5.0488   5.0568   5.1327   5.1418   5.1491
     5.1628   5.2824   5.2935   5.2938   5.2955   5.2959   5.3408   5.3842
     5.4620   5.5795   5.5806   5.5893   5.6896   5.7614   5.8255   5.8545
     5.8628   5.8859   5.8950   6.0588   6.1049   6.1329   6.1359   6.1363
     6.1593   6.2097   6.2508   6.2744   6.3161   6.3319   6.4188   6.4333
     6.4624   6.4918   6.6655   6.6740   6.7089   6.7096

          k = 0.2500-0.7217 0.0000 (183316 PWs)   bands (ev):

   -26.6112 -26.3834 -25.1376 -24.9460 -15.7753 -14.1660 -11.9375 -10.6085
    -8.9546  -8.9279  -8.4744  -8.4040  -8.0316  -7.5449  -7.5435  -7.4402
    -7.1741  -6.9269  -6.7068  -6.7056  -6.2478  -6.1843  -6.1841  -5.8760
    -5.8372  -5.4589  -5.4503  -5.4490  -5.4469  -5.4232  -5.3863  -5.1112
    -5.1101  -5.0344  -5.0031  -4.7817  -4.7632  -4.6309  -4.6111  -4.6098
    -4.5679  -4.5340  -4.5329  -4.5023  -4.4515  -4.4514  -4.4254  -4.4234
    -4.3404  -4.2762  -4.2681  -4.1871  -4.1867  -4.1862  -4.1806  -4.1804
    -4.0549  -4.0540  -4.0107  -3.9954  -3.9604  -3.9602  -3.9012  -3.8944
    -3.8920  -3.8720  -3.8580  -3.8569  -3.7910  -3.7908  -3.7202  -3.7198
    -3.6984  -3.6126  -3.6124  -3.5917  -3.5909  -3.5717  -3.5713  -3.5178
    -3.5173  -3.5163  -3.5162  -3.5155  -3.5150  -3.5121  -3.5045  -3.4486
    -3.4041  -3.4038  -3.3886  -3.3883  -3.3847  -3.3842  -3.3664  -3.3663
    -3.3522  -3.3518  -3.3496  -3.3308  -3.2879  -3.2878  -3.2831  -3.2778
    -3.2773  -3.2433  -3.2277  -3.2109  -3.2093  -3.2091  -3.1861  -3.1861
    -3.1561  -3.1370  -3.1361  -3.1166  -3.0825  -3.0709  -3.0703  -3.0457
    -3.0451  -3.0416  -3.0394  -3.0380  -3.0366  -3.0361  -3.0361  -2.9817
    -2.9517  -2.9213  -2.8859  -2.8845  -2.8844  -2.8763  -2.8542  -2.8489
    -2.8487  -2.8265  -2.8251  -2.8101  -2.8093  -2.7982  -2.7980  -2.7652
    -2.7650  -2.7506  -2.7503  -2.7493  -2.7491  -2.7278  -2.7276  -2.6895
    -2.6776  -2.6772  -2.6180  -2.6171  -2.5977  -2.5904  -2.5894  -2.5767
    -2.5724  -2.5504  -2.5499  -2.5485  -2.5441  -2.5290  -2.5287  -2.5282
    -2.5277  -2.5014  -2.5012  -2.4977  -2.4968  -2.4807  -2.4453  -2.4449
    -2.4429  -2.4421  -2.4099  -2.4069  -2.4005  -2.3849  -2.3724  -2.3721
    -2.3684  -2.3677  -2.3652  -2.3500  -2.3482  -2.3345  -2.3284  -2.3282
    -2.3251  -2.3136  -2.3134  -2.3105  -2.3104  -2.2815  -2.2614  -2.2515
    -2.2513  -2.2465  -2.2437  -2.2357  -2.2354  -2.2303  -2.2274  -2.2270
    -2.2231  -2.2227  -2.2094  -2.2092  -2.2090  -2.2085  -2.1992  -2.1985
    -2.1691  -2.1626  -2.1626  -2.1527  -2.1526  -2.1397  -2.1371  -2.1334
    -2.1279  -2.1277  -2.1261  -2.1232  -2.1227  -2.1096  -2.1080  -2.0879
    -2.0855  -2.0853  -2.0805  -2.0803  -2.0713  -2.0709  -2.0577  -2.0532
    -2.0501  -2.0195  -2.0156  -2.0154  -2.0122  -2.0079  -2.0066  -1.9989
    -1.9954  -1.9904  -1.9900  -1.9866  -1.9864  -1.9732  -1.9732  -1.9447
    -1.9325  -1.9323  -1.9170  -1.9033  -1.9029  -1.8743  -1.8545  -1.8544
    -1.8412  -1.8402  -1.8400  -1.8184  -1.8079  -1.8077  -1.8051  -1.8049
    -1.7913  -1.7910  -1.7894  -1.7881  -1.7785  -1.7747  -1.7506  -1.7503
    -1.7066  -1.7063  -1.6949  -1.6938  -1.6929  -1.6924  -1.6841  -1.6823
    -1.6822  -1.6814  -1.6740  -1.6738  -1.6634  -1.6621  -1.6346  -1.6343
    -1.6322  -1.6170  -1.6166  -1.6155  -1.6143  -1.6095  -1.5790  -1.5765
    -1.5678  -1.5612  -1.5612  -1.5582  -1.5399  -1.5385  -1.5304  -1.5223
    -1.4858  -1.4849  -1.4703  -1.4699  -1.4685  -1.4680  -1.4527  -1.4526
    -1.4459  -1.4455  -1.4420  -1.4252  -1.4251  -1.4220  -1.4196  -1.4163
    -1.4160  -1.4101  -1.3876  -1.3676  -1.3544  -1.3509  -1.3435  -1.3425
    -1.3276  -1.3273  -1.3195  -1.3194  -1.2900  -1.2892  -1.2695  -1.2681
    -1.2672  -1.2628  -1.2586  -1.2468  -1.2451  -1.2410  -1.2403  -1.2309
    -1.2309  -1.2300  -1.2291  -1.2244  -1.2234  -1.1961  -1.1958  -1.1881
    -1.1872  -1.1808  -1.1807  -1.1644  -1.1637  -1.1608  -1.1528  -1.1267
    -1.1266  -1.1002  -1.0935  -1.0910  -1.0906  -1.0879  -1.0877  -1.0851
    -1.0849  -1.0805  -1.0771  -1.0581  -1.0573  -1.0537  -1.0536  -1.0518
    -1.0517  -1.0430  -1.0417  -1.0415  -1.0202  -1.0201  -1.0165  -1.0140
    -1.0057  -1.0014  -1.0009  -0.9940  -0.9934  -0.9781  -0.9774  -0.9767
    -0.9641  -0.9629  -0.9620  -0.9618  -0.9608  -0.9606  -0.9560  -0.9357
    -0.9356  -0.9314  -0.9313  -0.9311  -0.9174  -0.9167  -0.9056  -0.9055
    -0.9051  -0.9050  -0.9029  -0.8973  -0.8958  -0.8914  -0.8870  -0.8863
    -0.8717  -0.8708  -0.8617  -0.8608  -0.8487  -0.8213  -0.8211  -0.8076
    -0.8074  -0.8042  -0.8040  -0.8038  -0.8036  -0.7877  -0.7876  -0.7772
    -0.7537  -0.7421  -0.7415  -0.7314  -0.6787  -0.6775  -0.6672  -0.4406
    -0.4336  -0.3987  -0.3987  -0.3005  -0.3000  -0.2514  -0.2483  -0.2004
    -0.0861  -0.0856  -0.0722  -0.0720   0.3628   0.4183   0.4214   0.5957
     0.5966   0.6115   0.6122   0.9206   0.9434   1.1000   1.2437   1.2522
     1.2529   1.2655   1.6175   1.6178   1.8094   2.0531   2.0754   2.0802
     2.0889   2.0916   2.0924   2.1356   2.1377   2.2467   2.2542   2.2797
     2.7044   2.8453   2.8457   2.9958   3.0708   3.0743   3.3193   3.3329
     3.5159   3.5166   3.6644   3.7930   3.9026   3.9046   3.9595   3.9680
     3.9711   3.9736   4.0852   4.0887   4.2775   4.4254   4.5050   4.6759
     4.8002   4.9317   4.9858   5.0302   5.0782   5.1227   5.1594   5.2113
     5.2586   5.2951   5.2995   5.3033   5.3846   5.4186   5.4378   5.4552
     5.5142   5.5491   5.5518   5.5684   5.6570   5.7009   5.7325   5.7869
     5.8758   5.9037   5.9182   6.0305   6.0861   6.1454   6.2001   6.2027
     6.2079   6.2151   6.2237   6.2580   6.2721   6.3151   6.3354   6.4659
     6.5570   6.5908   6.5999   6.6200   6.6523   6.7103

          k =-0.2500 0.1443 0.0000 (183317 PWs)   bands (ev):

   -26.6112 -26.3834 -25.1376 -24.9460 -15.7753 -14.1660 -11.9375 -10.6085
    -8.9546  -8.9279  -8.4744  -8.4040  -8.2806  -7.4407  -7.4146  -7.3072
    -6.9270  -6.8446  -6.8443  -6.4823  -6.2481  -6.1003  -6.0502  -6.0499
    -5.9906  -5.9904  -5.8382  -5.6198  -5.4337  -5.2930  -5.2928  -5.2524
    -5.0348  -5.0095  -4.9937  -4.8967  -4.8862  -4.8570  -4.7394  -4.5781
    -4.5778  -4.5676  -4.5023  -4.3585  -4.3566  -4.3499  -4.3406  -4.3375
    -4.2272  -4.1962  -4.1961  -4.1665  -4.1661  -4.1224  -4.1210  -4.0328
    -4.0328  -3.9929  -3.9928  -3.9738  -3.8746  -3.8702  -3.8694  -3.8544
    -3.8527  -3.8001  -3.8000  -3.7738  -3.7375  -3.7372  -3.6582  -3.6409
    -3.6407  -3.6280  -3.6201  -3.6200  -3.6131  -3.6124  -3.5863  -3.5854
    -3.5853  -3.5836  -3.5835  -3.5556  -3.5552  -3.5306  -3.5306  -3.4518
    -3.4518  -3.4437  -3.4225  -3.4224  -3.4155  -3.4154  -3.3972  -3.3970
    -3.3883  -3.3438  -3.3436  -3.3196  -3.3194  -3.3155  -3.3154  -3.2759
    -3.2758  -3.2677  -3.2667  -3.2185  -3.2184  -3.2094  -3.2093  -3.1697
    -3.1697  -3.1249  -3.1247  -3.0726  -3.0724  -3.0428  -3.0427  -2.9984
    -2.9983  -2.9897  -2.9818  -2.9769  -2.9767  -2.9764  -2.9763  -2.9719
    -2.9717  -2.8887  -2.8885  -2.8712  -2.8710  -2.8672  -2.8664  -2.8662
    -2.8652  -2.8001  -2.7999  -2.7954  -2.7952  -2.7831  -2.7831  -2.7776
    -2.7775  -2.7706  -2.7704  -2.7558  -2.7227  -2.7225  -2.7110  -2.7110
    -2.6933  -2.6928  -2.6927  -2.6604  -2.6604  -2.6368  -2.6367  -2.6259
    -2.6257  -2.6078  -2.5836  -2.5835  -2.5658  -2.5655  -2.5464  -2.5363
    -2.5062  -2.5062  -2.4982  -2.4978  -2.4855  -2.4772  -2.4723  -2.4569
    -2.4528  -2.4527  -2.4262  -2.4261  -2.4259  -2.4256  -2.4238  -2.4238
    -2.3794  -2.3793  -2.3535  -2.3533  -2.3517  -2.3517  -2.3468  -2.3458
    -2.3298  -2.2881  -2.2879  -2.2733  -2.2730  -2.2555  -2.2554  -2.2510
    -2.2494  -2.2480  -2.2409  -2.2305  -2.2302  -2.2299  -2.2042  -2.2029
    -2.2029  -2.1948  -2.1902  -2.1769  -2.1756  -2.1744  -2.1590  -2.1501
    -2.1499  -2.1491  -2.1489  -2.1399  -2.1394  -2.1233  -2.1227  -2.1223
    -2.1091  -2.1088  -2.1040  -2.0904  -2.0711  -2.0710  -2.0634  -2.0554
    -2.0551  -2.0494  -2.0491  -2.0462  -2.0447  -2.0445  -2.0403  -2.0402
    -2.0227  -2.0176  -2.0173  -2.0057  -2.0057  -1.9998  -1.9939  -1.9923
    -1.9922  -1.9746  -1.9738  -1.9689  -1.9685  -1.9609  -1.9607  -1.9495
    -1.9491  -1.9482  -1.9476  -1.9392  -1.9262  -1.9257  -1.9232  -1.9225
    -1.9198  -1.9192  -1.9062  -1.8811  -1.8796  -1.8793  -1.8541  -1.8535
    -1.8451  -1.8424  -1.8423  -1.8201  -1.8022  -1.8020  -1.7881  -1.7726
    -1.7725  -1.7656  -1.7594  -1.7324  -1.7322  -1.7317  -1.7312  -1.7287
    -1.7286  -1.7266  -1.7264  -1.7163  -1.7162  -1.6939  -1.6779  -1.6773
    -1.6400  -1.6397  -1.6238  -1.6148  -1.6009  -1.6008  -1.5621  -1.5617
    -1.5509  -1.5509  -1.5499  -1.5498  -1.5310  -1.5307  -1.5240  -1.5125
    -1.5124  -1.5044  -1.4980  -1.4943  -1.4892  -1.4890  -1.4785  -1.4781
    -1.4492  -1.4430  -1.4339  -1.4238  -1.4226  -1.4091  -1.4090  -1.4061
    -1.4060  -1.3901  -1.3778  -1.3776  -1.3761  -1.3757  -1.3750  -1.3686
    -1.3686  -1.3595  -1.3575  -1.3487  -1.3487  -1.3346  -1.3344  -1.3195
    -1.3188  -1.3185  -1.2636  -1.2634  -1.2551  -1.2549  -1.2527  -1.2526
    -1.2481  -1.2434  -1.2411  -1.2410  -1.2358  -1.2357  -1.2318  -1.2315
    -1.2037  -1.1981  -1.1952  -1.1863  -1.1862  -1.1851  -1.1850  -1.1803
    -1.1802  -1.1753  -1.1609  -1.1168  -1.1003  -1.1002  -1.0976  -1.0972
    -1.0965  -1.0961  -1.0952  -1.0812  -1.0656  -1.0614  -1.0612  -1.0553
    -1.0531  -1.0524  -1.0473  -1.0469  -1.0200  -1.0199  -1.0186  -1.0184
    -1.0092  -1.0089  -0.9716  -0.9659  -0.9625  -0.9593  -0.9593  -0.9584
    -0.9552  -0.9203  -0.9167  -0.9166  -0.9161  -0.9160  -0.9122  -0.9120
    -0.9114  -0.8967  -0.8917  -0.8916  -0.8865  -0.8865  -0.8826  -0.8820
    -0.8819  -0.8814  -0.8783  -0.8764  -0.8764  -0.8698  -0.8696  -0.8684
    -0.8682  -0.8663  -0.8449  -0.8405  -0.8403  -0.8306  -0.8305  -0.8176
    -0.8149  -0.8148  -0.8081  -0.8079  -0.7684  -0.7684  -0.7572  -0.7571
    -0.7090  -0.7089  -0.6964  -0.6950  -0.6864  -0.6800  -0.6450  -0.3358
    -0.3088  -0.2469  -0.2469  -0.0498  -0.0495  -0.0334  -0.0288  -0.0127
     0.2664   0.3898   0.3899   0.5112   0.5132   0.5134   0.5139   0.6265
     0.6276   0.7183   0.7602   0.8881   0.8882   0.9191   1.0206   1.0207
     1.1708   1.6116   1.6199   1.6289   1.6298   1.6349   1.6350   1.7544
     1.7546   2.0578   2.0599   2.1599   2.1602   2.2487   2.4098   2.4111
     2.4138   2.4191   2.4301   2.7710   2.8542   2.8543   3.0717   3.0830
     3.1430   3.1439   3.1973   3.1985   3.3659   3.6177   4.0826   4.0875
     4.2180   4.2300   4.4087   4.4500   4.4520   4.4571   4.6922   4.7424
     4.8218   4.9130   4.9174   4.9345   4.9351   4.9813   5.0843   5.1098
     5.1679   5.2237   5.2240   5.3353   5.5307   5.6037   5.6720   5.7204
     5.7357   5.7588   5.8243   5.8603   5.8835   5.9208   5.9545   5.9615
     5.9635   5.9692   6.0035   6.0062   6.0367   6.0629   6.1113   6.2139
     6.2427   6.3143   6.3393   6.4040   6.4452   6.4800   6.5243   6.5314
     6.5472   6.6017   6.6499   6.7033   6.7498   6.7562

          k = 0.2500 0.1443 0.0000 (183317 PWs)   bands (ev):

   -26.6112 -26.3834 -25.1376 -24.9460 -15.7753 -14.1660 -11.9375 -10.6085
    -8.9545  -8.9279  -8.4744  -8.4040  -8.2806  -7.4407  -7.4147  -7.3072
    -6.9270  -6.8446  -6.8443  -6.4823  -6.2481  -6.1003  -6.0503  -6.0498
    -5.9906  -5.9905  -5.8382  -5.6198  -5.4336  -5.2930  -5.2928  -5.2525
    -5.0346  -5.0100  -4.9936  -4.8960  -4.8859  -4.8574  -4.7397  -4.5779
    -4.5778  -4.5676  -4.5023  -4.3587  -4.3565  -4.3498  -4.3405  -4.3375
    -4.2272  -4.1962  -4.1961  -4.1666  -4.1661  -4.1223  -4.1210  -4.0328
    -4.0328  -3.9929  -3.9928  -3.9738  -3.8738  -3.8703  -3.8700  -3.8546
    -3.8528  -3.8001  -3.8000  -3.7738  -3.7376  -3.7371  -3.6582  -3.6410
    -3.6407  -3.6280  -3.6201  -3.6200  -3.6131  -3.6123  -3.5863  -3.5854
    -3.5853  -3.5835  -3.5835  -3.5556  -3.5552  -3.5306  -3.5305  -3.4518
    -3.4518  -3.4437  -3.4226  -3.4224  -3.4155  -3.4154  -3.3972  -3.3970
    -3.3883  -3.3438  -3.3435  -3.3196  -3.3193  -3.3155  -3.3154  -3.2759
    -3.2759  -3.2676  -3.2669  -3.2185  -3.2184  -3.2094  -3.2092  -3.1697
    -3.1697  -3.1249  -3.1247  -3.0727  -3.0723  -3.0428  -3.0427  -2.9984
    -2.9983  -2.9896  -2.9819  -2.9769  -2.9767  -2.9764  -2.9762  -2.9720
    -2.9717  -2.8887  -2.8885  -2.8711  -2.8710  -2.8671  -2.8665  -2.8663
    -2.8652  -2.8001  -2.7999  -2.7954  -2.7952  -2.7832  -2.7831  -2.7776
    -2.7775  -2.7706  -2.7704  -2.7558  -2.7227  -2.7225  -2.7110  -2.7110
    -2.6933  -2.6928  -2.6927  -2.6604  -2.6604  -2.6368  -2.6367  -2.6259
    -2.6257  -2.6078  -2.5836  -2.5835  -2.5658  -2.5654  -2.5464  -2.5363
    -2.5062  -2.5061  -2.4983  -2.4979  -2.4855  -2.4773  -2.4723  -2.4569
    -2.4528  -2.4527  -2.4263  -2.4261  -2.4259  -2.4256  -2.4238  -2.4238
    -2.3795  -2.3793  -2.3536  -2.3533  -2.3517  -2.3517  -2.3469  -2.3457
    -2.3298  -2.2881  -2.2880  -2.2733  -2.2731  -2.2555  -2.2554  -2.2510
    -2.2494  -2.2479  -2.2409  -2.2305  -2.2301  -2.2299  -2.2042  -2.2029
    -2.2029  -2.1948  -2.1901  -2.1768  -2.1757  -2.1744  -2.1590  -2.1500
    -2.1499  -2.1492  -2.1490  -2.1399  -2.1393  -2.1234  -2.1227  -2.1223
    -2.1091  -2.1087  -2.1040  -2.0904  -2.0711  -2.0710  -2.0634  -2.0554
    -2.0552  -2.0494  -2.0491  -2.0462  -2.0447  -2.0445  -2.0403  -2.0402
    -2.0227  -2.0175  -2.0173  -2.0058  -2.0057  -1.9997  -1.9939  -1.9923
    -1.9922  -1.9746  -1.9739  -1.9689  -1.9685  -1.9609  -1.9607  -1.9495
    -1.9492  -1.9483  -1.9475  -1.9392  -1.9262  -1.9257  -1.9232  -1.9225
    -1.9198  -1.9192  -1.9061  -1.8811  -1.8796  -1.8793  -1.8541  -1.8535
    -1.8451  -1.8424  -1.8423  -1.8201  -1.8022  -1.8021  -1.7881  -1.7726
    -1.7725  -1.7655  -1.7594  -1.7326  -1.7321  -1.7316  -1.7313  -1.7286
    -1.7286  -1.7266  -1.7264  -1.7163  -1.7162  -1.6938  -1.6779  -1.6774
    -1.6400  -1.6397  -1.6238  -1.6148  -1.6009  -1.6008  -1.5621  -1.5617
    -1.5509  -1.5509  -1.5499  -1.5498  -1.5310  -1.5307  -1.5240  -1.5125
    -1.5124  -1.5044  -1.4979  -1.4943  -1.4892  -1.4890  -1.4785  -1.4780
    -1.4492  -1.4430  -1.4339  -1.4239  -1.4226  -1.4091  -1.4090  -1.4061
    -1.4060  -1.3901  -1.3779  -1.3776  -1.3760  -1.3758  -1.3749  -1.3686
    -1.3686  -1.3595  -1.3575  -1.3487  -1.3487  -1.3346  -1.3344  -1.3195
    -1.3188  -1.3185  -1.2636  -1.2633  -1.2552  -1.2549  -1.2527  -1.2526
    -1.2481  -1.2434  -1.2411  -1.2411  -1.2358  -1.2357  -1.2318  -1.2314
    -1.2037  -1.1981  -1.1952  -1.1863  -1.1862  -1.1851  -1.1850  -1.1803
    -1.1802  -1.1753  -1.1609  -1.1168  -1.1003  -1.1002  -1.0976  -1.0972
    -1.0966  -1.0961  -1.0952  -1.0812  -1.0656  -1.0614  -1.0612  -1.0553
    -1.0532  -1.0523  -1.0473  -1.0469  -1.0200  -1.0199  -1.0187  -1.0183
    -1.0092  -1.0089  -0.9717  -0.9659  -0.9625  -0.9593  -0.9593  -0.9583
    -0.9552  -0.9203  -0.9166  -0.9166  -0.9160  -0.9160  -0.9122  -0.9120
    -0.9114  -0.8967  -0.8917  -0.8916  -0.8865  -0.8864  -0.8826  -0.8820
    -0.8819  -0.8814  -0.8784  -0.8765  -0.8764  -0.8698  -0.8696  -0.8684
    -0.8682  -0.8663  -0.8449  -0.8404  -0.8403  -0.8306  -0.8305  -0.8176
    -0.8149  -0.8148  -0.8081  -0.8079  -0.7684  -0.7684  -0.7572  -0.7571
    -0.7090  -0.7089  -0.6964  -0.6949  -0.6864  -0.6800  -0.6449  -0.3358
    -0.3088  -0.2469  -0.2469  -0.0499  -0.0495  -0.0332  -0.0291  -0.0127
     0.2665   0.3898   0.3899   0.5111   0.5132   0.5134   0.5140   0.6264
     0.6277   0.7182   0.7603   0.8881   0.8882   0.9191   1.0206   1.0207
     1.1710   1.6110   1.6203   1.6289   1.6295   1.6349   1.6350   1.7543
     1.7546   2.0577   2.0602   2.1598   2.1602   2.2488   2.4093   2.4113
     2.4144   2.4193   2.4298   2.7710   2.8541   2.8543   3.0704   3.0837
     3.1429   3.1441   3.1972   3.1984   3.3660   3.6182   4.0824   4.0881
     4.2167   4.2307   4.4177   4.4409   4.4513   4.4530   4.7021   4.7395
     4.8315   4.9137   4.9158   4.9343   4.9354   4.9956   5.0979   5.1100
     5.1817   5.2238   5.2240   5.3046   5.4967   5.6038   5.6619   5.7268
     5.7343   5.7564   5.8170   5.8682   5.8846   5.9281   5.9340   5.9626
     5.9633   5.9854   6.0034   6.0071   6.0306   6.0737   6.1118   6.2061
     6.2452   6.2951   6.3404   6.4022   6.4367   6.4790   6.5263   6.5341
     6.5444   6.5906   6.6997   6.7353   6.7571   6.7645

          k = 0.5000-0.2887 0.0000 (183406 PWs)   bands (ev):

   -26.6112 -26.3834 -25.1376 -24.9460 -15.7753 -14.1660 -11.9374 -10.6086
    -8.9546  -8.9281  -8.4744  -8.4047  -7.9092  -7.9078  -7.4397  -7.0559
    -7.0551  -6.9569  -6.9562  -6.9254  -6.2483  -6.1518  -6.1512  -5.8397
    -5.7658  -5.7628  -5.4314  -5.3150  -5.3148  -5.3148  -5.3146  -5.0348
    -5.0089  -4.9700  -4.9607  -4.8061  -4.8047  -4.7721  -4.7288  -4.7287
    -4.7283  -4.7233  -4.5686  -4.5465  -4.5313  -4.5020  -4.4235  -4.4234
    -4.3404  -4.1113  -4.1085  -4.1063  -4.1063  -4.1056  -4.1055  -4.0430
    -4.0427  -4.0212  -4.0208  -4.0204  -4.0195  -3.9299  -3.9299  -3.9291
    -3.9290  -3.8937  -3.8909  -3.8706  -3.7788  -3.7787  -3.7786  -3.7785
    -3.6402  -3.6396  -3.5826  -3.5822  -3.5166  -3.5166  -3.5163  -3.5161
    -3.5095  -3.5094  -3.5072  -3.5072  -3.4991  -3.4989  -3.4988  -3.4986
    -3.4933  -3.4927  -3.4723  -3.4723  -3.4718  -3.4717  -3.3682  -3.3679
    -3.3129  -3.3128  -3.2771  -3.2767  -3.2759  -3.2753  -3.2628  -3.2626
    -3.2623  -3.2622  -3.2618  -3.2616  -3.1979  -3.1976  -3.1547  -3.1545
    -3.1535  -3.1533  -3.1480  -3.1467  -3.1117  -3.1116  -3.1115  -3.1114
    -3.0561  -3.0559  -2.9974  -2.9973  -2.9812  -2.9228  -2.9228  -2.9068
    -2.9067  -2.9064  -2.9063  -2.8771  -2.8769  -2.8515  -2.8514  -2.8506
    -2.8505  -2.8315  -2.8314  -2.8313  -2.8312  -2.8300  -2.8300  -2.8234
    -2.8223  -2.8177  -2.8175  -2.7144  -2.7144  -2.7142  -2.7141  -2.6660
    -2.6658  -2.6416  -2.6412  -2.6370  -2.6367  -2.6157  -2.6155  -2.5856
    -2.5851  -2.5845  -2.5841  -2.5679  -2.5677  -2.5675  -2.5673  -2.5649
    -2.5646  -2.4749  -2.4737  -2.4671  -2.4667  -2.4452  -2.4442  -2.4262
    -2.4262  -2.4146  -2.4143  -2.4139  -2.4138  -2.3881  -2.3866  -2.3689
    -2.3688  -2.3148  -2.3145  -2.3123  -2.3120  -2.3119  -2.3118  -2.2801
    -2.2792  -2.2736  -2.2723  -2.2544  -2.2541  -2.2413  -2.2412  -2.2410
    -2.2410  -2.2386  -2.2384  -2.2364  -2.2361  -2.2325  -2.2316  -2.2247
    -2.2215  -2.1928  -2.1926  -2.1923  -2.1921  -2.1747  -2.1745  -2.1612
    -2.1610  -2.1607  -2.1605  -2.1518  -2.1510  -2.1509  -2.1509  -2.1500
    -2.1496  -2.1390  -2.1380  -2.1343  -2.1338  -2.1088  -2.1087  -2.1085
    -2.1084  -2.0979  -2.0976  -2.0926  -2.0912  -2.0784  -2.0782  -2.0733
    -2.0730  -2.0424  -2.0401  -2.0336  -2.0330  -2.0322  -2.0319  -2.0231
    -2.0228  -2.0226  -2.0224  -1.9968  -1.9963  -1.9906  -1.9903  -1.9215
    -1.9210  -1.9209  -1.9205  -1.8832  -1.8825  -1.8637  -1.8634  -1.8629
    -1.8629  -1.8618  -1.8614  -1.8610  -1.8595  -1.8542  -1.8536  -1.8210
    -1.8207  -1.8039  -1.8014  -1.7911  -1.7910  -1.7877  -1.7876  -1.7875
    -1.7874  -1.7410  -1.7409  -1.7390  -1.7381  -1.6970  -1.6969  -1.6968
    -1.6967  -1.6786  -1.6785  -1.6667  -1.6659  -1.6492  -1.6492  -1.5990
    -1.5972  -1.5616  -1.5614  -1.5613  -1.5611  -1.5430  -1.5412  -1.5352
    -1.5351  -1.5188  -1.5187  -1.5186  -1.5185  -1.5072  -1.5072  -1.5063
    -1.5058  -1.4597  -1.4595  -1.4583  -1.4579  -1.4557  -1.4526  -1.4348
    -1.4343  -1.4340  -1.4338  -1.4156  -1.4152  -1.4126  -1.4120  -1.3870
    -1.3835  -1.3823  -1.3809  -1.3808  -1.3800  -1.3670  -1.3665  -1.3662
    -1.3656  -1.3520  -1.3515  -1.3261  -1.3259  -1.3257  -1.3254  -1.3113
    -1.3111  -1.2452  -1.2450  -1.2449  -1.2444  -1.2337  -1.2335  -1.2335
    -1.2334  -1.2226  -1.2221  -1.2086  -1.2024  -1.1965  -1.1960  -1.1718
    -1.1713  -1.1669  -1.1664  -1.1661  -1.1658  -1.1174  -1.1171  -1.1169
    -1.1161  -1.0955  -1.0954  -1.0947  -1.0947  -1.0872  -1.0870  -1.0868
    -1.0864  -1.0769  -1.0763  -1.0567  -1.0567  -1.0549  -1.0547  -1.0325
    -1.0324  -1.0312  -1.0311  -1.0310  -1.0309  -1.0048  -1.0041  -1.0025
    -1.0012  -0.9990  -0.9989  -0.9979  -0.9971  -0.9857  -0.9843  -0.9714
    -0.9714  -0.9682  -0.9673  -0.9637  -0.9636  -0.9635  -0.9634  -0.9457
    -0.9454  -0.8998  -0.8998  -0.8911  -0.8909  -0.8908  -0.8907  -0.8906
    -0.8901  -0.8885  -0.8883  -0.8852  -0.8841  -0.8803  -0.8801  -0.8795
    -0.8793  -0.8736  -0.8730  -0.8386  -0.8385  -0.8373  -0.8370  -0.8291
    -0.8267  -0.7950  -0.7936  -0.7613  -0.7611  -0.7604  -0.7601  -0.7553
    -0.7552  -0.7550  -0.7550  -0.7221  -0.7218  -0.6900  -0.6881  -0.6879
    -0.6877  -0.6875  -0.6821  -0.2213  -0.2206  -0.2202  -0.2189  -0.0912
    -0.0902  -0.0797  -0.0767   0.4770   0.4772   0.4774   0.4777   0.5091
     0.5343   0.8901   0.8903   0.8908   0.8909   1.1292   1.1305   1.1316
     1.1345   1.4574   1.4750   1.5121   1.5324   1.5604   1.5640   1.6771
     1.6777   1.6791   1.6799   2.8967   2.8968   2.9156   2.9224   2.9245
     2.9258   2.9304   2.9347   3.1288   3.1290   3.1322   3.1359   3.1381
     3.1458   3.5607   3.5610   3.6239   3.6260   3.8339   3.9048   3.9055
     3.9071   3.9078   4.0402   4.0482   4.0492   4.6326   4.6330   4.6824
     4.7364   4.8375   4.9622   5.0330   5.0981   5.1314   5.1523   5.1564
     5.1670   5.2812   5.2926   5.2941   5.2953   5.2965   5.3551   5.3869
     5.5228   5.5798   5.5806   5.6783   5.6984   5.7583   5.8204   5.8404
     5.9161   5.9426   5.9793   6.0443   6.1240   6.1319   6.1382   6.1483
     6.2001   6.2057   6.2474   6.2568   6.3158   6.3300   6.4063   6.4342
     6.4532   6.4766   6.5539   6.6713   6.6749   6.7088

          k =-0.5000-0.2887 0.0000 (183406 PWs)   bands (ev):

   -26.6112 -26.3834 -25.1376 -24.9460 -15.7753 -14.1660 -11.9374 -10.6086
    -8.9545  -8.9281  -8.4744  -8.4047  -7.9088  -7.9081  -7.4397  -7.0556
    -7.0555  -6.9568  -6.9562  -6.9254  -6.2483  -6.1519  -6.1511  -5.8397
    -5.7647  -5.7640  -5.4315  -5.3150  -5.3148  -5.3147  -5.3146  -5.0351
    -5.0092  -4.9694  -4.9600  -4.8059  -4.8049  -4.7731  -4.7289  -4.7286
    -4.7282  -4.7232  -4.5685  -4.5460  -4.5314  -4.5021  -4.4236  -4.4234
    -4.3403  -4.1111  -4.1087  -4.1062  -4.1062  -4.1057  -4.1056  -4.0430
    -4.0427  -4.0213  -4.0207  -4.0204  -4.0193  -3.9297  -3.9295  -3.9294
    -3.9292  -3.8935  -3.8910  -3.8707  -3.7791  -3.7786  -3.7785  -3.7784
    -3.6401  -3.6397  -3.5826  -3.5822  -3.5169  -3.5167  -3.5161  -3.5160
    -3.5095  -3.5094  -3.5072  -3.5072  -3.4991  -3.4989  -3.4988  -3.4986
    -3.4931  -3.4930  -3.4726  -3.4723  -3.4717  -3.4716  -3.3683  -3.3678
    -3.3129  -3.3128  -3.2769  -3.2768  -3.2757  -3.2756  -3.2626  -3.2625
    -3.2624  -3.2623  -3.2619  -3.2617  -3.1979  -3.1976  -3.1550  -3.1544
    -3.1535  -3.1531  -3.1478  -3.1469  -3.1117  -3.1116  -3.1115  -3.1114
    -3.0561  -3.0559  -2.9974  -2.9973  -2.9812  -2.9228  -2.9228  -2.9069
    -2.9067  -2.9065  -2.9062  -2.8771  -2.8769  -2.8518  -2.8516  -2.8504
    -2.8503  -2.8315  -2.8314  -2.8312  -2.8311  -2.8301  -2.8300  -2.8230
    -2.8226  -2.8177  -2.8175  -2.7144  -2.7144  -2.7142  -2.7140  -2.6660
    -2.6658  -2.6415  -2.6413  -2.6370  -2.6367  -2.6157  -2.6155  -2.5855
    -2.5853  -2.5844  -2.5841  -2.5679  -2.5677  -2.5674  -2.5673  -2.5648
    -2.5647  -2.4751  -2.4735  -2.4670  -2.4668  -2.4450  -2.4445  -2.4262
    -2.4262  -2.4145  -2.4141  -2.4140  -2.4140  -2.3880  -2.3866  -2.3689
    -2.3688  -2.3147  -2.3145  -2.3123  -2.3121  -2.3119  -2.3116  -2.2801
    -2.2793  -2.2736  -2.2722  -2.2544  -2.2541  -2.2413  -2.2412  -2.2410
    -2.2409  -2.2386  -2.2382  -2.2365  -2.2362  -2.2324  -2.2317  -2.2245
    -2.2218  -2.1930  -2.1928  -2.1922  -2.1919  -2.1747  -2.1745  -2.1613
    -2.1612  -2.1607  -2.1605  -2.1516  -2.1514  -2.1513  -2.1512  -2.1494
    -2.1493  -2.1388  -2.1382  -2.1350  -2.1332  -2.1089  -2.1088  -2.1085
    -2.1084  -2.0980  -2.0975  -2.0926  -2.0912  -2.0783  -2.0782  -2.0733
    -2.0730  -2.0422  -2.0403  -2.0335  -2.0331  -2.0322  -2.0319  -2.0232
    -2.0228  -2.0227  -2.0223  -1.9967  -1.9965  -1.9906  -1.9902  -1.9216
    -1.9211  -1.9208  -1.9206  -1.8833  -1.8824  -1.8637  -1.8633  -1.8630
    -1.8629  -1.8618  -1.8614  -1.8608  -1.8596  -1.8542  -1.8535  -1.8210
    -1.8207  -1.8039  -1.8014  -1.7911  -1.7910  -1.7883  -1.7881  -1.7870
    -1.7868  -1.7410  -1.7409  -1.7390  -1.7381  -1.6970  -1.6970  -1.6967
    -1.6966  -1.6793  -1.6778  -1.6668  -1.6659  -1.6492  -1.6492  -1.5993
    -1.5969  -1.5616  -1.5614  -1.5613  -1.5611  -1.5428  -1.5414  -1.5352
    -1.5351  -1.5189  -1.5187  -1.5186  -1.5185  -1.5077  -1.5067  -1.5064
    -1.5058  -1.4597  -1.4595  -1.4584  -1.4578  -1.4557  -1.4525  -1.4350
    -1.4349  -1.4337  -1.4332  -1.4156  -1.4151  -1.4126  -1.4120  -1.3872
    -1.3834  -1.3825  -1.3808  -1.3808  -1.3799  -1.3666  -1.3665  -1.3661
    -1.3661  -1.3520  -1.3512  -1.3261  -1.3260  -1.3258  -1.3253  -1.3113
    -1.3111  -1.2452  -1.2449  -1.2448  -1.2445  -1.2338  -1.2336  -1.2335
    -1.2333  -1.2226  -1.2221  -1.2088  -1.2022  -1.1964  -1.1961  -1.1720
    -1.1711  -1.1669  -1.1668  -1.1659  -1.1657  -1.1174  -1.1172  -1.1169
    -1.1160  -1.0954  -1.0954  -1.0948  -1.0948  -1.0875  -1.0869  -1.0867
    -1.0863  -1.0769  -1.0762  -1.0567  -1.0566  -1.0549  -1.0548  -1.0326
    -1.0325  -1.0312  -1.0310  -1.0309  -1.0309  -1.0047  -1.0041  -1.0022
    -1.0014  -0.9994  -0.9985  -0.9976  -0.9974  -0.9857  -0.9843  -0.9714
    -0.9714  -0.9683  -0.9672  -0.9637  -0.9636  -0.9635  -0.9634  -0.9457
    -0.9454  -0.8998  -0.8998  -0.8910  -0.8909  -0.8908  -0.8907  -0.8906
    -0.8902  -0.8884  -0.8883  -0.8852  -0.8841  -0.8801  -0.8801  -0.8795
    -0.8795  -0.8737  -0.8729  -0.8389  -0.8380  -0.8375  -0.8370  -0.8289
    -0.8270  -0.7948  -0.7938  -0.7613  -0.7609  -0.7605  -0.7602  -0.7554
    -0.7552  -0.7551  -0.7550  -0.7221  -0.7218  -0.6899  -0.6881  -0.6880
    -0.6878  -0.6874  -0.6819  -0.2213  -0.2207  -0.2202  -0.2189  -0.0911
    -0.0902  -0.0797  -0.0767   0.4769   0.4770   0.4776   0.4776   0.5091
     0.5346   0.8902   0.8903   0.8906   0.8908   1.1294   1.1303   1.1313
     1.1350   1.4572   1.4756   1.5113   1.5327   1.5613   1.5632   1.6772
     1.6777   1.6790   1.6797   2.8967   2.8968   2.9145   2.9224   2.9250
     2.9267   2.9295   2.9343   3.1288   3.1291   3.1320   3.1360   3.1382
     3.1462   3.5606   3.5612   3.6229   3.6267   3.8374   3.9049   3.9053
     3.9069   3.9076   4.0348   4.0481   4.0493   4.6327   4.6330   4.6800
     4.7824   4.8262   4.9890   5.0318   5.0948   5.1325   5.1510   5.1599
     5.1663   5.2743   5.2930   5.2933   5.2956   5.2969   5.3495   5.3993
     5.5042   5.5802   5.5806   5.6397   5.6731   5.7537   5.8147   5.8364
     5.8974   5.9490   5.9907   6.0594   6.1185   6.1222   6.1337   6.1407
     6.1667   6.2168   6.2199   6.2875   6.3130   6.3478   6.3866   6.4110
     6.4612   6.4757   6.5892   6.6711   6.6752   6.7088

          k =-0.2500-0.7217 0.0000 (183316 PWs)   bands (ev):

   -26.6112 -26.3834 -25.1376 -24.9460 -15.7753 -14.1660 -11.9375 -10.6085
    -8.9546  -8.9279  -8.4744  -8.4040  -8.0316  -7.5445  -7.5439  -7.4402
    -7.1741  -6.9269  -6.7066  -6.7057  -6.2478  -6.1843  -6.1840  -5.8760
    -5.8372  -5.4585  -5.4503  -5.4489  -5.4472  -5.4235  -5.3862  -5.1110
    -5.1104  -5.0344  -5.0031  -4.7810  -4.7637  -4.6312  -4.6109  -4.6101
    -4.5676  -4.5338  -4.5331  -4.5022  -4.4515  -4.4514  -4.4252  -4.4237
    -4.3403  -4.2762  -4.2681  -4.1871  -4.1867  -4.1862  -4.1806  -4.1804
    -4.0549  -4.0540  -4.0108  -3.9954  -3.9604  -3.9602  -3.9012  -3.8944
    -3.8920  -3.8719  -3.8580  -3.8569  -3.7911  -3.7908  -3.7203  -3.7197
    -3.6984  -3.6126  -3.6124  -3.5917  -3.5908  -3.5717  -3.5712  -3.5179
    -3.5173  -3.5163  -3.5162  -3.5155  -3.5150  -3.5121  -3.5045  -3.4487
    -3.4042  -3.4036  -3.3888  -3.3882  -3.3845  -3.3844  -3.3664  -3.3663
    -3.3521  -3.3519  -3.3496  -3.3308  -3.2880  -3.2877  -3.2831  -3.2778
    -3.2774  -3.2433  -3.2277  -3.2110  -3.2094  -3.2089  -3.1861  -3.1861
    -3.1561  -3.1371  -3.1361  -3.1166  -3.0825  -3.0709  -3.0703  -3.0457
    -3.0451  -3.0416  -3.0393  -3.0382  -3.0366  -3.0361  -3.0360  -2.9818
    -2.9517  -2.9213  -2.8859  -2.8845  -2.8844  -2.8763  -2.8541  -2.8488
    -2.8487  -2.8262  -2.8254  -2.8100  -2.8094  -2.7983  -2.7979  -2.7652
    -2.7650  -2.7505  -2.7504  -2.7492  -2.7491  -2.7278  -2.7276  -2.6895
    -2.6775  -2.6773  -2.6179  -2.6172  -2.5977  -2.5903  -2.5895  -2.5767
    -2.5724  -2.5504  -2.5498  -2.5485  -2.5441  -2.5289  -2.5287  -2.5281
    -2.5278  -2.5014  -2.5012  -2.4976  -2.4968  -2.4807  -2.4453  -2.4448
    -2.4429  -2.4421  -2.4099  -2.4069  -2.4005  -2.3849  -2.3723  -2.3721
    -2.3682  -2.3679  -2.3653  -2.3499  -2.3483  -2.3345  -2.3285  -2.3281
    -2.3251  -2.3136  -2.3134  -2.3105  -2.3105  -2.2815  -2.2614  -2.2515
    -2.2513  -2.2465  -2.2437  -2.2358  -2.2353  -2.2303  -2.2274  -2.2270
    -2.2230  -2.2227  -2.2095  -2.2093  -2.2089  -2.2086  -2.1992  -2.1985
    -2.1691  -2.1626  -2.1626  -2.1527  -2.1526  -2.1397  -2.1371  -2.1334
    -2.1278  -2.1277  -2.1261  -2.1233  -2.1227  -2.1095  -2.1081  -2.0879
    -2.0858  -2.0850  -2.0805  -2.0803  -2.0713  -2.0709  -2.0577  -2.0532
    -2.0501  -2.0195  -2.0161  -2.0148  -2.0122  -2.0078  -2.0067  -1.9989
    -1.9954  -1.9905  -1.9899  -1.9865  -1.9864  -1.9732  -1.9732  -1.9447
    -1.9327  -1.9322  -1.9170  -1.9034  -1.9028  -1.8743  -1.8546  -1.8544
    -1.8413  -1.8402  -1.8400  -1.8183  -1.8082  -1.8074  -1.8055  -1.8045
    -1.7917  -1.7906  -1.7893  -1.7882  -1.7785  -1.7747  -1.7506  -1.7503
    -1.7067  -1.7062  -1.6947  -1.6938  -1.6930  -1.6924  -1.6839  -1.6825
    -1.6819  -1.6817  -1.6740  -1.6738  -1.6632  -1.6623  -1.6346  -1.6341
    -1.6323  -1.6168  -1.6167  -1.6156  -1.6144  -1.6095  -1.5788  -1.5767
    -1.5678  -1.5612  -1.5612  -1.5582  -1.5399  -1.5384  -1.5304  -1.5223
    -1.4859  -1.4849  -1.4703  -1.4698  -1.4684  -1.4681  -1.4527  -1.4525
    -1.4459  -1.4457  -1.4418  -1.4255  -1.4250  -1.4219  -1.4195  -1.4163
    -1.4160  -1.4101  -1.3876  -1.3676  -1.3544  -1.3509  -1.3434  -1.3425
    -1.3277  -1.3273  -1.3195  -1.3194  -1.2899  -1.2892  -1.2695  -1.2680
    -1.2672  -1.2628  -1.2586  -1.2469  -1.2449  -1.2411  -1.2403  -1.2310
    -1.2309  -1.2300  -1.2290  -1.2244  -1.2234  -1.1962  -1.1957  -1.1881
    -1.1872  -1.1808  -1.1807  -1.1644  -1.1637  -1.1608  -1.1528  -1.1267
    -1.1266  -1.1002  -1.0935  -1.0910  -1.0906  -1.0879  -1.0877  -1.0851
    -1.0849  -1.0805  -1.0772  -1.0579  -1.0575  -1.0537  -1.0536  -1.0518
    -1.0517  -1.0430  -1.0416  -1.0415  -1.0202  -1.0201  -1.0165  -1.0140
    -1.0057  -1.0013  -1.0010  -0.9941  -0.9933  -0.9784  -0.9772  -0.9767
    -0.9641  -0.9629  -0.9621  -0.9617  -0.9608  -0.9607  -0.9560  -0.9357
    -0.9356  -0.9315  -0.9313  -0.9311  -0.9174  -0.9167  -0.9057  -0.9054
    -0.9051  -0.9050  -0.9029  -0.8973  -0.8958  -0.8914  -0.8869  -0.8865
    -0.8716  -0.8709  -0.8616  -0.8609  -0.8487  -0.8213  -0.8210  -0.8076
    -0.8075  -0.8041  -0.8041  -0.8039  -0.8035  -0.7877  -0.7876  -0.7772
    -0.7537  -0.7421  -0.7415  -0.7314  -0.6786  -0.6775  -0.6672  -0.4406
    -0.4336  -0.3987  -0.3987  -0.3004  -0.3002  -0.2515  -0.2482  -0.2004
    -0.0861  -0.0855  -0.0722  -0.0721   0.3627   0.4184   0.4214   0.5956
     0.5967   0.6115   0.6122   0.9205   0.9436   1.0999   1.2437   1.2523
     1.2528   1.2652   1.6175   1.6177   1.8094   2.0527   2.0757   2.0805
     2.0889   2.0917   2.0923   2.1354   2.1378   2.2467   2.2542   2.2799
     2.7046   2.8452   2.8458   2.9959   3.0708   3.0741   3.3193   3.3329
     3.5161   3.5164   3.6644   3.7921   3.9026   3.9045   3.9615   3.9677
     3.9711   3.9725   4.0851   4.0888   4.2812   4.4194   4.5049   4.6709
     4.8002   4.9195   4.9858   5.0324   5.0916   5.1227   5.1477   5.1958
     5.2647   5.2973   5.2995   5.3063   5.3872   5.4187   5.4421   5.4529
     5.5145   5.5504   5.5535   5.5839   5.6662   5.6908   5.7294   5.7920
     5.8601   5.9000   5.9060   6.0432   6.0965   6.1849   6.2008   6.2029
     6.2083   6.2172   6.2285   6.2535   6.2734   6.3029   6.3708   6.4742
     6.5421   6.5784   6.5868   6.6173   6.6748   6.6959

          k =-0.5000-0.5774 0.0000 (183316 PWs)   bands (ev):

   -26.6112 -26.3834 -25.1376 -24.9460 -15.7753 -14.1660 -11.9374 -10.6086
    -8.9546  -8.9281  -8.4744  -8.4047  -8.0316  -7.5446  -7.5437  -7.4397
    -7.1740  -6.9267  -6.7065  -6.7058  -6.2479  -6.1843  -6.1839  -5.8759
    -5.8375  -5.4552  -5.4498  -5.4495  -5.4466  -5.4257  -5.3860  -5.1110
    -5.1104  -5.0346  -5.0043  -4.7801  -4.7641  -4.6312  -4.6110  -4.6097
    -4.5679  -4.5341  -4.5329  -4.5024  -4.4514  -4.4514  -4.4253  -4.4238
    -4.3399  -4.2761  -4.2682  -4.1870  -4.1867  -4.1862  -4.1806  -4.1804
    -4.0548  -4.0545  -4.0107  -3.9958  -3.9604  -3.9603  -3.9012  -3.8937
    -3.8923  -3.8710  -3.8581  -3.8578  -3.7910  -3.7908  -3.7202  -3.7198
    -3.6984  -3.6126  -3.6124  -3.5916  -3.5908  -3.5719  -3.5713  -3.5178
    -3.5174  -3.5163  -3.5162  -3.5155  -3.5150  -3.5121  -3.5045  -3.4486
    -3.4041  -3.4038  -3.3887  -3.3883  -3.3847  -3.3842  -3.3664  -3.3663
    -3.3522  -3.3518  -3.3496  -3.3308  -3.2879  -3.2878  -3.2831  -3.2778
    -3.2773  -3.2433  -3.2277  -3.2110  -3.2092  -3.2091  -3.1862  -3.1860
    -3.1561  -3.1370  -3.1361  -3.1166  -3.0825  -3.0709  -3.0703  -3.0456
    -3.0451  -3.0416  -3.0392  -3.0383  -3.0366  -3.0361  -3.0360  -2.9810
    -2.9517  -2.9214  -2.8859  -2.8845  -2.8844  -2.8763  -2.8542  -2.8488
    -2.8487  -2.8264  -2.8252  -2.8101  -2.8093  -2.7982  -2.7979  -2.7652
    -2.7651  -2.7505  -2.7504  -2.7492  -2.7492  -2.7278  -2.7276  -2.6895
    -2.6775  -2.6773  -2.6178  -2.6174  -2.5978  -2.5904  -2.5895  -2.5767
    -2.5723  -2.5503  -2.5499  -2.5485  -2.5441  -2.5289  -2.5288  -2.5281
    -2.5276  -2.5014  -2.5012  -2.4976  -2.4968  -2.4807  -2.4452  -2.4449
    -2.4429  -2.4421  -2.4099  -2.4069  -2.4005  -2.3849  -2.3724  -2.3721
    -2.3684  -2.3677  -2.3651  -2.3499  -2.3483  -2.3345  -2.3284  -2.3283
    -2.3248  -2.3137  -2.3134  -2.3105  -2.3104  -2.2815  -2.2614  -2.2516
    -2.2513  -2.2462  -2.2439  -2.2356  -2.2355  -2.2303  -2.2274  -2.2269
    -2.2230  -2.2227  -2.2094  -2.2093  -2.2089  -2.2086  -2.1991  -2.1986
    -2.1691  -2.1626  -2.1625  -2.1528  -2.1526  -2.1395  -2.1373  -2.1334
    -2.1279  -2.1277  -2.1261  -2.1230  -2.1228  -2.1095  -2.1081  -2.0879
    -2.0856  -2.0853  -2.0805  -2.0803  -2.0713  -2.0709  -2.0577  -2.0533
    -2.0501  -2.0195  -2.0157  -2.0153  -2.0122  -2.0078  -2.0066  -1.9988
    -1.9954  -1.9903  -1.9900  -1.9865  -1.9864  -1.9733  -1.9732  -1.9447
    -1.9324  -1.9323  -1.9170  -1.9033  -1.9029  -1.8743  -1.8546  -1.8545
    -1.8413  -1.8402  -1.8400  -1.8184  -1.8079  -1.8077  -1.8054  -1.8047
    -1.7914  -1.7909  -1.7892  -1.7883  -1.7785  -1.7747  -1.7506  -1.7503
    -1.7065  -1.7063  -1.6950  -1.6937  -1.6930  -1.6924  -1.6837  -1.6826
    -1.6822  -1.6815  -1.6740  -1.6737  -1.6633  -1.6621  -1.6346  -1.6342
    -1.6323  -1.6169  -1.6164  -1.6155  -1.6146  -1.6094  -1.5790  -1.5765
    -1.5678  -1.5613  -1.5612  -1.5582  -1.5398  -1.5386  -1.5304  -1.5223
    -1.4857  -1.4850  -1.4701  -1.4700  -1.4685  -1.4680  -1.4527  -1.4526
    -1.4459  -1.4453  -1.4423  -1.4252  -1.4250  -1.4220  -1.4196  -1.4163
    -1.4160  -1.4101  -1.3877  -1.3675  -1.3544  -1.3509  -1.3434  -1.3425
    -1.3275  -1.3273  -1.3195  -1.3194  -1.2899  -1.2893  -1.2693  -1.2683
    -1.2672  -1.2628  -1.2586  -1.2467  -1.2451  -1.2409  -1.2404  -1.2310
    -1.2309  -1.2298  -1.2292  -1.2245  -1.2234  -1.1960  -1.1959  -1.1880
    -1.1873  -1.1808  -1.1807  -1.1642  -1.1639  -1.1607  -1.1528  -1.1267
    -1.1266  -1.1003  -1.0935  -1.0909  -1.0907  -1.0879  -1.0877  -1.0851
    -1.0850  -1.0804  -1.0773  -1.0580  -1.0575  -1.0537  -1.0536  -1.0519
    -1.0517  -1.0430  -1.0417  -1.0415  -1.0202  -1.0201  -1.0165  -1.0140
    -1.0057  -1.0013  -1.0010  -0.9938  -0.9937  -0.9781  -0.9774  -0.9768
    -0.9641  -0.9629  -0.9619  -0.9619  -0.9608  -0.9606  -0.9560  -0.9357
    -0.9356  -0.9314  -0.9312  -0.9311  -0.9174  -0.9167  -0.9057  -0.9055
    -0.9051  -0.9049  -0.9029  -0.8973  -0.8958  -0.8914  -0.8870  -0.8864
    -0.8715  -0.8710  -0.8616  -0.8609  -0.8487  -0.8212  -0.8211  -0.8076
    -0.8075  -0.8042  -0.8041  -0.8038  -0.8035  -0.7877  -0.7876  -0.7772
    -0.7537  -0.7421  -0.7415  -0.7314  -0.6788  -0.6775  -0.6671  -0.4402
    -0.4340  -0.3987  -0.3987  -0.3005  -0.3001  -0.2509  -0.2485  -0.2002
    -0.0862  -0.0856  -0.0722  -0.0720   0.3634   0.4177   0.4211   0.5954
     0.5966   0.6115   0.6124   0.9226   0.9413   1.1004   1.2426   1.2523
     1.2537   1.2662   1.6175   1.6177   1.8094   2.0576   2.0747   2.0786
     2.0853   2.0917   2.0922   2.1357   2.1382   2.2462   2.2542   2.2795
     2.7042   2.8455   2.8456   2.9956   3.0708   3.0751   3.3222   3.3311
     3.5161   3.5165   3.6645   3.8002   3.9028   3.9044   3.9599   3.9656
     3.9713   3.9722   4.0860   4.0869   4.1420   4.5050   4.5301   4.6601
     4.8003   4.9210   4.9858   5.0202   5.0760   5.1228   5.1634   5.1852
     5.2376   5.2976   5.2996   5.3017   5.3719   5.4186   5.4401   5.4590
     5.4711   5.5497   5.5518   5.6042   5.7063   5.7336   5.8152   5.8449
     5.8774   5.9033   5.9596   6.0401   6.1381   6.1829   6.1978   6.2012
     6.2028   6.2168   6.2259   6.2684   6.2757   6.3103   6.3925   6.4472
     6.5155   6.5419   6.5918   6.6048   6.6348   6.6551

     the Fermi energy is     0.6884 ev

!    total energy              =  -17322.00546521 Ry
     estimated scf accuracy    <          4.4E-11 Ry
     smearing contrib. (-TS)   =      -0.01036721 Ry
     internal energy E=F+TS    =  -17321.99509800 Ry

     The total energy is F=E-TS. E is the sum of the following terms:
     one-electron contribution = -199434.73461126 Ry
     hartree contribution      =  100679.46155183 Ry
     xc contribution           =   -3628.66189255 Ry
     ewald contribution        =   92274.00077204 Ry
     one-center paw contrib.   =   -7212.06091806 Ry

     convergence has been achieved in  16 iterations

     negative rho (up, down):  2.831E-03 0.000E+00

     Forces acting on atoms (cartesian axes, Ry/au):

     atom    1 type  1   force =    -0.00001731   -0.00001015   -0.00004528
     atom    2 type  1   force =     0.00002790   -0.00000517   -0.00002991
     atom    3 type  1   force =     0.00001906    0.00004169   -0.00002533
     atom    4 type  1   force =    -0.00002785    0.00004147   -0.00002805
     atom    5 type  1   force =     0.00001096    0.00001581   -0.00002855
     atom    6 type  1   force =     0.00005479    0.00002075   -0.00002650
     atom    7 type  1   force =     0.00000052    0.00002985   -0.00001998
     atom    8 type  1   force =    -0.00006523    0.00002559   -0.00002437
     atom    9 type  1   force =     0.00004282   -0.00000857   -0.00002549
     atom   10 type  1   force =     0.00003889   -0.00002397   -0.00002227
     atom   11 type  1   force =    -0.00004305   -0.00002341   -0.00000569
     atom   12 type  1   force =    -0.00003821   -0.00000357   -0.00003371
     atom   13 type  1   force =     0.00002129   -0.00002967   -0.00003244
     atom   14 type  1   force =     0.00000309   -0.00006401   -0.00001479
     atom   15 type  1   force =    -0.00002369   -0.00002121   -0.00002920
     atom   16 type  1   force =     0.00000040    0.00001306   -0.00004867
     atom   17 type  1   force =     0.00000430   -0.00002754   -0.00009756
     atom   18 type  1   force =    -0.00000032   -0.00002434   -0.00009212
     atom   19 type  1   force =    -0.00000365   -0.00000180   -0.00009578
     atom   20 type  1   force =     0.00000078    0.00000762   -0.00011716
     atom   21 type  1   force =    -0.00000382   -0.00000477   -0.00013122
     atom   22 type  1   force =     0.00004284    0.00001855   -0.00007644
     atom   23 type  1   force =    -0.00001130    0.00004076   -0.00003730
     atom   24 type  1   force =    -0.00002538    0.00001804   -0.00008924
     atom   25 type  1   force =     0.00004514    0.00001370   -0.00008740
     atom   26 type  1   force =     0.00003494    0.00001018    0.00000487
     atom   27 type  1   force =    -0.00004103    0.00002086    0.00001358
     atom   28 type  1   force =    -0.00003782    0.00000431   -0.00010051
     atom   29 type  1   force =     0.00003193   -0.00002636   -0.00005504
     atom   30 type  1   force =    -0.00000010   -0.00004836    0.00000780
     atom   31 type  1   force =    -0.00002158   -0.00001390   -0.00004287
     atom   32 type  1   force =    -0.00000785    0.00001223   -0.00010768
     atom   33 type  1   force =     0.00000726    0.00001427   -0.00012886
     atom   34 type  1   force =    -0.00000982   -0.00001765   -0.00011102
     atom   35 type  1   force =     0.00000217   -0.00003252   -0.00010617
     atom   36 type  1   force =     0.00000322   -0.00000354   -0.00012368
     atom   37 type  1   force =    -0.00004338   -0.00002461   -0.00018612
     atom   38 type  1   force =    -0.00001883   -0.00003389   -0.00015403
     atom   39 type  1   force =     0.00003865   -0.00003727   -0.00018787
     atom   40 type  1   force =     0.00002545   -0.00000213   -0.00011525
     atom   41 type  1   force =    -0.00004129    0.00001106   -0.00014530
     atom   42 type  1   force =     0.00001144    0.00001445   -0.00014676
     atom   43 type  1   force =     0.00004220    0.00000738   -0.00011068
     atom   44 type  1   force =    -0.00001223    0.00000326   -0.00011750
     atom   45 type  1   force =    -0.00000941    0.00005248   -0.00018028
     atom   46 type  1   force =     0.00002130    0.00003386   -0.00014851
     atom   47 type  1   force =     0.00001184    0.00000700    0.00001105
     atom   48 type  1   force =    -0.00002158    0.00000806   -0.00008048
     atom   49 type  1   force =    -0.00003166   -0.00001735   -0.00000651
     atom   50 type  1   force =     0.00005857    0.00000851    0.00006460
     atom   51 type  1   force =     0.00003980   -0.00000597    0.00001871
     atom   52 type  1   force =    -0.00006106    0.00002631    0.00006400
     atom   53 type  1   force =     0.00002476    0.00005746    0.00010109
     atom   54 type  1   force =     0.00007388    0.00004029   -0.00011059
     atom   55 type  1   force =    -0.00001166    0.00002515   -0.00020293
     atom   56 type  1   force =    -0.00008452    0.00003655   -0.00001753
     atom   57 type  1   force =     0.00001054    0.00001680    0.00007611
     atom   58 type  1   force =     0.00001016   -0.00003701   -0.00016874
     atom   59 type  1   force =    -0.00001505   -0.00000205   -0.00005773
     atom   60 type  1   force =    -0.00000563   -0.00002055    0.00003812
     atom   61 type  1   force =    -0.00000287   -0.00004358    0.00003187
     atom   62 type  1   force =     0.00000871   -0.00008481    0.00002788
     atom   63 type  1   force =    -0.00002233   -0.00001289    0.00003953
     atom   64 type  1   force =     0.00001939    0.00003184    0.00005095
     atom   65 type  1   force =     0.00003717   -0.00013992    0.00001278
     atom   66 type  1   force =    -0.00004134   -0.00011440   -0.00002004
     atom   67 type  1   force =    -0.00003457    0.00012381    0.00000782
     atom   68 type  1   force =     0.00004250    0.00007852   -0.00002965
     atom   69 type  1   force =     0.00000865   -0.00001513   -0.00008470
     atom   70 type  1   force =     0.00019636    0.00020581    0.00007280
     atom   71 type  1   force =    -0.00006336    0.00035204    0.00019412
     atom   72 type  1   force =    -0.00014242    0.00012798    0.00002198
     atom   73 type  1   force =     0.00028845    0.00001191    0.00008211
     atom   74 type  1   force =     0.00020373    0.00003618    0.00019182
     atom   75 type  1   force =    -0.00029228    0.00006204    0.00021099
     atom   76 type  1   force =    -0.00019545   -0.00000269   -0.00001357
     atom   77 type  1   force =     0.00029300   -0.00020894    0.00011828
     atom   78 type  1   force =    -0.00007259   -0.00030794    0.00021231
     atom   79 type  1   force =    -0.00024966   -0.00014267    0.00005264
     atom   80 type  1   force =     0.00003503   -0.00004451   -0.00001870
     atom   81 type  2   force =    -0.00030375   -0.00044464    0.00008680
     atom   82 type  2   force =    -0.00088050    0.00110709    0.00104682
     atom   83 type  3   force =     0.00041835    0.00013665   -0.00005581
     atom   84 type  3   force =     0.00003781   -0.00005684    0.00014224
     atom   85 type  3   force =     0.00031266    0.00000326   -0.00024055
     atom   86 type  2   force =    -0.00010865   -0.00040913    0.00000978
     atom   87 type  4   force =     0.00005342    0.00033176    0.00006807
     atom   88 type  3   force =     0.00045241    0.00031350    0.00078274
     atom   89 type  2   force =    -0.00065695    0.00004183   -0.00037032
     atom   90 type  4   force =     0.00017834   -0.00064311   -0.00037456
     atom   91 type  3   force =     0.00013437   -0.00062374   -0.00001503
     atom   92 type  4   force =     0.00021484   -0.00007952    0.00062151
     atom   93 type  4   force =    -0.00004230    0.00027318    0.00087511
     atom   94 type  3   force =     0.00014725    0.00001105    0.00003917

     Total force =     0.003094     Total SCF correction =     0.000036


     Computing stress (Cartesian axis) and pressure


     negative rho (up, down):  2.831E-03 0.000E+00
          total   stress  (Ry/bohr**3)                   (kbar)     P=       -2.38
  -0.00002490  -0.00000000   0.00000006           -3.66       -0.00        0.01
  -0.00000000  -0.00002495  -0.00000015           -0.00       -3.67       -0.02
   0.00000006  -0.00000015   0.00000137            0.01       -0.02        0.20

     Energy error            =      1.6E-05 Ry
     Gradient error          =      1.1E-03 Ry/Bohr

     number of scf cycles    =   9
     number of bfgs steps    =   8

     energy             old  =  -17322.0054496816 Ry
     energy             new  =  -17322.0054652083 Ry

     CASE: energy            _new < energy            _old

     new trust radius        =       0.0031642251 bohr
     new conv_thr            =            1.0E-10 Ry


ATOMIC_POSITIONS (angstrom)
Cu              10.2107768402        1.4738370192       14.9893108134
Cu               2.5524534534        1.4737858373       14.9890238543
Cu               5.1051605921        1.4734073062       14.9888308749
Cu               7.6581837305        1.4734100226       14.9887427778
Cu              11.4868591624        3.6842946752       14.9888797894
Cu               3.8285587612        3.6842544629       14.9889716873
Cu               6.3816456310        3.6841870822       14.9889887051
Cu               8.9348349963        3.6842332803       14.9889538419
Cu              12.7629329545        5.8952029253       14.9887146727
Cu               5.1050129343        5.8953184035       14.9889955523
Cu               7.6583325589        5.8953048906       14.9888282478
Cu              10.2109227839        5.8952053452       14.9889481326
Cu              14.0394327141        8.1060168537       14.9888531562
Cu               6.3816265371        8.1062991424       14.9888641045
Cu               8.9345407189        8.1059293115       14.9889623286
Cu              11.4869052639        8.1056454532       14.9890042088
Cu              -0.0000918973       -0.0002663645       17.0781399287
Cu               2.5527759214       -0.0002377653       17.0781965565
Cu               5.1054158238        0.0000334483       17.0781367162
Cu               7.6578613383       -0.0000133863       17.0780916675
Cu               1.2764630503        2.2107654529       17.0782803069
Cu               3.8291346821        2.2106460532       17.0780193968
Cu               6.3817286797        2.2106026550       17.0778514144
Cu               8.9339491458        2.2107083902       17.0780548389
Cu               2.5526406448        4.4214741320       17.0780072217
Cu               5.1054011920        4.4213695709       17.0776711672
Cu               7.6579833821        4.4213338046       17.0778037426
Cu              10.2105679786        4.4215522222       17.0781761115
Cu               3.8289595415        6.6320524240       17.0778891689
Cu               6.3816963513        6.6319971604       17.0778505124
Cu               8.9342110269        6.6319732907       17.0780740379
Cu              11.4870213082        6.6320154148       17.0781487052
Cu               1.2761856304        0.7365827997       19.1673372385
Cu               3.8290982523        0.7367655152       19.1680069305
Cu               6.3816572704        0.7371373196       19.1683338413
Cu               8.9343432976        0.7369150493       19.1676878401
Cu               2.5533514708        2.9478223777       19.1678882741
Cu               5.1058778262        2.9480869561       19.1689443764
Cu               7.6573644512        2.9482146842       19.1694800544
Cu              10.2100181029        2.9475394737       19.1672502011
Cu               3.8298046869        5.1582118837       19.1686802437
Cu               6.3816060009        5.1581055485       19.1699491088
Cu               8.9336860570        5.1582373779       19.1691664594
Cu              11.4868088352        5.1583912905       19.1679428327
Cu               5.1055091965        7.3680591132       19.1691853538
Cu               7.6577895183        7.3682934939       19.1693474485
Cu              10.2104100134        7.3688068755       19.1680894673
Cu              12.7634940716        7.3690376921       19.1680199167
Cu              10.2112003387        1.4740070029       21.2570487538
Cu               2.5516176703        1.4734677243       21.2562214066
Cu               5.1047276561        1.4729502763       21.2571482618
Cu               7.6591038329        1.4728998580       21.2571132041
Cu              11.4862508931        3.6835925551       21.2554823786
Cu               3.8280252630        3.6839032536       21.2580961562
Cu               6.3818412598        3.6840957567       21.2607019840
Cu               8.9358294352        3.6837648582       21.2584895431
Cu              12.7625272754        5.8953077052       21.2564113011
Cu               5.1049422516        5.8958145886       21.2602995603
Cu               7.6587797728        5.8955166438       21.2600964790
Cu              10.2109308194        5.8951974029       21.2586415703
Cu              14.0395479852        8.1068332644       21.2575394734
Cu               6.3816474525        8.1074355615       21.2578050189
Cu               8.9344540520        8.1060427872       21.2586544296
Cu              11.4868688138        8.1055205685       21.2581982014
Cu              -0.0003989270        0.0018566296       23.3464184775
Cu               2.5531464660        0.0016925303       23.3473348129
Cu               5.1057428862       -0.0010865325       23.3478913823
Cu               7.6574849636       -0.0006848348       23.3480224707
Cu               1.2764064266        2.2110206038       23.3473182656
Cu               3.8268971771        2.2082000511       23.3434301579
Cu               6.3823184177        2.2060912232       23.3417182908
Cu               8.9359260945        2.2089275131       23.3460724368
Cu               2.5491669929        4.4215340574       23.3429818978
Cu               5.1027739906        4.4211025339       23.3416847473
Cu               7.6615415929        4.4207063503       23.3426588373
Cu              10.2131574961        4.4211645765       23.3472080266
Cu               3.8251404055        6.6346015110       23.3436867178
Cu               6.3826302492        6.6359236429       23.3424475805
Cu               8.9371007248        6.6335970465       23.3477619300
Cu              11.4868508017        6.6323222117       23.3485067506
C                3.8127998498        4.8803727339       28.1824515721
C                5.1742879651        5.0734668489       27.5500108450
H                3.0429416367        5.0730815227       27.4258568976
H                3.7055089037        3.8514178687       28.5459104534
H                3.6766646781        5.5776180338       29.0182674673
C                6.3503407751        4.8445087775       28.5006548300
F                5.2811109655        4.2064462625       26.4636495104
H                6.2575276152        3.8294233562       28.9124817180
C                7.7651481858        4.9821203605       27.9558400009
F                5.2406452400        6.3608258001       27.0256352071
H                6.2507768296        5.5499713781       29.3384303947
F                7.9985562092        6.2415544640       27.4394985630
F                8.0203606874        4.0701433515       26.9508056028
H                8.5139586949        4.8104519753       28.7476167148



     Writing config-only to output data dir ./tmp/cu_pvdf.save/ :
     XML data file
     NEW-OLD atomic charge density approx. for the potential

     negative rho (up, down):  2.826E-03 0.000E+00

     total cpu time spent up to now is    37055.8 secs

     Self-consistent Calculation

     iteration #  1     ecut=    60.00 Ry     beta= 0.30
     Davidson diagonalization with overlap
     ethr =  1.00E-06,  avg # of iterations =  2.0

     Threshold (ethr) on eigenvalues was too large:
     Diagonalizing with lowered threshold

     Davidson diagonalization with overlap
     ethr =  3.91E-10,  avg # of iterations =  5.3

     negative rho (up, down):  2.826E-03 0.000E+00

     total cpu time spent up to now is    38356.8 secs

     total energy              =  -17322.00547623 Ry
     estimated scf accuracy    <       0.00000610 Ry

     iteration #  2     ecut=    60.00 Ry     beta= 0.30
     Davidson diagonalization with overlap
     ethr =  6.56E-10,  avg # of iterations =  2.0

     negative rho (up, down):  2.826E-03 0.000E+00

     total cpu time spent up to now is    38779.7 secs

     total energy              =  -17322.00547349 Ry
     estimated scf accuracy    <       0.00007267 Ry

     iteration #  3     ecut=    60.00 Ry     beta= 0.30
     Davidson diagonalization with overlap
     ethr =  6.56E-10,  avg # of iterations =  2.0

     negative rho (up, down):  2.826E-03 0.000E+00

     total cpu time spent up to now is    39187.0 secs

     total energy              =  -17322.00547503 Ry
     estimated scf accuracy    <       0.00007913 Ry

     iteration #  4     ecut=    60.00 Ry     beta= 0.30
     Davidson diagonalization with overlap
     ethr =  6.56E-10,  avg # of iterations =  1.4

     negative rho (up, down):  2.826E-03 0.000E+00

     total cpu time spent up to now is    39562.9 secs

     total energy              =  -17322.00547618 Ry
     estimated scf accuracy    <       0.00000979 Ry

     iteration #  5     ecut=    60.00 Ry     beta= 0.30
     Davidson diagonalization with overlap
     ethr =  6.56E-10,  avg # of iterations =  1.1

     negative rho (up, down):  2.826E-03 0.000E+00

     total cpu time spent up to now is    39923.1 secs

     total energy              =  -17322.00547609 Ry
     estimated scf accuracy    <       0.00000176 Ry

     iteration #  6     ecut=    60.00 Ry     beta= 0.30
     Davidson diagonalization with overlap
     ethr =  1.90E-10,  avg # of iterations =  2.0

     negative rho (up, down):  2.826E-03 0.000E+00

     total cpu time spent up to now is    40332.6 secs

     total energy              =  -17322.00547609 Ry
     estimated scf accuracy    <       0.00000036 Ry

     iteration #  7     ecut=    60.00 Ry     beta= 0.30
     Davidson diagonalization with overlap
     ethr =  3.83E-11,  avg # of iterations =  2.0

     negative rho (up, down):  2.826E-03 0.000E+00

     total cpu time spent up to now is    40746.7 secs

     total energy              =  -17322.00547607 Ry
     estimated scf accuracy    <       0.00000018 Ry

     iteration #  8     ecut=    60.00 Ry     beta= 0.30
     Davidson diagonalization with overlap
     ethr =  1.98E-11,  avg # of iterations =  2.0

     negative rho (up, down):  2.826E-03 0.000E+00

     total cpu time spent up to now is    41153.4 secs

     total energy              =  -17322.00547607 Ry
     estimated scf accuracy    <       0.00000003 Ry

     iteration #  9     ecut=    60.00 Ry     beta= 0.30
     Davidson diagonalization with overlap
     ethr =  3.07E-12,  avg # of iterations =  4.9

     negative rho (up, down):  2.826E-03 0.000E+00

     total cpu time spent up to now is    41587.4 secs

     total energy              =  -17322.00547607 Ry
     estimated scf accuracy    <       0.00000001 Ry

     iteration # 10     ecut=    60.00 Ry     beta= 0.30
     Davidson diagonalization with overlap
     ethr =  1.42E-12,  avg # of iterations =  2.0

     negative rho (up, down):  2.826E-03 0.000E+00

     total cpu time spent up to now is    41999.3 secs

     total energy              =  -17322.00547607 Ry
     estimated scf accuracy    <          2.0E-09 Ry

     iteration # 11     ecut=    60.00 Ry     beta= 0.30
     Davidson diagonalization with overlap
     ethr =  2.13E-13,  avg # of iterations =  5.0

     negative rho (up, down):  2.826E-03 0.000E+00

     total cpu time spent up to now is    42439.5 secs

     total energy              =  -17322.00547607 Ry
     estimated scf accuracy    <          9.1E-10 Ry

     iteration # 12     ecut=    60.00 Ry     beta= 0.30
     Davidson diagonalization with overlap
     ethr =  1.00E-13,  avg # of iterations =  2.0

     negative rho (up, down):  2.826E-03 0.000E+00

     total cpu time spent up to now is    42855.1 secs

     total energy              =  -17322.00547607 Ry
     estimated scf accuracy    <          4.8E-10 Ry

     iteration # 13     ecut=    60.00 Ry     beta= 0.30
     Davidson diagonalization with overlap
     ethr =  1.00E-13,  avg # of iterations =  2.0

     negative rho (up, down):  2.826E-03 0.000E+00

     total cpu time spent up to now is    43262.6 secs

     total energy              =  -17322.00547607 Ry
     estimated scf accuracy    <          4.7E-09 Ry

     iteration # 14     ecut=    60.00 Ry     beta= 0.30
     Davidson diagonalization with overlap
     ethr =  1.00E-13,  avg # of iterations =  1.0

     negative rho (up, down):  2.826E-03 0.000E+00

     total cpu time spent up to now is    43617.8 secs

     total energy              =  -17322.00547607 Ry
     estimated scf accuracy    <          2.4E-09 Ry

     iteration # 15     ecut=    60.00 Ry     beta= 0.30
     Davidson diagonalization with overlap
     ethr =  1.00E-13,  avg # of iterations =  1.0

     negative rho (up, down):  2.826E-03 0.000E+00

     total cpu time spent up to now is    43973.5 secs

     total energy              =  -17322.00547607 Ry
     estimated scf accuracy    <          2.0E-10 Ry

     iteration # 16     ecut=    60.00 Ry     beta= 0.30
     Davidson diagonalization with overlap
     ethr =  1.00E-13,  avg # of iterations =  1.2

     negative rho (up, down):  2.826E-03 0.000E+00

     total cpu time spent up to now is    44339.1 secs

     End of self-consistent calculation

          k = 0.0000 0.0000 0.0000 (183353 PWs)   bands (ev):

   -26.6148 -26.3843 -25.1388 -24.9442 -15.7753 -14.1676 -11.9365 -10.6095
    -8.9537  -8.9294  -8.4746  -8.4058  -8.4035  -7.5365  -7.4417  -6.9306
    -6.5152  -6.5150  -6.5147  -6.5142  -6.5139  -6.5136  -6.2467  -6.2140
    -5.8405  -5.7538  -5.7535  -5.7532  -5.7528  -5.7527  -5.7512  -5.4335
    -5.0347  -5.0051  -4.9581  -4.7748  -4.6709  -4.6705  -4.6699  -4.6685
    -4.6668  -4.6476  -4.5665  -4.5013  -4.4354  -4.3384  -4.2284  -4.2284
    -4.2282  -4.0693  -4.0692  -4.0692  -3.9330  -3.9330  -3.9323  -3.9322
    -3.9317  -3.9316  -3.8996  -3.8994  -3.8993  -3.8740  -3.7527  -3.7521
    -3.7516  -3.7498  -3.7486  -3.7461  -3.7384  -3.7384  -3.7383  -3.7382
    -3.7381  -3.7380  -3.6614  -3.6614  -3.6612  -3.6219  -3.6218  -3.6218
    -3.5325  -3.5324  -3.5323  -3.5319  -3.5319  -3.5319  -3.4720  -3.4720
    -3.4717  -3.4712  -3.4711  -3.4706  -3.4705  -3.4704  -3.4701  -3.4296
    -3.4295  -3.4290  -3.4289  -3.4287  -3.4287  -3.3151  -3.3151  -3.3150
    -3.1598  -3.1598  -3.1595  -3.1595  -3.1593  -3.1592  -3.1071  -3.1067
    -3.1064  -3.1064  -3.1061  -3.1060  -3.0964  -3.0961  -3.0961  -3.0958
    -3.0957  -3.0956  -2.9825  -2.9557  -2.9557  -2.9556  -2.9555  -2.9554
    -2.9553  -2.8789  -2.8787  -2.8786  -2.8418  -2.8416  -2.8405  -2.8404
    -2.8403  -2.8402  -2.8294  -2.8293  -2.8291  -2.8285  -2.8284  -2.8283
    -2.7089  -2.7089  -2.7087  -2.7086  -2.7085  -2.7083  -2.6488  -2.6486
    -2.6482  -2.6481  -2.6476  -2.6475  -2.6473  -2.6473  -2.6463  -2.6463
    -2.6458  -2.6458  -2.6398  -2.6398  -2.6397  -2.6395  -2.6393  -2.6393
    -2.4795  -2.4794  -2.4794  -2.4422  -2.4419  -2.4419  -2.4416  -2.4415
    -2.4414  -2.4312  -2.4269  -2.4267  -2.4264  -2.4257  -2.4256  -2.4248
    -2.4201  -2.4200  -2.4190  -2.4188  -2.4186  -2.4185  -2.4065  -2.3698
    -2.3698  -2.3698  -2.2930  -2.2930  -2.2378  -2.2373  -2.2370  -2.2367
    -2.2359  -2.2355  -2.2344  -2.2214  -2.2214  -2.2093  -2.2093  -2.2093
    -2.2020  -2.2020  -2.1894  -2.1893  -2.1889  -2.1884  -2.1880  -2.1877
    -2.0931  -2.0926  -2.0924  -2.0919  -2.0917  -2.0910  -2.0671  -2.0668
    -2.0663  -2.0662  -2.0661  -2.0654  -2.0567  -2.0566  -2.0564  -2.0563
    -2.0562  -2.0558  -2.0376  -2.0370  -2.0370  -2.0366  -2.0364  -2.0363
    -2.0161  -2.0159  -2.0153  -2.0135  -2.0132  -2.0125  -2.0122  -2.0113
    -2.0110  -1.9839  -1.9839  -1.9672  -1.9669  -1.9665  -1.9662  -1.9656
    -1.9655  -1.9645  -1.9644  -1.9313  -1.9311  -1.9302  -1.9302  -1.9296
    -1.9285  -1.9264  -1.9263  -1.9262  -1.8952  -1.8950  -1.8941  -1.8936
    -1.8929  -1.8915  -1.8906  -1.8904  -1.8903  -1.8706  -1.7997  -1.7992
    -1.7991  -1.7986  -1.7985  -1.7981  -1.7226  -1.7225  -1.7224  -1.7224
    -1.7220  -1.7220  -1.6989  -1.6987  -1.6987  -1.6980  -1.6979  -1.6975
    -1.5994  -1.5992  -1.5991  -1.5982  -1.5982  -1.5975  -1.5832  -1.5831
    -1.5824  -1.5813  -1.5810  -1.5793  -1.5783  -1.5782  -1.5778  -1.5776
    -1.5776  -1.5775  -1.4620  -1.4620  -1.4492  -1.4492  -1.4491  -1.4312
    -1.4311  -1.4310  -1.4310  -1.4309  -1.4309  -1.4232  -1.4228  -1.4227
    -1.4222  -1.4221  -1.4218  -1.4015  -1.4015  -1.3902  -1.3899  -1.3888
    -1.3868  -1.3863  -1.3829  -1.3495  -1.3494  -1.3485  -1.3281  -1.3279
    -1.3278  -1.3277  -1.3265  -1.3262  -1.3262  -1.3254  -1.3254  -1.3244
    -1.3241  -1.3241  -1.2913  -1.2908  -1.2908  -1.2906  -1.2898  -1.2896
    -1.2523  -1.2518  -1.2517  -1.2508  -1.2508  -1.2506  -1.1947  -1.1946
    -1.1783  -1.1780  -1.1780  -1.1774  -1.1774  -1.1772  -1.1630  -1.1630
    -1.1629  -1.0828  -1.0827  -1.0826  -1.0560  -1.0556  -1.0555  -1.0552
    -1.0550  -1.0544  -0.9756  -0.9754  -0.9754  -0.9753  -0.9751  -0.9750
    -0.9650  -0.9650  -0.9295  -0.9295  -0.9295  -0.9048  -0.9047  -0.9031
    -0.9004  -0.8997  -0.8951  -0.8799  -0.8799  -0.8720  -0.8720  -0.8719
    -0.8671  -0.8668  -0.8667  -0.8666  -0.8661  -0.8657  -0.8626  -0.8625
    -0.8625  -0.8582  -0.8580  -0.8579  -0.8577  -0.8576  -0.8573  -0.8390
    -0.8388  -0.8388  -0.8387  -0.8386  -0.8385  -0.8370  -0.8368  -0.8363
    -0.7831  -0.7831  -0.7831  -0.7711  -0.7710  -0.7709  -0.7708  -0.7708
    -0.7706  -0.6334  -0.6334  -0.6333  -0.6300  -0.6300  -0.6300  -0.3038
     0.1453   0.1455   0.1481   0.1526   0.1537   0.1615   0.3070   0.3071
     0.3072   0.3746   0.5246   0.5247   0.5249   0.5249   0.5249   0.5250
     0.8996   0.8998   0.9000   0.9001   0.9003   0.9007   1.1804   1.1805
     1.1806   1.7533   1.7535   1.7536   1.7812   1.7815   1.7817   1.7821
     1.7823   1.7833   1.8998   1.9017   1.9087   1.9193   1.9228   1.9439
     2.1086   2.1089   2.1090   2.2250   2.2252   2.2253   3.2573   3.2579
     3.2585   3.2591   3.2600   3.2618   3.4905   3.5014   3.5107   3.5139
     3.5320   3.5429   3.5613   4.3145   4.5975   4.8204   4.8281   4.8282
     4.8336   4.9403   4.9627   5.0007   5.1579   5.2069   5.2087   5.2125
     5.2170   5.2179   5.2197   5.3474   5.5196   5.6174   5.6359   5.6366
     5.6440   5.7359   5.7934   5.9675   6.0994   6.1403   6.1500   6.1897
     6.2357   6.2550   6.2895   6.3193   6.3240   6.3265   6.3443   6.3671
     6.3864   6.3929   6.5003   6.5198   6.5506   6.5764   6.6838   6.7100
     6.7526   6.7585   6.7691   6.8065   6.8124   6.8592

          k = 0.0000 0.2887 0.0000 (183317 PWs)   bands (ev):

   -26.6148 -26.3843 -25.1388 -24.9442 -15.7753 -14.1676 -11.9365 -10.6095
    -8.9537  -8.9294  -8.4746  -8.4042  -8.2794  -7.4422  -7.4139  -7.3060
    -6.9306  -6.8434  -6.8433  -6.4814  -6.2455  -6.0997  -6.0495  -6.0492
    -5.9894  -5.9893  -5.8389  -5.6185  -5.4348  -5.2923  -5.2917  -5.2514
    -5.0348  -5.0075  -4.9985  -4.8938  -4.8828  -4.8582  -4.7414  -4.5769
    -4.5766  -4.5670  -4.5016  -4.3569  -4.3555  -4.3494  -4.3414  -4.3353
    -4.2260  -4.1952  -4.1952  -4.1655  -4.1651  -4.1214  -4.1203  -4.0318
    -4.0317  -3.9917  -3.9917  -3.9729  -3.8794  -3.8694  -3.8692  -3.8530
    -3.8483  -3.7990  -3.7990  -3.7733  -3.7367  -3.7364  -3.6574  -3.6401
    -3.6398  -3.6274  -3.6194  -3.6192  -3.6123  -3.6118  -3.5854  -3.5843
    -3.5842  -3.5827  -3.5826  -3.5548  -3.5545  -3.5296  -3.5296  -3.4510
    -3.4510  -3.4430  -3.4217  -3.4216  -3.4149  -3.4148  -3.3962  -3.3961
    -3.3876  -3.3431  -3.3429  -3.3186  -3.3185  -3.3146  -3.3146  -3.2752
    -3.2751  -3.2669  -3.2661  -3.2176  -3.2176  -3.2085  -3.2084  -3.1690
    -3.1689  -3.1241  -3.1240  -3.0717  -3.0716  -3.0420  -3.0420  -2.9978
    -2.9976  -2.9886  -2.9825  -2.9762  -2.9760  -2.9757  -2.9754  -2.9711
    -2.9710  -2.8880  -2.8879  -2.8704  -2.8703  -2.8666  -2.8656  -2.8654
    -2.8646  -2.7993  -2.7992  -2.7947  -2.7946  -2.7825  -2.7824  -2.7768
    -2.7766  -2.7697  -2.7696  -2.7552  -2.7221  -2.7219  -2.7103  -2.7102
    -2.6927  -2.6920  -2.6920  -2.6597  -2.6596  -2.6361  -2.6359  -2.6253
    -2.6252  -2.6071  -2.5827  -2.5826  -2.5652  -2.5649  -2.5458  -2.5355
    -2.5056  -2.5056  -2.4977  -2.4973  -2.4851  -2.4768  -2.4720  -2.4565
    -2.4521  -2.4520  -2.4256  -2.4255  -2.4253  -2.4250  -2.4230  -2.4230
    -2.3789  -2.3787  -2.3529  -2.3526  -2.3514  -2.3513  -2.3464  -2.3455
    -2.3291  -2.2876  -2.2874  -2.2726  -2.2724  -2.2551  -2.2549  -2.2503
    -2.2489  -2.2477  -2.2403  -2.2302  -2.2298  -2.2294  -2.2037  -2.2020
    -2.2020  -2.1938  -2.1894  -2.1767  -2.1749  -2.1741  -2.1584  -2.1496
    -2.1494  -2.1487  -2.1485  -2.1394  -2.1390  -2.1229  -2.1220  -2.1217
    -2.1083  -2.1080  -2.1036  -2.0894  -2.0706  -2.0706  -2.0628  -2.0550
    -2.0546  -2.0485  -2.0482  -2.0453  -2.0442  -2.0440  -2.0399  -2.0398
    -2.0223  -2.0171  -2.0168  -2.0050  -2.0050  -1.9991  -1.9934  -1.9920
    -1.9918  -1.9741  -1.9733  -1.9685  -1.9681  -1.9605  -1.9602  -1.9492
    -1.9486  -1.9479  -1.9473  -1.9389  -1.9258  -1.9254  -1.9226  -1.9220
    -1.9194  -1.9186  -1.9059  -1.8803  -1.8791  -1.8788  -1.8535  -1.8529
    -1.8445  -1.8417  -1.8416  -1.8193  -1.8016  -1.8016  -1.7875  -1.7719
    -1.7719  -1.7654  -1.7591  -1.7318  -1.7315  -1.7310  -1.7307  -1.7284
    -1.7282  -1.7261  -1.7260  -1.7160  -1.7159  -1.6935  -1.6774  -1.6768
    -1.6395  -1.6392  -1.6233  -1.6146  -1.6003  -1.6003  -1.5615  -1.5612
    -1.5506  -1.5505  -1.5495  -1.5494  -1.5306  -1.5303  -1.5233  -1.5120
    -1.5120  -1.5039  -1.4973  -1.4939  -1.4888  -1.4886  -1.4780  -1.4775
    -1.4486  -1.4427  -1.4334  -1.4232  -1.4221  -1.4085  -1.4085  -1.4057
    -1.4056  -1.3896  -1.3774  -1.3769  -1.3757  -1.3752  -1.3747  -1.3681
    -1.3681  -1.3589  -1.3571  -1.3484  -1.3483  -1.3342  -1.3341  -1.3192
    -1.3184  -1.3181  -1.2632  -1.2630  -1.2548  -1.2546  -1.2523  -1.2522
    -1.2478  -1.2429  -1.2407  -1.2406  -1.2355  -1.2354  -1.2314  -1.2310
    -1.2035  -1.1977  -1.1946  -1.1860  -1.1858  -1.1848  -1.1845  -1.1799
    -1.1797  -1.1749  -1.1604  -1.1164  -1.1000  -1.0998  -1.0975  -1.0968
    -1.0962  -1.0958  -1.0948  -1.0810  -1.0651  -1.0611  -1.0609  -1.0550
    -1.0527  -1.0520  -1.0469  -1.0466  -1.0196  -1.0195  -1.0183  -1.0179
    -1.0089  -1.0086  -0.9712  -0.9655  -0.9623  -0.9590  -0.9589  -0.9581
    -0.9547  -0.9198  -0.9162  -0.9162  -0.9158  -0.9156  -0.9119  -0.9117
    -0.9110  -0.8963  -0.8913  -0.8912  -0.8863  -0.8862  -0.8823  -0.8817
    -0.8816  -0.8811  -0.8781  -0.8761  -0.8760  -0.8695  -0.8693  -0.8681
    -0.8679  -0.8661  -0.8447  -0.8400  -0.8400  -0.8302  -0.8301  -0.8173
    -0.8146  -0.8145  -0.8078  -0.8076  -0.7681  -0.7680  -0.7568  -0.7567
    -0.7086  -0.7086  -0.6963  -0.6946  -0.6860  -0.6796  -0.6449  -0.3353
    -0.3088  -0.2464  -0.2464  -0.0494  -0.0491  -0.0350  -0.0274  -0.0123
     0.2668   0.3905   0.3906   0.5108   0.5136   0.5140   0.5145   0.6266
     0.6279   0.7189   0.7592   0.8887   0.8888   0.9193   1.0211   1.0212
     1.1701   1.6115   1.6197   1.6296   1.6306   1.6356   1.6356   1.7548
     1.7552   2.0572   2.0601   2.1603   2.1607   2.2487   2.4098   2.4114
     2.4140   2.4193   2.4294   2.7699   2.8546   2.8547   3.0710   3.0831
     3.1432   3.1441   3.1977   3.1993   3.3659   3.6227   4.0821   4.0864
     4.2178   4.2299   4.4289   4.4511   4.4523   4.5639   4.7210   4.7391
     4.8548   4.9008   4.9174   4.9244   4.9350   4.9365   5.0038   5.1095
     5.1477   5.2240   5.2242   5.3802   5.4280   5.6269   5.6510   5.6880
     5.7329   5.7377   5.8220   5.8561   5.8845   5.9121   5.9346   5.9627
     5.9634   5.9899   6.0049   6.0056   6.0374   6.0575   6.1279   6.2158
     6.2381   6.2706   6.3338   6.3656   6.3974   6.5211   6.5276   6.5392
     6.5855   6.6085   6.6833   6.7413   6.7497   6.7640

          k = 0.0000-0.5774 0.0000 (183406 PWs)   bands (ev):

   -26.6148 -26.3843 -25.1388 -24.9442 -15.7753 -14.1676 -11.9365 -10.6095
    -8.9537  -8.9294  -8.4746  -8.4042  -7.9077  -7.9069  -7.4418  -7.0551
    -7.0546  -6.9552  -6.9551  -6.9294  -6.2455  -6.1511  -6.1507  -5.8410
    -5.7645  -5.7618  -5.4345  -5.3138  -5.3136  -5.3135  -5.3135  -5.0353
    -5.0151  -4.9675  -4.9523  -4.8051  -4.8038  -4.7751  -4.7278  -4.7276
    -4.7274  -4.7228  -4.5676  -4.5466  -4.5310  -4.5012  -4.4230  -4.4225
    -4.3381  -4.1104  -4.1080  -4.1052  -4.1052  -4.1047  -4.1046  -4.0420
    -4.0417  -4.0200  -4.0198  -4.0197  -4.0187  -3.9288  -3.9288  -3.9281
    -3.9281  -3.8990  -3.8903  -3.8659  -3.7780  -3.7778  -3.7778  -3.7776
    -3.6394  -3.6390  -3.5817  -3.5814  -3.5158  -3.5158  -3.5155  -3.5154
    -3.5085  -3.5084  -3.5062  -3.5061  -3.4984  -3.4982  -3.4981  -3.4979
    -3.4924  -3.4920  -3.4715  -3.4714  -3.4709  -3.4709  -3.3675  -3.3674
    -3.3119  -3.3119  -3.2762  -3.2758  -3.2755  -3.2749  -3.2618  -3.2617
    -3.2615  -3.2614  -3.2609  -3.2608  -3.1969  -3.1968  -3.1537  -3.1537
    -3.1531  -3.1529  -3.1472  -3.1462  -3.1110  -3.1109  -3.1108  -3.1108
    -3.0552  -3.0551  -2.9967  -2.9966  -2.9822  -2.9219  -2.9219  -2.9060
    -2.9060  -2.9059  -2.9055  -2.8764  -2.8762  -2.8505  -2.8505  -2.8502
    -2.8499  -2.8307  -2.8307  -2.8306  -2.8305  -2.8293  -2.8293  -2.8227
    -2.8218  -2.8169  -2.8167  -2.7137  -2.7136  -2.7134  -2.7133  -2.6652
    -2.6651  -2.6410  -2.6407  -2.6363  -2.6360  -2.6151  -2.6149  -2.5845
    -2.5842  -2.5838  -2.5836  -2.5674  -2.5670  -2.5670  -2.5668  -2.5643
    -2.5641  -2.4742  -2.4736  -2.4665  -2.4661  -2.4445  -2.4435  -2.4255
    -2.4254  -2.4138  -2.4135  -2.4132  -2.4132  -2.3874  -2.3860  -2.3684
    -2.3682  -2.3142  -2.3138  -2.3116  -2.3115  -2.3114  -2.3113  -2.2798
    -2.2790  -2.2730  -2.2718  -2.2539  -2.2536  -2.2407  -2.2405  -2.2404
    -2.2402  -2.2378  -2.2377  -2.2359  -2.2358  -2.2315  -2.2310  -2.2241
    -2.2216  -2.1921  -2.1919  -2.1917  -2.1915  -2.1742  -2.1739  -2.1608
    -2.1604  -2.1603  -2.1600  -2.1508  -2.1503  -2.1503  -2.1500  -2.1494
    -2.1493  -2.1382  -2.1373  -2.1339  -2.1333  -2.1083  -2.1082  -2.1081
    -2.1078  -2.0972  -2.0967  -2.0921  -2.0911  -2.0780  -2.0777  -2.0724
    -2.0722  -2.0419  -2.0398  -2.0329  -2.0325  -2.0317  -2.0314  -2.0230
    -2.0223  -2.0223  -2.0222  -1.9964  -1.9960  -1.9902  -1.9900  -1.9211
    -1.9204  -1.9203  -1.9201  -1.8828  -1.8822  -1.8631  -1.8627  -1.8623
    -1.8623  -1.8611  -1.8607  -1.8607  -1.8593  -1.8534  -1.8528  -1.8204
    -1.8200  -1.8030  -1.8014  -1.7905  -1.7904  -1.7873  -1.7872  -1.7868
    -1.7866  -1.7407  -1.7406  -1.7385  -1.7376  -1.6964  -1.6964  -1.6964
    -1.6962  -1.6785  -1.6778  -1.6662  -1.6652  -1.6487  -1.6486  -1.5984
    -1.5969  -1.5612  -1.5611  -1.5610  -1.5606  -1.5422  -1.5409  -1.5349
    -1.5348  -1.5184  -1.5182  -1.5182  -1.5180  -1.5065  -1.5063  -1.5060
    -1.5056  -1.4592  -1.4590  -1.4576  -1.4574  -1.4553  -1.4523  -1.4341
    -1.4340  -1.4335  -1.4332  -1.4153  -1.4145  -1.4123  -1.4112  -1.3864
    -1.3829  -1.3820  -1.3805  -1.3804  -1.3799  -1.3663  -1.3660  -1.3658
    -1.3653  -1.3520  -1.3511  -1.3255  -1.3255  -1.3254  -1.3249  -1.3110
    -1.3108  -1.2447  -1.2446  -1.2446  -1.2441  -1.2332  -1.2332  -1.2331
    -1.2328  -1.2224  -1.2215  -1.2079  -1.2023  -1.1960  -1.1956  -1.1711
    -1.1709  -1.1664  -1.1662  -1.1657  -1.1655  -1.1171  -1.1169  -1.1167
    -1.1158  -1.0950  -1.0950  -1.0945  -1.0944  -1.0867  -1.0866  -1.0864
    -1.0862  -1.0764  -1.0757  -1.0564  -1.0562  -1.0545  -1.0544  -1.0322
    -1.0320  -1.0307  -1.0307  -1.0306  -1.0305  -1.0043  -1.0036  -1.0018
    -1.0011  -0.9985  -0.9982  -0.9980  -0.9971  -0.9850  -0.9842  -0.9712
    -0.9710  -0.9675  -0.9673  -0.9633  -0.9632  -0.9632  -0.9630  -0.9454
    -0.9451  -0.8996  -0.8995  -0.8908  -0.8906  -0.8905  -0.8904  -0.8902
    -0.8898  -0.8881  -0.8880  -0.8850  -0.8838  -0.8799  -0.8796  -0.8792
    -0.8791  -0.8732  -0.8729  -0.8380  -0.8378  -0.8373  -0.8370  -0.8286
    -0.8265  -0.7946  -0.7934  -0.7607  -0.7607  -0.7601  -0.7601  -0.7549
    -0.7547  -0.7547  -0.7546  -0.7218  -0.7215  -0.6893  -0.6876  -0.6875
    -0.6874  -0.6871  -0.6822  -0.2213  -0.2203  -0.2199  -0.2187  -0.0913
    -0.0898  -0.0797  -0.0764   0.4777   0.4778   0.4779   0.4781   0.5109
     0.5323   0.8907   0.8908   0.8912   0.8913   1.1291   1.1306   1.1311
     1.1346   1.4601   1.4699   1.5152   1.5317   1.5598   1.5634   1.6782
     1.6783   1.6794   1.6800   2.8975   2.8975   2.9152   2.9204   2.9249
     2.9269   2.9306   2.9378   3.1296   3.1298   3.1312   3.1356   3.1367
     3.1450   3.5611   3.5615   3.6235   3.6244   3.8039   3.9055   3.9067
     3.9070   3.9079   4.0484   4.0492   4.2254   4.6328   4.6330   4.7600
     4.7797   4.8196   4.8405   5.0487   5.0571   5.1325   5.1416   5.1487
     5.1626   5.2825   5.2937   5.2941   5.2956   5.2961   5.3410   5.3843
     5.4621   5.5797   5.5807   5.5898   5.6900   5.7615   5.8255   5.8541
     5.8630   5.8851   5.8949   6.0592   6.1051   6.1330   6.1359   6.1364
     6.1593   6.2099   6.2507   6.2743   6.3160   6.3317   6.4182   6.4333
     6.4625   6.4913   6.6640   6.6739   6.7092   6.7102

          k = 0.2500-0.7217 0.0000 (183316 PWs)   bands (ev):

   -26.6148 -26.3843 -25.1388 -24.9442 -15.7753 -14.1676 -11.9364 -10.6095
    -8.9537  -8.9296  -8.4746  -8.4049  -8.0304  -7.5436  -7.5424  -7.4413
    -7.1732  -6.9303  -6.7058  -6.7048  -6.2453  -6.1831  -6.1829  -5.8755
    -5.8377  -5.4584  -5.4494  -5.4482  -5.4463  -5.4230  -5.3851  -5.1099
    -5.1091  -5.0347  -5.0039  -4.7828  -4.7630  -4.6305  -4.6101  -4.6089
    -4.5673  -4.5328  -4.5317  -4.5016  -4.4504  -4.4503  -4.4247  -4.4227
    -4.3385  -4.2755  -4.2678  -4.1863  -4.1858  -4.1854  -4.1796  -4.1794
    -4.0541  -4.0533  -4.0097  -3.9946  -3.9595  -3.9593  -3.9002  -3.8937
    -3.8914  -3.8728  -3.8572  -3.8561  -3.7900  -3.7898  -3.7191  -3.7188
    -3.6976  -3.6118  -3.6117  -3.5909  -3.5902  -3.5711  -3.5706  -3.5169
    -3.5165  -3.5154  -3.5154  -3.5147  -3.5142  -3.5112  -3.5037  -3.4479
    -3.4033  -3.4029  -3.3877  -3.3874  -3.3838  -3.3834  -3.3657  -3.3657
    -3.3513  -3.3510  -3.3485  -3.3298  -3.2871  -3.2870  -3.2825  -3.2772
    -3.2767  -3.2423  -3.2268  -3.2102  -3.2087  -3.2085  -3.1855  -3.1854
    -3.1552  -3.1363  -3.1354  -3.1157  -3.0816  -3.0702  -3.0696  -3.0450
    -3.0445  -3.0408  -3.0387  -3.0374  -3.0357  -3.0354  -3.0353  -2.9814
    -2.9510  -2.9206  -2.8851  -2.8838  -2.8837  -2.8756  -2.8535  -2.8482
    -2.8480  -2.8258  -2.8245  -2.8094  -2.8086  -2.7975  -2.7973  -2.7646
    -2.7643  -2.7499  -2.7497  -2.7486  -2.7484  -2.7269  -2.7267  -2.6889
    -2.6770  -2.6766  -2.6172  -2.6165  -2.5970  -2.5895  -2.5887  -2.5761
    -2.5718  -2.5496  -2.5492  -2.5480  -2.5434  -2.5284  -2.5282  -2.5276
    -2.5271  -2.5008  -2.5007  -2.4970  -2.4961  -2.4801  -2.4445  -2.4441
    -2.4421  -2.4414  -2.4093  -2.4062  -2.3998  -2.3843  -2.3719  -2.3716
    -2.3676  -2.3670  -2.3648  -2.3494  -2.3478  -2.3339  -2.3277  -2.3275
    -2.3245  -2.3132  -2.3129  -2.3101  -2.3100  -2.2806  -2.2609  -2.2510
    -2.2508  -2.2459  -2.2435  -2.2350  -2.2348  -2.2301  -2.2270  -2.2265
    -2.2225  -2.2220  -2.2087  -2.2085  -2.2084  -2.2080  -2.1985  -2.1982
    -2.1684  -2.1618  -2.1618  -2.1519  -2.1518  -2.1392  -2.1368  -2.1326
    -2.1272  -2.1270  -2.1254  -2.1229  -2.1224  -2.1091  -2.1076  -2.0874
    -2.0849  -2.0848  -2.0798  -2.0795  -2.0705  -2.0700  -2.0572  -2.0527
    -2.0497  -2.0190  -2.0151  -2.0148  -2.0118  -2.0075  -2.0063  -1.9984
    -1.9951  -1.9899  -1.9895  -1.9859  -1.9857  -1.9729  -1.9729  -1.9444
    -1.9320  -1.9317  -1.9166  -1.9027  -1.9023  -1.8737  -1.8540  -1.8539
    -1.8408  -1.8395  -1.8393  -1.8178  -1.8074  -1.8072  -1.8046  -1.8044
    -1.7907  -1.7904  -1.7887  -1.7875  -1.7779  -1.7744  -1.7502  -1.7499
    -1.7061  -1.7057  -1.6943  -1.6933  -1.6924  -1.6919  -1.6835  -1.6819
    -1.6817  -1.6810  -1.6735  -1.6732  -1.6629  -1.6616  -1.6343  -1.6337
    -1.6318  -1.6165  -1.6161  -1.6151  -1.6140  -1.6090  -1.5786  -1.5761
    -1.5676  -1.5606  -1.5606  -1.5577  -1.5395  -1.5381  -1.5299  -1.5218
    -1.4854  -1.4845  -1.4697  -1.4694  -1.4679  -1.4675  -1.4522  -1.4520
    -1.4456  -1.4450  -1.4415  -1.4247  -1.4245  -1.4216  -1.4191  -1.4158
    -1.4154  -1.4096  -1.3874  -1.3671  -1.3539  -1.3504  -1.3431  -1.3421
    -1.3272  -1.3268  -1.3192  -1.3191  -1.2896  -1.2888  -1.2690  -1.2678
    -1.2668  -1.2624  -1.2581  -1.2464  -1.2447  -1.2406  -1.2399  -1.2305
    -1.2304  -1.2296  -1.2287  -1.2240  -1.2231  -1.1956  -1.1954  -1.1877
    -1.1869  -1.1803  -1.1803  -1.1640  -1.1633  -1.1605  -1.1524  -1.1263
    -1.1262  -1.0998  -1.0931  -1.0907  -1.0903  -1.0874  -1.0873  -1.0848
    -1.0846  -1.0801  -1.0768  -1.0578  -1.0570  -1.0533  -1.0532  -1.0514
    -1.0514  -1.0427  -1.0413  -1.0411  -1.0198  -1.0197  -1.0160  -1.0136
    -1.0054  -1.0010  -1.0005  -0.9937  -0.9931  -0.9778  -0.9770  -0.9764
    -0.9637  -0.9625  -0.9616  -0.9614  -0.9605  -0.9604  -0.9557  -0.9354
    -0.9353  -0.9311  -0.9309  -0.9308  -0.9170  -0.9163  -0.9053  -0.9052
    -0.9047  -0.9046  -0.9026  -0.8970  -0.8955  -0.8911  -0.8867  -0.8860
    -0.8714  -0.8705  -0.8614  -0.8605  -0.8483  -0.8209  -0.8207  -0.8073
    -0.8071  -0.8038  -0.8037  -0.8034  -0.8033  -0.7874  -0.7873  -0.7769
    -0.7534  -0.7417  -0.7412  -0.7310  -0.6784  -0.6772  -0.6667  -0.4404
    -0.4335  -0.3982  -0.3982  -0.3000  -0.2996  -0.2512  -0.2480  -0.2001
    -0.0856  -0.0852  -0.0718  -0.0716   0.3629   0.4183   0.4214   0.5959
     0.5969   0.6118   0.6125   0.9206   0.9432   1.0999   1.2436   1.2525
     1.2532   1.2653   1.6182   1.6184   1.8099   2.0530   2.0752   2.0802
     2.0887   2.0922   2.0929   2.1356   2.1378   2.2463   2.2538   2.2802
     2.7049   2.8458   2.8461   2.9961   3.0715   3.0738   3.3189   3.3324
     3.5164   3.5171   3.6650   3.7926   3.9025   3.9045   3.9593   3.9680
     3.9714   3.9737   4.0848   4.0883   4.2772   4.4250   4.5055   4.6760
     4.8010   4.9319   4.9858   5.0300   5.0785   5.1233   5.1594   5.2113
     5.2585   5.2951   5.2996   5.3034   5.3846   5.4192   5.4377   5.4550
     5.5140   5.5494   5.5521   5.5685   5.6570   5.7005   5.7322   5.7866
     5.8758   5.9040   5.9179   6.0308   6.0863   6.1453   6.2002   6.2027
     6.2080   6.2153   6.2239   6.2581   6.2723   6.3152   6.3358   6.4658
     6.5567   6.5907   6.5999   6.6199   6.6521   6.7099

          k =-0.2500 0.1443 0.0000 (183317 PWs)   bands (ev):

   -26.6148 -26.3843 -25.1388 -24.9442 -15.7753 -14.1676 -11.9364 -10.6096
    -8.9537  -8.9296  -8.4746  -8.4049  -8.2794  -7.4418  -7.4138  -7.3060
    -6.9305  -6.8434  -6.8431  -6.4815  -6.2456  -6.0998  -6.0493  -6.0490
    -5.9894  -5.9893  -5.8388  -5.6186  -5.4337  -5.2921  -5.2919  -5.2518
    -5.0351  -5.0097  -4.9934  -4.8964  -4.8855  -4.8568  -4.7408  -4.5769
    -4.5766  -4.5669  -4.5016  -4.3576  -4.3558  -4.3493  -4.3394  -4.3358
    -4.2264  -4.1952  -4.1951  -4.1655  -4.1652  -4.1214  -4.1205  -4.0318
    -4.0318  -3.9917  -3.9917  -3.9730  -3.8753  -3.8694  -3.8688  -3.8538
    -3.8522  -3.7990  -3.7990  -3.7731  -3.7367  -3.7363  -3.6574  -3.6401
    -3.6398  -3.6273  -3.6194  -3.6193  -3.6124  -3.6117  -3.5854  -3.5843
    -3.5842  -3.5827  -3.5826  -3.5549  -3.5545  -3.5296  -3.5295  -3.4510
    -3.4509  -3.4431  -3.4217  -3.4216  -3.4149  -3.4148  -3.3962  -3.3961
    -3.3876  -3.3431  -3.3428  -3.3186  -3.3185  -3.3146  -3.3146  -3.2752
    -3.2751  -3.2670  -3.2660  -3.2176  -3.2176  -3.2085  -3.2084  -3.1690
    -3.1689  -3.1242  -3.1240  -3.0718  -3.0716  -3.0420  -3.0419  -2.9977
    -2.9975  -2.9891  -2.9814  -2.9762  -2.9760  -2.9757  -2.9755  -2.9711
    -2.9709  -2.8880  -2.8879  -2.8705  -2.8703  -2.8665  -2.8656  -2.8654
    -2.8645  -2.7993  -2.7992  -2.7948  -2.7946  -2.7825  -2.7824  -2.7767
    -2.7766  -2.7698  -2.7696  -2.7551  -2.7221  -2.7219  -2.7103  -2.7103
    -2.6926  -2.6920  -2.6920  -2.6597  -2.6596  -2.6361  -2.6360  -2.6253
    -2.6252  -2.6071  -2.5827  -2.5826  -2.5651  -2.5649  -2.5457  -2.5355
    -2.5056  -2.5056  -2.4977  -2.4974  -2.4851  -2.4767  -2.4719  -2.4565
    -2.4521  -2.4520  -2.4256  -2.4254  -2.4254  -2.4251  -2.4230  -2.4230
    -2.3788  -2.3788  -2.3529  -2.3526  -2.3514  -2.3513  -2.3465  -2.3454
    -2.3291  -2.2876  -2.2875  -2.2726  -2.2724  -2.2551  -2.2550  -2.2503
    -2.2490  -2.2476  -2.2403  -2.2301  -2.2297  -2.2296  -2.2037  -2.2020
    -2.2020  -2.1938  -2.1894  -2.1764  -2.1751  -2.1741  -2.1584  -2.1496
    -2.1495  -2.1487  -2.1485  -2.1394  -2.1390  -2.1229  -2.1220  -2.1217
    -2.1083  -2.1080  -2.1036  -2.0894  -2.0707  -2.0705  -2.0628  -2.0549
    -2.0547  -2.0485  -2.0482  -2.0453  -2.0442  -2.0440  -2.0399  -2.0398
    -2.0223  -2.0171  -2.0169  -2.0050  -2.0050  -1.9990  -1.9934  -1.9920
    -1.9919  -1.9741  -1.9734  -1.9686  -1.9682  -1.9604  -1.9602  -1.9492
    -1.9486  -1.9478  -1.9472  -1.9389  -1.9257  -1.9253  -1.9226  -1.9219
    -1.9193  -1.9187  -1.9057  -1.8803  -1.8792  -1.8788  -1.8535  -1.8529
    -1.8445  -1.8417  -1.8416  -1.8193  -1.8017  -1.8016  -1.7875  -1.7719
    -1.7719  -1.7652  -1.7590  -1.7318  -1.7316  -1.7310  -1.7306  -1.7283
    -1.7282  -1.7262  -1.7260  -1.7160  -1.7159  -1.6934  -1.6774  -1.6768
    -1.6395  -1.6392  -1.6233  -1.6144  -1.6003  -1.6003  -1.5615  -1.5611
    -1.5506  -1.5505  -1.5495  -1.5494  -1.5306  -1.5304  -1.5233  -1.5121
    -1.5120  -1.5038  -1.4974  -1.4938  -1.4887  -1.4886  -1.4780  -1.4776
    -1.4486  -1.4426  -1.4334  -1.4234  -1.4222  -1.4085  -1.4085  -1.4057
    -1.4057  -1.3896  -1.3773  -1.3771  -1.3756  -1.3753  -1.3747  -1.3681
    -1.3681  -1.3589  -1.3571  -1.3484  -1.3483  -1.3342  -1.3341  -1.3192
    -1.3183  -1.3181  -1.2632  -1.2630  -1.2548  -1.2546  -1.2523  -1.2522
    -1.2478  -1.2429  -1.2407  -1.2407  -1.2354  -1.2354  -1.2314  -1.2310
    -1.2034  -1.1977  -1.1947  -1.1860  -1.1859  -1.1847  -1.1846  -1.1799
    -1.1797  -1.1749  -1.1604  -1.1164  -1.0999  -1.0998  -1.0973  -1.0969
    -1.0961  -1.0958  -1.0948  -1.0809  -1.0651  -1.0610  -1.0609  -1.0550
    -1.0528  -1.0521  -1.0470  -1.0466  -1.0196  -1.0195  -1.0183  -1.0181
    -1.0089  -1.0086  -0.9713  -0.9655  -0.9622  -0.9589  -0.9589  -0.9581
    -0.9547  -0.9198  -0.9162  -0.9161  -0.9157  -0.9157  -0.9119  -0.9117
    -0.9110  -0.8963  -0.8913  -0.8912  -0.8863  -0.8862  -0.8823  -0.8817
    -0.8815  -0.8812  -0.8781  -0.8761  -0.8761  -0.8695  -0.8693  -0.8681
    -0.8679  -0.8661  -0.8447  -0.8401  -0.8400  -0.8303  -0.8301  -0.8173
    -0.8146  -0.8145  -0.8077  -0.8076  -0.7681  -0.7680  -0.7568  -0.7567
    -0.7086  -0.7086  -0.6961  -0.6948  -0.6860  -0.6796  -0.6448  -0.3353
    -0.3087  -0.2464  -0.2464  -0.0494  -0.0491  -0.0333  -0.0288  -0.0127
     0.2668   0.3905   0.3905   0.5112   0.5135   0.5140   0.5141   0.6268
     0.6278   0.7182   0.7601   0.8886   0.8887   0.9195   1.0211   1.0212
     1.1706   1.6114   1.6197   1.6293   1.6301   1.6356   1.6356   1.7547
     1.7549   2.0578   2.0599   2.1604   2.1607   2.2489   2.4100   2.4115
     2.4137   2.4187   2.4298   2.7705   2.8545   2.8547   3.0714   3.0828
     3.1434   3.1442   3.1973   3.1985   3.3661   3.6174   4.0822   4.0871
     4.2178   4.2297   4.4086   4.4501   4.4522   4.4570   4.6922   4.7423
     4.8213   4.9129   4.9174   4.9346   4.9352   4.9816   5.0841   5.1099
     5.1677   5.2242   5.2245   5.3355   5.5308   5.6031   5.6717   5.7206
     5.7358   5.7591   5.8242   5.8603   5.8836   5.9208   5.9544   5.9617
     5.9638   5.9692   6.0039   6.0066   6.0365   6.0627   6.1113   6.2135
     6.2425   6.3148   6.3391   6.4042   6.4451   6.4801   6.5243   6.5315
     6.5474   6.6020   6.6495   6.7032   6.7500   6.7564

          k = 0.2500 0.1443 0.0000 (183317 PWs)   bands (ev):

   -26.6148 -26.3843 -25.1388 -24.9442 -15.7753 -14.1676 -11.9364 -10.6096
    -8.9537  -8.9296  -8.4746  -8.4049  -8.2794  -7.4417  -7.4138  -7.3060
    -6.9305  -6.8434  -6.8431  -6.4815  -6.2456  -6.0998  -6.0494  -6.0489
    -5.9894  -5.9893  -5.8388  -5.6186  -5.4337  -5.2921  -5.2919  -5.2519
    -5.0350  -5.0102  -4.9932  -4.8957  -4.8852  -4.8572  -4.7412  -4.5767
    -4.5766  -4.5670  -4.5016  -4.3579  -4.3557  -4.3493  -4.3394  -4.3358
    -4.2264  -4.1952  -4.1951  -4.1656  -4.1651  -4.1214  -4.1205  -4.0318
    -4.0318  -3.9917  -3.9917  -3.9730  -3.8746  -3.8694  -3.8692  -3.8541
    -3.8523  -3.7990  -3.7990  -3.7731  -3.7367  -3.7363  -3.6575  -3.6401
    -3.6398  -3.6273  -3.6194  -3.6192  -3.6124  -3.6117  -3.5854  -3.5843
    -3.5843  -3.5827  -3.5826  -3.5549  -3.5545  -3.5296  -3.5295  -3.4510
    -3.4509  -3.4431  -3.4218  -3.4216  -3.4149  -3.4148  -3.3963  -3.3961
    -3.3876  -3.3431  -3.3428  -3.3187  -3.3185  -3.3146  -3.3146  -3.2752
    -3.2751  -3.2668  -3.2662  -3.2176  -3.2175  -3.2085  -3.2084  -3.1690
    -3.1689  -3.1242  -3.1240  -3.0718  -3.0715  -3.0420  -3.0419  -2.9977
    -2.9975  -2.9890  -2.9815  -2.9762  -2.9760  -2.9756  -2.9755  -2.9711
    -2.9710  -2.8880  -2.8879  -2.8705  -2.8703  -2.8664  -2.8656  -2.8655
    -2.8645  -2.7993  -2.7992  -2.7948  -2.7946  -2.7825  -2.7824  -2.7767
    -2.7766  -2.7698  -2.7696  -2.7551  -2.7221  -2.7219  -2.7103  -2.7103
    -2.6926  -2.6920  -2.6920  -2.6597  -2.6596  -2.6361  -2.6360  -2.6253
    -2.6252  -2.6071  -2.5827  -2.5826  -2.5652  -2.5648  -2.5457  -2.5355
    -2.5056  -2.5056  -2.4978  -2.4974  -2.4851  -2.4768  -2.4718  -2.4565
    -2.4521  -2.4520  -2.4256  -2.4254  -2.4253  -2.4252  -2.4230  -2.4230
    -2.3788  -2.3787  -2.3529  -2.3526  -2.3514  -2.3513  -2.3465  -2.3453
    -2.3291  -2.2876  -2.2875  -2.2726  -2.2724  -2.2551  -2.2550  -2.2503
    -2.2489  -2.2476  -2.2403  -2.2301  -2.2297  -2.2296  -2.2037  -2.2020
    -2.2020  -2.1938  -2.1894  -2.1763  -2.1752  -2.1741  -2.1584  -2.1495
    -2.1494  -2.1487  -2.1486  -2.1394  -2.1389  -2.1229  -2.1220  -2.1217
    -2.1083  -2.1079  -2.1036  -2.0895  -2.0707  -2.0705  -2.0628  -2.0549
    -2.0548  -2.0485  -2.0482  -2.0453  -2.0442  -2.0440  -2.0399  -2.0399
    -2.0223  -2.0170  -2.0169  -2.0051  -2.0050  -1.9990  -1.9934  -1.9920
    -1.9919  -1.9741  -1.9735  -1.9686  -1.9682  -1.9604  -1.9603  -1.9492
    -1.9486  -1.9478  -1.9471  -1.9389  -1.9258  -1.9252  -1.9227  -1.9219
    -1.9193  -1.9187  -1.9057  -1.8804  -1.8792  -1.8788  -1.8535  -1.8529
    -1.8445  -1.8417  -1.8416  -1.8193  -1.8017  -1.8016  -1.7875  -1.7719
    -1.7719  -1.7651  -1.7589  -1.7319  -1.7315  -1.7309  -1.7307  -1.7283
    -1.7283  -1.7262  -1.7260  -1.7160  -1.7159  -1.6934  -1.6774  -1.6769
    -1.6396  -1.6392  -1.6233  -1.6144  -1.6003  -1.6003  -1.5615  -1.5611
    -1.5506  -1.5505  -1.5494  -1.5494  -1.5306  -1.5303  -1.5233  -1.5121
    -1.5120  -1.5038  -1.4973  -1.4939  -1.4888  -1.4886  -1.4780  -1.4776
    -1.4486  -1.4426  -1.4334  -1.4234  -1.4222  -1.4085  -1.4084  -1.4057
    -1.4057  -1.3896  -1.3774  -1.3771  -1.3756  -1.3754  -1.3745  -1.3681
    -1.3681  -1.3589  -1.3571  -1.3484  -1.3483  -1.3343  -1.3341  -1.3192
    -1.3184  -1.3181  -1.2632  -1.2630  -1.2548  -1.2546  -1.2523  -1.2522
    -1.2478  -1.2429  -1.2407  -1.2407  -1.2354  -1.2354  -1.2314  -1.2310
    -1.2034  -1.1977  -1.1947  -1.1860  -1.1859  -1.1847  -1.1846  -1.1799
    -1.1798  -1.1749  -1.1604  -1.1164  -1.0999  -1.0998  -1.0973  -1.0969
    -1.0962  -1.0957  -1.0948  -1.0808  -1.0652  -1.0610  -1.0609  -1.0550
    -1.0528  -1.0520  -1.0470  -1.0466  -1.0196  -1.0195  -1.0184  -1.0180
    -1.0089  -1.0086  -0.9713  -0.9655  -0.9622  -0.9589  -0.9589  -0.9580
    -0.9547  -0.9198  -0.9162  -0.9161  -0.9157  -0.9157  -0.9119  -0.9117
    -0.9111  -0.8963  -0.8913  -0.8912  -0.8863  -0.8862  -0.8823  -0.8817
    -0.8815  -0.8812  -0.8781  -0.8761  -0.8761  -0.8695  -0.8693  -0.8680
    -0.8679  -0.8660  -0.8447  -0.8401  -0.8400  -0.8303  -0.8301  -0.8172
    -0.8146  -0.8145  -0.8078  -0.8076  -0.7681  -0.7680  -0.7568  -0.7567
    -0.7086  -0.7086  -0.6962  -0.6947  -0.6860  -0.6796  -0.6447  -0.3352
    -0.3087  -0.2464  -0.2464  -0.0494  -0.0491  -0.0331  -0.0291  -0.0127
     0.2668   0.3905   0.3905   0.5111   0.5136   0.5140   0.5142   0.6268
     0.6279   0.7181   0.7602   0.8886   0.8887   0.9195   1.0211   1.0212
     1.1708   1.6108   1.6201   1.6293   1.6299   1.6356   1.6356   1.7546
     1.7549   2.0577   2.0601   2.1604   2.1607   2.2489   2.4095   2.4116
     2.4143   2.4189   2.4294   2.7706   2.8545   2.8547   3.0702   3.0835
     3.1433   3.1443   3.1973   3.1984   3.3662   3.6179   4.0819   4.0876
     4.2164   4.2304   4.4174   4.4408   4.4516   4.4531   4.7022   4.7393
     4.8311   4.9136   4.9157   4.9344   4.9355   4.9958   5.0977   5.1102
     5.1816   5.2243   5.2245   5.3048   5.4967   5.6036   5.6616   5.7268
     5.7344   5.7563   5.8170   5.8679   5.8847   5.9280   5.9339   5.9629
     5.9636   5.9854   6.0038   6.0073   6.0308   6.0736   6.1115   6.2061
     6.2448   6.2947   6.3407   6.4025   6.4366   6.4796   6.5264   6.5341
     6.5446   6.5907   6.6990   6.7336   6.7570   6.7646

          k = 0.5000-0.2887 0.0000 (183406 PWs)   bands (ev):

   -26.6148 -26.3843 -25.1388 -24.9442 -15.7753 -14.1677 -11.9362 -10.6096
    -8.9537  -8.9299  -8.4746  -8.4056  -7.9079  -7.9067  -7.4409  -7.0551
    -7.0543  -6.9559  -6.9550  -6.9287  -6.2458  -6.1509  -6.1503  -5.8403
    -5.7651  -5.7624  -5.4315  -5.3138  -5.3136  -5.3136  -5.3134  -5.0352
    -5.0095  -4.9695  -4.9601  -4.8050  -4.8036  -4.7737  -4.7279  -4.7277
    -4.7274  -4.7226  -4.5680  -4.5459  -4.5311  -4.5013  -4.4226  -4.4225
    -4.3385  -4.1105  -4.1080  -4.1053  -4.1052  -4.1047  -4.1044  -4.0422
    -4.0418  -4.0204  -4.0199  -4.0196  -4.0187  -3.9288  -3.9288  -3.9282
    -3.9280  -3.8932  -3.8904  -3.8715  -3.7780  -3.7778  -3.7778  -3.7776
    -3.6394  -3.6389  -3.5818  -3.5814  -3.5158  -3.5158  -3.5156  -3.5153
    -3.5085  -3.5084  -3.5062  -3.5061  -3.4983  -3.4981  -3.4981  -3.4979
    -3.4924  -3.4920  -3.4715  -3.4714  -3.4710  -3.4708  -3.3676  -3.3672
    -3.3119  -3.3119  -3.2763  -3.2760  -3.2753  -3.2747  -3.2619  -3.2618
    -3.2615  -3.2614  -3.2609  -3.2607  -3.1969  -3.1968  -3.1539  -3.1538
    -3.1529  -3.1527  -3.1473  -3.1461  -3.1110  -3.1109  -3.1108  -3.1108
    -3.0552  -3.0551  -2.9967  -2.9966  -2.9808  -2.9219  -2.9219  -2.9060
    -2.9059  -2.9057  -2.9056  -2.8764  -2.8762  -2.8508  -2.8507  -2.8501
    -2.8498  -2.8308  -2.8306  -2.8306  -2.8305  -2.8293  -2.8292  -2.8227
    -2.8217  -2.8169  -2.8167  -2.7137  -2.7136  -2.7134  -2.7134  -2.6653
    -2.6651  -2.6410  -2.6406  -2.6363  -2.6361  -2.6151  -2.6150  -2.5848
    -2.5843  -2.5838  -2.5835  -2.5673  -2.5671  -2.5669  -2.5667  -2.5643
    -2.5641  -2.4744  -2.4733  -2.4665  -2.4662  -2.4445  -2.4435  -2.4255
    -2.4254  -2.4138  -2.4135  -2.4132  -2.4132  -2.3874  -2.3860  -2.3683
    -2.3683  -2.3143  -2.3140  -2.3117  -2.3114  -2.3113  -2.3112  -2.2798
    -2.2789  -2.2730  -2.2719  -2.2539  -2.2536  -2.2406  -2.2405  -2.2403
    -2.2403  -2.2380  -2.2378  -2.2359  -2.2356  -2.2317  -2.2309  -2.2243
    -2.2214  -2.1921  -2.1919  -2.1917  -2.1915  -2.1743  -2.1741  -2.1607
    -2.1605  -2.1602  -2.1601  -2.1508  -2.1504  -2.1503  -2.1500  -2.1495
    -2.1492  -2.1382  -2.1373  -2.1337  -2.1334  -2.1082  -2.1082  -2.1080
    -2.1080  -2.0972  -2.0967  -2.0922  -2.0909  -2.0779  -2.0778  -2.0724
    -2.0722  -2.0419  -2.0398  -2.0330  -2.0325  -2.0317  -2.0315  -2.0228
    -2.0225  -2.0223  -2.0221  -1.9964  -1.9960  -1.9903  -1.9900  -1.9210
    -1.9205  -1.9204  -1.9201  -1.8827  -1.8821  -1.8632  -1.8627  -1.8624
    -1.8623  -1.8611  -1.8609  -1.8606  -1.8590  -1.8534  -1.8528  -1.8204
    -1.8201  -1.8033  -1.8011  -1.7905  -1.7904  -1.7871  -1.7870  -1.7869
    -1.7868  -1.7407  -1.7406  -1.7385  -1.7377  -1.6965  -1.6964  -1.6963
    -1.6962  -1.6781  -1.6780  -1.6662  -1.6653  -1.6487  -1.6487  -1.5984
    -1.5968  -1.5612  -1.5610  -1.5609  -1.5606  -1.5424  -1.5408  -1.5349
    -1.5348  -1.5184  -1.5182  -1.5181  -1.5181  -1.5067  -1.5066  -1.5058
    -1.5055  -1.4592  -1.4590  -1.4577  -1.4573  -1.4553  -1.4522  -1.4343
    -1.4338  -1.4335  -1.4333  -1.4151  -1.4147  -1.4121  -1.4116  -1.3866
    -1.3830  -1.3820  -1.3805  -1.3805  -1.3797  -1.3665  -1.3660  -1.3658
    -1.3652  -1.3515  -1.3511  -1.3257  -1.3254  -1.3253  -1.3249  -1.3110
    -1.3108  -1.2448  -1.2446  -1.2445  -1.2440  -1.2332  -1.2331  -1.2331
    -1.2329  -1.2222  -1.2217  -1.2082  -1.2020  -1.1960  -1.1956  -1.1712
    -1.1708  -1.1665  -1.1660  -1.1658  -1.1655  -1.1171  -1.1168  -1.1166
    -1.1158  -1.0952  -1.0951  -1.0944  -1.0943  -1.0869  -1.0866  -1.0865
    -1.0861  -1.0764  -1.0757  -1.0564  -1.0563  -1.0546  -1.0544  -1.0321
    -1.0320  -1.0308  -1.0307  -1.0306  -1.0305  -1.0043  -1.0036  -1.0021
    -1.0009  -0.9987  -0.9986  -0.9976  -0.9969  -0.9853  -0.9840  -0.9711
    -0.9711  -0.9678  -0.9670  -0.9633  -0.9632  -0.9632  -0.9631  -0.9454
    -0.9452  -0.8995  -0.8995  -0.8908  -0.8906  -0.8905  -0.8904  -0.8903
    -0.8898  -0.8881  -0.8880  -0.8849  -0.8838  -0.8799  -0.8797  -0.8791
    -0.8790  -0.8733  -0.8728  -0.8382  -0.8382  -0.8370  -0.8367  -0.8286
    -0.8265  -0.7947  -0.7934  -0.7610  -0.7607  -0.7601  -0.7598  -0.7549
    -0.7548  -0.7547  -0.7546  -0.7218  -0.7215  -0.6896  -0.6876  -0.6874
    -0.6873  -0.6871  -0.6819  -0.2210  -0.2204  -0.2200  -0.2187  -0.0910
    -0.0899  -0.0796  -0.0766   0.4776   0.4778   0.4779   0.4782   0.5092
     0.5342   0.8906   0.8908   0.8913   0.8913   1.1292   1.1305   1.1315
     1.1344   1.4574   1.4748   1.5119   1.5321   1.5603   1.5640   1.6775
     1.6781   1.6794   1.6802   2.8975   2.8976   2.9154   2.9224   2.9248
     2.9260   2.9305   2.9347   3.1293   3.1297   3.1319   3.1354   3.1377
     3.1454   3.5613   3.5616   3.6235   3.6255   3.8336   3.9051   3.9059
     3.9074   3.9081   4.0399   4.0488   4.0496   4.6330   4.6332   4.6820
     4.7367   4.8373   4.9620   5.0329   5.0982   5.1311   5.1521   5.1561
     5.1668   5.2817   5.2929   5.2943   5.2954   5.2966   5.3551   5.3868
     5.5228   5.5799   5.5808   5.6780   5.6984   5.7577   5.8204   5.8405
     5.9161   5.9424   5.9794   6.0443   6.1241   6.1321   6.1382   6.1484
     6.2001   6.2056   6.2472   6.2571   6.3156   6.3297   6.4063   6.4337
     6.4535   6.4769   6.5533   6.6713   6.6749   6.7095

          k =-0.5000-0.2887 0.0000 (183406 PWs)   bands (ev):

   -26.6148 -26.3843 -25.1388 -24.9442 -15.7753 -14.1677 -11.9362 -10.6096
    -8.9537  -8.9299  -8.4746  -8.4056  -7.9075  -7.9071  -7.4408  -7.0547
    -7.0546  -6.9557  -6.9551  -6.9288  -6.2457  -6.1510  -6.1502  -5.8403
    -5.7640  -5.7635  -5.4315  -5.3138  -5.3136  -5.3136  -5.3135  -5.0355
    -5.0098  -4.9689  -4.9595  -4.8048  -4.8038  -4.7746  -4.7279  -4.7277
    -4.7273  -4.7225  -4.5679  -4.5454  -4.5313  -4.5014  -4.4227  -4.4225
    -4.3385  -4.1104  -4.1081  -4.1051  -4.1050  -4.1047  -4.1046  -4.0421
    -4.0419  -4.0205  -4.0199  -4.0196  -4.0186  -3.9287  -3.9285  -3.9284
    -3.9283  -3.8930  -3.8905  -3.8717  -3.7782  -3.7778  -3.7777  -3.7776
    -3.6393  -3.6390  -3.5818  -3.5815  -3.5161  -3.5159  -3.5153  -3.5152
    -3.5085  -3.5084  -3.5062  -3.5061  -3.4983  -3.4982  -3.4980  -3.4979
    -3.4922  -3.4921  -3.4717  -3.4714  -3.4709  -3.4706  -3.3677  -3.3672
    -3.3119  -3.3119  -3.2762  -3.2761  -3.2751  -3.2750  -3.2617  -3.2616
    -3.2616  -3.2614  -3.2610  -3.2608  -3.1970  -3.1967  -3.1542  -3.1538
    -3.1528  -3.1525  -3.1471  -3.1463  -3.1110  -3.1109  -3.1108  -3.1107
    -3.0552  -3.0551  -2.9966  -2.9966  -2.9808  -2.9219  -2.9219  -2.9061
    -2.9059  -2.9058  -2.9055  -2.8764  -2.8762  -2.8510  -2.8508  -2.8498
    -2.8498  -2.8307  -2.8307  -2.8306  -2.8304  -2.8294  -2.8293  -2.8223
    -2.8220  -2.8169  -2.8167  -2.7137  -2.7137  -2.7134  -2.7133  -2.6653
    -2.6651  -2.6410  -2.6407  -2.6363  -2.6361  -2.6151  -2.6149  -2.5847
    -2.5845  -2.5837  -2.5834  -2.5673  -2.5671  -2.5669  -2.5667  -2.5643
    -2.5641  -2.4746  -2.4731  -2.4664  -2.4663  -2.4443  -2.4438  -2.4255
    -2.4254  -2.4137  -2.4134  -2.4133  -2.4133  -2.3874  -2.3860  -2.3683
    -2.3682  -2.3142  -2.3141  -2.3117  -2.3115  -2.3113  -2.3110  -2.2798
    -2.2789  -2.2730  -2.2718  -2.2539  -2.2537  -2.2406  -2.2405  -2.2403
    -2.2402  -2.2380  -2.2375  -2.2361  -2.2358  -2.2316  -2.2310  -2.2240
    -2.2216  -2.1923  -2.1921  -2.1915  -2.1912  -2.1742  -2.1741  -2.1607
    -2.1606  -2.1602  -2.1600  -2.1509  -2.1506  -2.1504  -2.1503  -2.1489
    -2.1489  -2.1380  -2.1375  -2.1344  -2.1327  -2.1083  -2.1082  -2.1081
    -2.1079  -2.0973  -2.0966  -2.0922  -2.0909  -2.0779  -2.0778  -2.0724
    -2.0722  -2.0417  -2.0400  -2.0330  -2.0325  -2.0317  -2.0315  -2.0228
    -2.0225  -2.0224  -2.0221  -1.9963  -1.9961  -1.9903  -1.9899  -1.9210
    -1.9206  -1.9203  -1.9201  -1.8828  -1.8820  -1.8631  -1.8627  -1.8625
    -1.8624  -1.8612  -1.8609  -1.8604  -1.8591  -1.8534  -1.8528  -1.8204
    -1.8201  -1.8033  -1.8011  -1.7905  -1.7904  -1.7877  -1.7875  -1.7864
    -1.7862  -1.7407  -1.7406  -1.7386  -1.7377  -1.6965  -1.6965  -1.6962
    -1.6962  -1.6788  -1.6773  -1.6662  -1.6654  -1.6487  -1.6487  -1.5987
    -1.5965  -1.5612  -1.5610  -1.5609  -1.5606  -1.5422  -1.5410  -1.5349
    -1.5347  -1.5184  -1.5182  -1.5182  -1.5181  -1.5072  -1.5062  -1.5059
    -1.5054  -1.4591  -1.4590  -1.4578  -1.4572  -1.4553  -1.4521  -1.4345
    -1.4344  -1.4333  -1.4328  -1.4151  -1.4147  -1.4121  -1.4116  -1.3868
    -1.3829  -1.3821  -1.3805  -1.3805  -1.3795  -1.3662  -1.3661  -1.3657
    -1.3656  -1.3517  -1.3508  -1.3256  -1.3255  -1.3254  -1.3248  -1.3110
    -1.3108  -1.2447  -1.2445  -1.2445  -1.2441  -1.2333  -1.2331  -1.2330
    -1.2328  -1.2222  -1.2218  -1.2084  -1.2018  -1.1960  -1.1956  -1.1715
    -1.1706  -1.1665  -1.1664  -1.1656  -1.1653  -1.1170  -1.1169  -1.1166
    -1.1157  -1.0951  -1.0950  -1.0945  -1.0944  -1.0871  -1.0865  -1.0863
    -1.0859  -1.0764  -1.0756  -1.0564  -1.0563  -1.0545  -1.0544  -1.0322
    -1.0321  -1.0308  -1.0306  -1.0305  -1.0305  -1.0042  -1.0037  -1.0019
    -1.0011  -0.9991  -0.9982  -0.9973  -0.9971  -0.9853  -0.9840  -0.9712
    -0.9711  -0.9679  -0.9668  -0.9633  -0.9632  -0.9632  -0.9630  -0.9454
    -0.9451  -0.8995  -0.8995  -0.8907  -0.8906  -0.8905  -0.8904  -0.8902
    -0.8900  -0.8881  -0.8880  -0.8849  -0.8839  -0.8797  -0.8797  -0.8792
    -0.8791  -0.8735  -0.8726  -0.8385  -0.8377  -0.8371  -0.8366  -0.8284
    -0.8267  -0.7945  -0.7936  -0.7610  -0.7606  -0.7601  -0.7598  -0.7549
    -0.7548  -0.7547  -0.7546  -0.7217  -0.7215  -0.6896  -0.6876  -0.6875
    -0.6874  -0.6870  -0.6817  -0.2210  -0.2205  -0.2200  -0.2186  -0.0909
    -0.0899  -0.0797  -0.0767   0.4775   0.4776   0.4782   0.4782   0.5092
     0.5345   0.8907   0.8908   0.8911   0.8913   1.1293   1.1302   1.1312
     1.1349   1.4572   1.4754   1.5111   1.5324   1.5612   1.5632   1.6776
     1.6781   1.6794   1.6800   2.8975   2.8976   2.9144   2.9224   2.9252
     2.9269   2.9296   2.9343   3.1295   3.1298   3.1316   3.1355   3.1377
     3.1458   3.5613   3.5617   3.6226   3.6261   3.8371   3.9052   3.9057
     3.9072   3.9080   4.0346   4.0486   4.0497   4.6330   4.6332   4.6800
     4.7823   4.8260   4.9888   5.0318   5.0949   5.1323   5.1508   5.1596
     5.1660   5.2749   5.2933   5.2935   5.2957   5.2970   5.3497   5.3991
     5.5042   5.5803   5.5808   5.6394   5.6731   5.7530   5.8148   5.8363
     5.8972   5.9487   5.9907   6.0592   6.1187   6.1222   6.1338   6.1408
     6.1666   6.2166   6.2198   6.2875   6.3129   6.3478   6.3865   6.4107
     6.4614   6.4760   6.5889   6.6710   6.6752   6.7094

          k =-0.2500-0.7217 0.0000 (183316 PWs)   bands (ev):

   -26.6148 -26.3843 -25.1388 -24.9442 -15.7753 -14.1676 -11.9364 -10.6095
    -8.9537  -8.9296  -8.4746  -8.4049  -8.0304  -7.5432  -7.5428  -7.4413
    -7.1732  -6.9303  -6.7057  -6.7049  -6.2453  -6.1831  -6.1829  -5.8755
    -5.8377  -5.4581  -5.4494  -5.4481  -5.4465  -5.4233  -5.3851  -5.1097
    -5.1093  -5.0347  -5.0039  -4.7822  -4.7634  -4.6308  -4.6099  -4.6093
    -4.5669  -4.5327  -4.5320  -4.5015  -4.4504  -4.4503  -4.4245  -4.4230
    -4.3385  -4.2755  -4.2678  -4.1863  -4.1858  -4.1855  -4.1796  -4.1794
    -4.0541  -4.0533  -4.0097  -3.9946  -3.9595  -3.9593  -3.9002  -3.8937
    -3.8915  -3.8728  -3.8571  -3.8562  -3.7900  -3.7898  -3.7192  -3.7187
    -3.6975  -3.6118  -3.6117  -3.5909  -3.5901  -3.5711  -3.5706  -3.5169
    -3.5165  -3.5154  -3.5154  -3.5147  -3.5142  -3.5112  -3.5037  -3.4479
    -3.4034  -3.4028  -3.3879  -3.3873  -3.3837  -3.3835  -3.3657  -3.3657
    -3.3513  -3.3511  -3.3485  -3.3298  -3.2871  -3.2869  -3.2825  -3.2772
    -3.2768  -3.2423  -3.2268  -3.2103  -3.2088  -3.2083  -3.1854  -3.1854
    -3.1552  -3.1363  -3.1354  -3.1157  -3.0816  -3.0702  -3.0697  -3.0450
    -3.0445  -3.0408  -3.0386  -3.0376  -3.0357  -3.0354  -3.0353  -2.9814
    -2.9510  -2.9206  -2.8851  -2.8838  -2.8837  -2.8756  -2.8534  -2.8482
    -2.8481  -2.8255  -2.8248  -2.8093  -2.8088  -2.7976  -2.7972  -2.7645
    -2.7644  -2.7499  -2.7497  -2.7485  -2.7484  -2.7269  -2.7267  -2.6889
    -2.6769  -2.6767  -2.6171  -2.6165  -2.5970  -2.5894  -2.5888  -2.5761
    -2.5718  -2.5496  -2.5492  -2.5480  -2.5434  -2.5283  -2.5282  -2.5275
    -2.5272  -2.5008  -2.5007  -2.4970  -2.4961  -2.4801  -2.4445  -2.4441
    -2.4421  -2.4414  -2.4093  -2.4062  -2.3998  -2.3843  -2.3719  -2.3717
    -2.3675  -2.3671  -2.3648  -2.3493  -2.3479  -2.3339  -2.3278  -2.3274
    -2.3246  -2.3131  -2.3129  -2.3101  -2.3101  -2.2806  -2.2609  -2.2509
    -2.2508  -2.2460  -2.2434  -2.2351  -2.2347  -2.2301  -2.2269  -2.2266
    -2.2224  -2.2221  -2.2088  -2.2086  -2.2084  -2.2081  -2.1985  -2.1981
    -2.1684  -2.1618  -2.1618  -2.1519  -2.1518  -2.1392  -2.1368  -2.1326
    -2.1271  -2.1270  -2.1254  -2.1230  -2.1224  -2.1090  -2.1077  -2.0874
    -2.0853  -2.0845  -2.0797  -2.0796  -2.0705  -2.0700  -2.0572  -2.0527
    -2.0497  -2.0190  -2.0156  -2.0143  -2.0118  -2.0074  -2.0064  -1.9985
    -1.9951  -1.9900  -1.9894  -1.9859  -1.9857  -1.9729  -1.9729  -1.9444
    -1.9321  -1.9316  -1.9166  -1.9028  -1.9023  -1.8737  -1.8540  -1.8539
    -1.8408  -1.8395  -1.8393  -1.8177  -1.8077  -1.8069  -1.8050  -1.8040
    -1.7911  -1.7900  -1.7887  -1.7876  -1.7779  -1.7744  -1.7502  -1.7499
    -1.7062  -1.7057  -1.6941  -1.6933  -1.6925  -1.6919  -1.6834  -1.6821
    -1.6814  -1.6812  -1.6735  -1.6732  -1.6627  -1.6619  -1.6343  -1.6336
    -1.6320  -1.6163  -1.6162  -1.6152  -1.6140  -1.6090  -1.5784  -1.5763
    -1.5676  -1.5606  -1.5606  -1.5577  -1.5395  -1.5380  -1.5299  -1.5218
    -1.4854  -1.4844  -1.4698  -1.4693  -1.4679  -1.4675  -1.4522  -1.4520
    -1.4456  -1.4452  -1.4413  -1.4250  -1.4245  -1.4214  -1.4190  -1.4158
    -1.4155  -1.4096  -1.3874  -1.3671  -1.3539  -1.3504  -1.3430  -1.3421
    -1.3272  -1.3269  -1.3192  -1.3191  -1.2895  -1.2889  -1.2691  -1.2677
    -1.2668  -1.2624  -1.2581  -1.2465  -1.2445  -1.2406  -1.2399  -1.2305
    -1.2304  -1.2296  -1.2286  -1.2240  -1.2231  -1.1957  -1.1953  -1.1878
    -1.1869  -1.1803  -1.1803  -1.1640  -1.1633  -1.1605  -1.1524  -1.1263
    -1.1262  -1.0998  -1.0931  -1.0907  -1.0903  -1.0875  -1.0872  -1.0848
    -1.0845  -1.0801  -1.0769  -1.0576  -1.0572  -1.0533  -1.0532  -1.0514
    -1.0513  -1.0427  -1.0413  -1.0412  -1.0198  -1.0197  -1.0160  -1.0136
    -1.0054  -1.0010  -1.0006  -0.9938  -0.9930  -0.9780  -0.9768  -0.9763
    -0.9638  -0.9625  -0.9617  -0.9613  -0.9605  -0.9604  -0.9557  -0.9354
    -0.9353  -0.9311  -0.9309  -0.9308  -0.9170  -0.9163  -0.9054  -0.9051
    -0.9046  -0.9046  -0.9026  -0.8970  -0.8955  -0.8912  -0.8866  -0.8862
    -0.8713  -0.8706  -0.8613  -0.8605  -0.8484  -0.8209  -0.8207  -0.8073
    -0.8072  -0.8038  -0.8038  -0.8035  -0.8032  -0.7874  -0.7873  -0.7769
    -0.7535  -0.7417  -0.7412  -0.7310  -0.6784  -0.6772  -0.6668  -0.4404
    -0.4335  -0.3982  -0.3982  -0.2999  -0.2997  -0.2512  -0.2480  -0.2002
    -0.0857  -0.0851  -0.0718  -0.0717   0.3628   0.4183   0.4214   0.5959
     0.5970   0.6118   0.6125   0.9205   0.9434   1.0998   1.2436   1.2528
     1.2530   1.2650   1.6182   1.6184   1.8100   2.0526   2.0756   2.0805
     2.0887   2.0923   2.0928   2.1354   2.1378   2.2463   2.2538   2.2804
     2.7050   2.8457   2.8462   2.9962   3.0715   3.0737   3.3189   3.3324
     3.5166   3.5168   3.6649   3.7918   3.9025   3.9044   3.9612   3.9676
     3.9714   3.9726   4.0848   4.0883   4.2808   4.4190   4.5054   4.6711
     4.8010   4.9197   4.9858   5.0322   5.0919   5.1232   5.1478   5.1957
     5.2646   5.2974   5.2996   5.3062   5.3872   5.4192   5.4420   5.4526
     5.5144   5.5507   5.5538   5.5837   5.6663   5.6906   5.7292   5.7922
     5.8600   5.9000   5.9062   6.0434   6.0965   6.1851   6.2010   6.2030
     6.2085   6.2172   6.2287   6.2538   6.2735   6.3032   6.3705   6.4740
     6.5418   6.5783   6.5867   6.6172   6.6743   6.6952

          k =-0.5000-0.5774 0.0000 (183316 PWs)   bands (ev):

   -26.6148 -26.3843 -25.1388 -24.9442 -15.7753 -14.1677 -11.9362 -10.6096
    -8.9537  -8.9299  -8.4746  -8.4056  -8.0304  -7.5434  -7.5426  -7.4408
    -7.1732  -6.9302  -6.7056  -6.7050  -6.2453  -6.1831  -6.1827  -5.8753
    -5.8381  -5.4547  -5.4490  -5.4488  -5.4459  -5.4256  -5.3849  -5.1098
    -5.1093  -5.0350  -5.0051  -4.7813  -4.7638  -4.6309  -4.6100  -4.6088
    -4.5672  -4.5329  -4.5318  -4.5017  -4.4503  -4.4503  -4.4246  -4.4231
    -4.3381  -4.2754  -4.2678  -4.1862  -4.1858  -4.1853  -4.1796  -4.1795
    -4.0540  -4.0537  -4.0097  -3.9950  -3.9595  -3.9594  -3.9002  -3.8930
    -3.8918  -3.8719  -3.8572  -3.8569  -3.7900  -3.7898  -3.7191  -3.7188
    -3.6976  -3.6119  -3.6117  -3.5909  -3.5901  -3.5712  -3.5707  -3.5169
    -3.5165  -3.5154  -3.5154  -3.5147  -3.5142  -3.5112  -3.5037  -3.4478
    -3.4032  -3.4030  -3.3877  -3.3874  -3.3838  -3.3834  -3.3658  -3.3657
    -3.3513  -3.3510  -3.3485  -3.3298  -3.2871  -3.2870  -3.2825  -3.2772
    -3.2767  -3.2423  -3.2268  -3.2102  -3.2086  -3.2085  -3.1855  -3.1854
    -3.1552  -3.1363  -3.1355  -3.1157  -3.0816  -3.0701  -3.0697  -3.0450
    -3.0445  -3.0408  -3.0385  -3.0377  -3.0357  -3.0353  -3.0353  -2.9807
    -2.9509  -2.9206  -2.8851  -2.8837  -2.8837  -2.8756  -2.8535  -2.8482
    -2.8481  -2.8257  -2.8246  -2.8094  -2.8086  -2.7975  -2.7972  -2.7646
    -2.7644  -2.7499  -2.7497  -2.7485  -2.7485  -2.7269  -2.7267  -2.6889
    -2.6770  -2.6766  -2.6171  -2.6167  -2.5970  -2.5895  -2.5887  -2.5761
    -2.5718  -2.5496  -2.5492  -2.5480  -2.5434  -2.5284  -2.5283  -2.5275
    -2.5270  -2.5008  -2.5006  -2.4970  -2.4961  -2.4801  -2.4445  -2.4442
    -2.4421  -2.4414  -2.4093  -2.4062  -2.3998  -2.3843  -2.3719  -2.3717
    -2.3676  -2.3670  -2.3646  -2.3493  -2.3478  -2.3339  -2.3277  -2.3276
    -2.3243  -2.3132  -2.3130  -2.3101  -2.3100  -2.2806  -2.2609  -2.2511
    -2.2508  -2.2457  -2.2437  -2.2349  -2.2348  -2.2301  -2.2269  -2.2265
    -2.2225  -2.2220  -2.2087  -2.2086  -2.2084  -2.2081  -2.1985  -2.1982
    -2.1684  -2.1618  -2.1618  -2.1520  -2.1518  -2.1390  -2.1370  -2.1327
    -2.1272  -2.1270  -2.1254  -2.1227  -2.1225  -2.1091  -2.1077  -2.0874
    -2.0850  -2.0847  -2.0798  -2.0796  -2.0704  -2.0700  -2.0572  -2.0528
    -2.0497  -2.0190  -2.0153  -2.0148  -2.0118  -2.0074  -2.0063  -1.9983
    -1.9950  -1.9898  -1.9896  -1.9859  -1.9857  -1.9730  -1.9729  -1.9443
    -1.9318  -1.9317  -1.9165  -1.9027  -1.9023  -1.8737  -1.8540  -1.8539
    -1.8408  -1.8395  -1.8393  -1.8178  -1.8074  -1.8072  -1.8049  -1.8042
    -1.7908  -1.7903  -1.7886  -1.7877  -1.7779  -1.7744  -1.7502  -1.7500
    -1.7061  -1.7058  -1.6945  -1.6933  -1.6925  -1.6919  -1.6832  -1.6821
    -1.6818  -1.6811  -1.6734  -1.6732  -1.6628  -1.6616  -1.6343  -1.6337
    -1.6320  -1.6164  -1.6159  -1.6151  -1.6142  -1.6089  -1.5786  -1.5761
    -1.5676  -1.5607  -1.5606  -1.5577  -1.5394  -1.5382  -1.5299  -1.5218
    -1.4853  -1.4846  -1.4696  -1.4695  -1.4679  -1.4675  -1.4521  -1.4520
    -1.4456  -1.4448  -1.4418  -1.4247  -1.4245  -1.4216  -1.4192  -1.4158
    -1.4155  -1.4096  -1.3874  -1.3670  -1.3539  -1.3504  -1.3430  -1.3421
    -1.3271  -1.3269  -1.3192  -1.3191  -1.2895  -1.2890  -1.2689  -1.2680
    -1.2668  -1.2624  -1.2581  -1.2463  -1.2447  -1.2405  -1.2401  -1.2305
    -1.2304  -1.2294  -1.2288  -1.2241  -1.2230  -1.1956  -1.1954  -1.1876
    -1.1871  -1.1804  -1.1803  -1.1638  -1.1635  -1.1603  -1.1524  -1.1263
    -1.1262  -1.0998  -1.0931  -1.0906  -1.0904  -1.0874  -1.0873  -1.0847
    -1.0846  -1.0800  -1.0770  -1.0577  -1.0572  -1.0533  -1.0533  -1.0515
    -1.0513  -1.0427  -1.0413  -1.0411  -1.0198  -1.0197  -1.0160  -1.0136
    -1.0054  -1.0009  -1.0006  -0.9935  -0.9933  -0.9777  -0.9770  -0.9764
    -0.9638  -0.9625  -0.9615  -0.9615  -0.9605  -0.9604  -0.9557  -0.9355
    -0.9353  -0.9311  -0.9309  -0.9308  -0.9170  -0.9163  -0.9054  -0.9052
    -0.9046  -0.9045  -0.9026  -0.8970  -0.8955  -0.8911  -0.8866  -0.8861
    -0.8712  -0.8707  -0.8612  -0.8606  -0.8483  -0.8209  -0.8207  -0.8073
    -0.8072  -0.8038  -0.8037  -0.8035  -0.8032  -0.7874  -0.7873  -0.7769
    -0.7534  -0.7417  -0.7411  -0.7310  -0.6786  -0.6773  -0.6667  -0.4401
    -0.4339  -0.3982  -0.3982  -0.3000  -0.2996  -0.2507  -0.2483  -0.2000
    -0.0857  -0.0852  -0.0718  -0.0716   0.3635   0.4177   0.4211   0.5956
     0.5969   0.6118   0.6127   0.9225   0.9411   1.1003   1.2425   1.2529
     1.2537   1.2661   1.6182   1.6184   1.8099   2.0575   2.0746   2.0786
     2.0853   2.0923   2.0927   2.1357   2.1382   2.2458   2.2538   2.2800
     2.7046   2.8459   2.8460   2.9959   3.0716   3.0746   3.3217   3.3306
     3.5166   3.5169   3.6651   3.7999   3.9027   3.9043   3.9597   3.9654
     3.9716   3.9724   4.0857   4.0863   4.1416   4.5056   4.5299   4.6603
     4.8011   4.9212   4.9859   5.0201   5.0762   5.1234   5.1633   5.1849
     5.2374   5.2976   5.2997   5.3017   5.3719   5.4191   5.4399   5.4589
     5.4708   5.5501   5.5522   5.6044   5.7062   5.7335   5.8152   5.8448
     5.8774   5.9036   5.9595   6.0401   6.1380   6.1826   6.1977   6.2012
     6.2029   6.2169   6.2260   6.2683   6.2757   6.3101   6.3929   6.4470
     6.5155   6.5416   6.5918   6.6048   6.6346   6.6549

     the Fermi energy is     0.6887 ev

!    total energy              =  -17322.00547607 Ry
     estimated scf accuracy    <          3.2E-11 Ry
     smearing contrib. (-TS)   =      -0.01037987 Ry
     internal energy E=F+TS    =  -17321.99509620 Ry

     The total energy is F=E-TS. E is the sum of the following terms:
     one-electron contribution = -199416.09670975 Ry
     hartree contribution      =  100670.15714640 Ry
     xc contribution           =   -3628.65867361 Ry
     ewald contribution        =   92264.66335217 Ry
     one-center paw contrib.   =   -7212.06021141 Ry

     convergence has been achieved in  16 iterations

     negative rho (up, down):  2.826E-03 0.000E+00

     Forces acting on atoms (cartesian axes, Ry/au):

     atom    1 type  1   force =    -0.00001577   -0.00000729   -0.00003362
     atom    2 type  1   force =     0.00002320   -0.00000339   -0.00001874
     atom    3 type  1   force =     0.00001566    0.00002988   -0.00001055
     atom    4 type  1   force =    -0.00002139    0.00003201   -0.00001451
     atom    5 type  1   force =     0.00000675    0.00001058   -0.00001611
     atom    6 type  1   force =     0.00005110    0.00001872   -0.00000797
     atom    7 type  1   force =    -0.00000373    0.00002709    0.00000331
     atom    8 type  1   force =    -0.00005309    0.00001964   -0.00000654
     atom    9 type  1   force =     0.00003395   -0.00000206   -0.00001149
     atom   10 type  1   force =     0.00002987   -0.00002534    0.00000067
     atom   11 type  1   force =    -0.00003155   -0.00002162    0.00001694
     atom   12 type  1   force =    -0.00003151    0.00000717   -0.00002122
     atom   13 type  1   force =     0.00001521   -0.00002349   -0.00002029
     atom   14 type  1   force =    -0.00000057   -0.00005020    0.00000109
     atom   15 type  1   force =    -0.00000683   -0.00002003   -0.00001658
     atom   16 type  1   force =    -0.00000671    0.00000722   -0.00004022
     atom   17 type  1   force =     0.00000478   -0.00001803   -0.00006388
     atom   18 type  1   force =    -0.00000318   -0.00001205   -0.00005422
     atom   19 type  1   force =    -0.00000411   -0.00000516   -0.00005379
     atom   20 type  1   force =     0.00000386    0.00000722   -0.00007497
     atom   21 type  1   force =    -0.00000321    0.00000095   -0.00008527
     atom   22 type  1   force =     0.00002851    0.00000806   -0.00004833
     atom   23 type  1   force =    -0.00000736    0.00001975   -0.00002384
     atom   24 type  1   force =    -0.00001570    0.00001284   -0.00005862
     atom   25 type  1   force =     0.00002453    0.00001051   -0.00005648
     atom   26 type  1   force =     0.00002010    0.00000547    0.00001084
     atom   27 type  1   force =    -0.00002050    0.00001607    0.00001608
     atom   28 type  1   force =    -0.00002289   -0.00000397   -0.00005905
     atom   29 type  1   force =     0.00001299   -0.00001587   -0.00003220
     atom   30 type  1   force =     0.00000261   -0.00002850    0.00001249
     atom   31 type  1   force =    -0.00000689   -0.00000741   -0.00001474
     atom   32 type  1   force =    -0.00000665    0.00000948   -0.00006110
     atom   33 type  1   force =     0.00000434    0.00002987   -0.00009928
     atom   34 type  1   force =    -0.00001207   -0.00001256   -0.00008503
     atom   35 type  1   force =     0.00000240   -0.00004229   -0.00008485
     atom   36 type  1   force =     0.00000832    0.00000014   -0.00009883
     atom   37 type  1   force =    -0.00006228   -0.00002961   -0.00014363
     atom   38 type  1   force =    -0.00003621   -0.00005559   -0.00017022
     atom   39 type  1   force =     0.00005866   -0.00005790   -0.00018307
     atom   40 type  1   force =     0.00004164   -0.00000802   -0.00008983
     atom   41 type  1   force =    -0.00007197    0.00001510   -0.00015302
     atom   42 type  1   force =     0.00001444    0.00002014   -0.00018900
     atom   43 type  1   force =     0.00006404    0.00000532   -0.00011191
     atom   44 type  1   force =    -0.00000603   -0.00000155   -0.00007778
     atom   45 type  1   force =    -0.00001946    0.00007465   -0.00016879
     atom   46 type  1   force =     0.00002788    0.00005052   -0.00013702
     atom   47 type  1   force =     0.00002252    0.00000928    0.00001260
     atom   48 type  1   force =    -0.00002874    0.00000369   -0.00005694
     atom   49 type  1   force =    -0.00003516   -0.00001563   -0.00003913
     atom   50 type  1   force =     0.00006756    0.00001403    0.00002898
     atom   51 type  1   force =     0.00004487    0.00000778    0.00002984
     atom   52 type  1   force =    -0.00007234    0.00003179    0.00005585
     atom   53 type  1   force =     0.00002389    0.00005977    0.00005829
     atom   54 type  1   force =     0.00010252    0.00005415   -0.00006019
     atom   55 type  1   force =    -0.00003538    0.00003584   -0.00011107
     atom   56 type  1   force =    -0.00008838    0.00004171   -0.00000749
     atom   57 type  1   force =     0.00002417    0.00001937    0.00005895
     atom   58 type  1   force =     0.00000829   -0.00006986   -0.00008639
     atom   59 type  1   force =    -0.00002744   -0.00001580    0.00000211
     atom   60 type  1   force =    -0.00000452   -0.00001624   -0.00001791
     atom   61 type  1   force =    -0.00000725   -0.00005346    0.00000838
     atom   62 type  1   force =     0.00000238   -0.00009187    0.00003695
     atom   63 type  1   force =    -0.00000691   -0.00001071   -0.00000702
     atom   64 type  1   force =     0.00001469    0.00002851   -0.00002538
     atom   65 type  1   force =     0.00003332   -0.00012341   -0.00002749
     atom   66 type  1   force =    -0.00003725   -0.00008990   -0.00005082
     atom   67 type  1   force =    -0.00002883    0.00016244   -0.00002541
     atom   68 type  1   force =     0.00003667    0.00008729   -0.00005779
     atom   69 type  1   force =     0.00003806    0.00001067   -0.00009970
     atom   70 type  1   force =     0.00012244    0.00011736    0.00001554
     atom   71 type  1   force =    -0.00002221    0.00020161    0.00010673
     atom   72 type  1   force =    -0.00013965    0.00009275   -0.00002148
     atom   73 type  1   force =     0.00017073    0.00001894    0.00003008
     atom   74 type  1   force =     0.00012964    0.00003282    0.00007260
     atom   75 type  1   force =    -0.00018037    0.00005245    0.00010784
     atom   76 type  1   force =    -0.00011583   -0.00000566   -0.00004582
     atom   77 type  1   force =     0.00018394   -0.00014583    0.00004822
     atom   78 type  1   force =    -0.00001846   -0.00018621    0.00011231
     atom   79 type  1   force =    -0.00024329   -0.00011997    0.00000608
     atom   80 type  1   force =     0.00008421   -0.00008377   -0.00004179
     atom   81 type  2   force =    -0.00034126   -0.00013035    0.00003420
     atom   82 type  2   force =    -0.00058875    0.00037611    0.00075114
     atom   83 type  3   force =     0.00015475    0.00008477   -0.00029586
     atom   84 type  3   force =     0.00006035   -0.00028648    0.00022002
     atom   85 type  3   force =     0.00038055    0.00007129   -0.00001519
     atom   86 type  2   force =    -0.00027388   -0.00012019   -0.00005731
     atom   87 type  4   force =     0.00008951    0.00031549    0.00054534
     atom   88 type  3   force =     0.00034867    0.00001106    0.00057636
     atom   89 type  2   force =    -0.00036258    0.00002497    0.00019159
     atom   90 type  4   force =     0.00022920   -0.00018293   -0.00015930
     atom   91 type  3   force =     0.00005959   -0.00035148   -0.00008937
     atom   92 type  4   force =     0.00022873    0.00024687    0.00070870
     atom   93 type  4   force =     0.00012340   -0.00019612    0.00063721
     atom   94 type  3   force =    -0.00015136    0.00009660   -0.00042185

     Total force =     0.002284     Total SCF correction =     0.000031


     Computing stress (Cartesian axis) and pressure


     negative rho (up, down):  2.826E-03 0.000E+00
          total   stress  (Ry/bohr**3)                   (kbar)     P=       -2.41
  -0.00002506   0.00000000   0.00000000           -3.69        0.00        0.00
   0.00000000  -0.00002496  -0.00000010            0.00       -3.67       -0.01
   0.00000000  -0.00000010   0.00000084            0.00       -0.01        0.12

     Energy error            =      1.1E-05 Ry
     Gradient error          =      7.5E-04 Ry/Bohr

     bfgs converged in  10 scf cycles and   9 bfgs steps
     (criteria: energy <  1.0E-04 Ry, force <  1.0E-03 Ry/Bohr)

     End of BFGS Geometry Optimization

     Final energy             =  -17322.0054760702 Ry

     File ./tmp/cu_pvdf.bfgs deleted, as requested
Begin final coordinates

ATOMIC_POSITIONS (angstrom)
Cu              10.2107768402        1.4738370192       14.9893108134
Cu               2.5524534534        1.4737858373       14.9890238543
Cu               5.1051605921        1.4734073062       14.9888308749
Cu               7.6581837305        1.4734100226       14.9887427778
Cu              11.4868591624        3.6842946752       14.9888797894
Cu               3.8285587612        3.6842544629       14.9889716873
Cu               6.3816456310        3.6841870822       14.9889887051
Cu               8.9348349963        3.6842332803       14.9889538419
Cu              12.7629329545        5.8952029253       14.9887146727
Cu               5.1050129343        5.8953184035       14.9889955523
Cu               7.6583325589        5.8953048906       14.9888282478
Cu              10.2109227839        5.8952053452       14.9889481326
Cu              14.0394327141        8.1060168537       14.9888531562
Cu               6.3816265371        8.1062991424       14.9888641045
Cu               8.9345407189        8.1059293115       14.9889623286
Cu              11.4869052639        8.1056454532       14.9890042088
Cu              -0.0000918973       -0.0002663645       17.0781399287
Cu               2.5527759214       -0.0002377653       17.0781965565
Cu               5.1054158238        0.0000334483       17.0781367162
Cu               7.6578613383       -0.0000133863       17.0780916675
Cu               1.2764630503        2.2107654529       17.0782803069
Cu               3.8291346821        2.2106460532       17.0780193968
Cu               6.3817286797        2.2106026550       17.0778514144
Cu               8.9339491458        2.2107083902       17.0780548389
Cu               2.5526406448        4.4214741320       17.0780072217
Cu               5.1054011920        4.4213695709       17.0776711672
Cu               7.6579833821        4.4213338046       17.0778037426
Cu              10.2105679786        4.4215522222       17.0781761115
Cu               3.8289595415        6.6320524240       17.0778891689
Cu               6.3816963513        6.6319971604       17.0778505124
Cu               8.9342110269        6.6319732907       17.0780740379
Cu              11.4870213082        6.6320154148       17.0781487052
Cu               1.2761856304        0.7365827997       19.1673372385
Cu               3.8290982523        0.7367655152       19.1680069305
Cu               6.3816572704        0.7371373196       19.1683338413
Cu               8.9343432976        0.7369150493       19.1676878401
Cu               2.5533514708        2.9478223777       19.1678882741
Cu               5.1058778262        2.9480869561       19.1689443764
Cu               7.6573644512        2.9482146842       19.1694800544
Cu              10.2100181029        2.9475394737       19.1672502011
Cu               3.8298046869        5.1582118837       19.1686802437
Cu               6.3816060009        5.1581055485       19.1699491088
Cu               8.9336860570        5.1582373779       19.1691664594
Cu              11.4868088352        5.1583912905       19.1679428327
Cu               5.1055091965        7.3680591132       19.1691853538
Cu               7.6577895183        7.3682934939       19.1693474485
Cu              10.2104100134        7.3688068755       19.1680894673
Cu              12.7634940716        7.3690376921       19.1680199167
Cu              10.2112003387        1.4740070029       21.2570487538
Cu               2.5516176703        1.4734677243       21.2562214066
Cu               5.1047276561        1.4729502763       21.2571482618
Cu               7.6591038329        1.4728998580       21.2571132041
Cu              11.4862508931        3.6835925551       21.2554823786
Cu               3.8280252630        3.6839032536       21.2580961562
Cu               6.3818412598        3.6840957567       21.2607019840
Cu               8.9358294352        3.6837648582       21.2584895431
Cu              12.7625272754        5.8953077052       21.2564113011
Cu               5.1049422516        5.8958145886       21.2602995603
Cu               7.6587797728        5.8955166438       21.2600964790
Cu              10.2109308194        5.8951974029       21.2586415703
Cu              14.0395479852        8.1068332644       21.2575394734
Cu               6.3816474525        8.1074355615       21.2578050189
Cu               8.9344540520        8.1060427872       21.2586544296
Cu              11.4868688138        8.1055205685       21.2581982014
Cu              -0.0003989270        0.0018566296       23.3464184775
Cu               2.5531464660        0.0016925303       23.3473348129
Cu               5.1057428862       -0.0010865325       23.3478913823
Cu               7.6574849636       -0.0006848348       23.3480224707
Cu               1.2764064266        2.2110206038       23.3473182656
Cu               3.8268971771        2.2082000511       23.3434301579
Cu               6.3823184177        2.2060912232       23.3417182908
Cu               8.9359260945        2.2089275131       23.3460724368
Cu               2.5491669929        4.4215340574       23.3429818978
Cu               5.1027739906        4.4211025339       23.3416847473
Cu               7.6615415929        4.4207063503       23.3426588373
Cu              10.2131574961        4.4211645765       23.3472080266
Cu               3.8251404055        6.6346015110       23.3436867178
Cu               6.3826302492        6.6359236429       23.3424475805
Cu               8.9371007248        6.6335970465       23.3477619300
Cu              11.4868508017        6.6323222117       23.3485067506
C                3.8127998498        4.8803727339       28.1824515721
C                5.1742879651        5.0734668489       27.5500108450
H                3.0429416367        5.0730815227       27.4258568976
H                3.7055089037        3.8514178687       28.5459104534
H                3.6766646781        5.5776180338       29.0182674673
C                6.3503407751        4.8445087775       28.5006548300
F                5.2811109655        4.2064462625       26.4636495104
H                6.2575276152        3.8294233562       28.9124817180
C                7.7651481858        4.9821203605       27.9558400009
F                5.2406452400        6.3608258001       27.0256352071
H                6.2507768296        5.5499713781       29.3384303947
F                7.9985562092        6.2415544640       27.4394985630
F                8.0203606874        4.0701433515       26.9508056028
H                8.5139586949        4.8104519753       28.7476167148
End final coordinates



     Writing all to output data dir ./tmp/cu_pvdf.save/ :
     XML data file, charge density, pseudopotentials, collected wavefunctions

     init_run     :    177.46s CPU    184.71s WALL (       1 calls)
     electrons    :  40590.14s CPU  42194.48s WALL (       5 calls)
     update_pot   :      8.24s CPU      8.36s WALL (       4 calls)
     forces       :    507.23s CPU    516.98s WALL (       5 calls)
     stress       :   1757.60s CPU   1779.73s WALL (       5 calls)

     Called by init_run:
     wfcinit      :    171.36s CPU    177.09s WALL (       1 calls)
     potinit      :      2.25s CPU      2.86s WALL (       1 calls)
     hinit0       :      0.70s CPU      0.84s WALL (       1 calls)

     Called by electrons:
     c_bands      :  36361.56s CPU  37678.14s WALL (      90 calls)
     sum_band     :   3935.79s CPU   4157.07s WALL (      90 calls)
     v_of_rho     :     35.60s CPU     37.64s WALL (      91 calls)
     newd         :    140.00s CPU    204.55s WALL (      91 calls)
     PAW_pot      :    127.00s CPU    128.29s WALL (      95 calls)
     mix_rho      :      6.47s CPU      7.26s WALL (      90 calls)

     Called by c_bands:
     init_us_2    :    226.48s CPU    228.83s WALL (    1950 calls)
     cegterg      :  35823.91s CPU  37128.67s WALL (     910 calls)

     Called by *egterg:
     cdiaghg      :   2524.14s CPU   2625.10s WALL (    3798 calls)
     h_psi        :  15906.74s CPU  16720.75s WALL (    3898 calls)
     s_psi        :   4663.19s CPU   4689.75s WALL (    3898 calls)
     g_psi        :     30.99s CPU     31.19s WALL (    2978 calls)

     Called by h_psi:
     h_psi:calbec :   4824.99s CPU   4877.26s WALL (    3898 calls)
     vloc_psi     :   6375.70s CPU   7039.72s WALL (    3898 calls)
                                        0.00s GPU  (    3898 calls)
     add_vuspsi   :   4673.57s CPU   4702.69s WALL (    3898 calls)

     General routines
     calbec       :   8912.30s CPU   8999.10s WALL (    5688 calls)
     fft          :     32.01s CPU     35.05s WALL (    1306 calls)
     ffts         :      1.47s CPU      1.60s WALL (     181 calls)
     fftw         :   6397.03s CPU   7152.43s WALL ( 2812608 calls)
     interpolate  :      2.91s CPU      3.15s WALL (      91 calls)

     Parallel routines

     PWSCF        :     11h59m CPU     12h26m WALL


   This run was terminated on:   8:20:49  23Jun2026            

=------------------------------------------------------------------------------=
   JOB DONE.
=------------------------------------------------------------------------------=
