
     Program PWSCF v.7.5 starts on 23Jun2026 at 10: 1:31 

     This program is part of the open-source Quantum ESPRESSO suite
     for quantum simulation of materials; please cite
         "P. Giannozzi et al., J. Phys.:Condens. Matter 21 395502 (2009);
         "P. Giannozzi et al., J. Phys.:Condens. Matter 29 465901 (2017);
         "P. Giannozzi et al., J. Chem. Phys. 152 154105 (2020);
          URL http://www.quantum-espresso.org", 
     in publications or presentations arising from this work. More details at
     http://www.quantum-espresso.org/quote

     Parallel version (MPI), running on    24 processors

     MPI processes distributed on     1 nodes
     154041 MiB available memory on the printing compute node when the environment starts

     Reading input from cu_pvdf_scf.in

     Current dimensions of program PWSCF are:
     Max number of different atomic species (ntypx) = 10
     Max number of k-points (npk) =  40000
     Max angular momentum in pseudopotentials (lmaxx) =  4
     file Cu.paw.z_11.ld1.psl.v1.0.0-low.upf: wavefunction(s)  4S 3D renormalized
     file C.pbe-n-kjpaw_psl.1.0.0.UPF: wavefunction(s)  2S 2P renormalized

     R & G space division:  proc/nbgrp/npool/nimage =      24
     Subspace diagonalization in iterative solution of the eigenvalue problem:
     one sub-group per band group will be used
     custom distributed-memory algorithm (size of sub-group:  4*  4 procs)


     Parallelization info
     --------------------
     sticks:   dense  smooth     PW     G-vecs:    dense   smooth      PW
     Min         513     256     68               172843    61112    8402
     Max         514     257     69               172858    61139    8419
     Sum       12319    6157   1639              4148395  1466949  201767

     Using Slab Decomposition



     bravais-lattice index     =            0
     lattice parameter (alat)  =      19.2953  a.u.
     unit-cell volume          =   23358.7195 (a.u.)^3
     number of atoms/cell      =           94
     number of atomic types    =            4
     number of electrons       =       930.00
     number of Kohn-Sham states=          558
     kinetic-energy cutoff     =      60.0000  Ry
     charge density cutoff     =     480.0000  Ry
     scf convergence threshold =      1.0E-08
     mixing beta               =       0.3000
     number of iterations used =            8  plain     mixing
     Exchange-correlation=  SLA  PW   PBX  PBC
                           (   1   4   3   4   0   0   0)

     celldm(1)=  19.295279  celldm(2)=   0.000000  celldm(3)=   0.000000
     celldm(4)=   0.000000  celldm(5)=   0.000000  celldm(6)=   0.000000

     crystal axes: (cart. coord. in units of alat)
               a(1) = (   1.000000   0.000000   0.000000 )  
               a(2) = (   0.500000   0.866025   0.000000 )  
               a(3) = (   0.000000   0.000000   3.754613 )  

     reciprocal axes: (cart. coord. in units 2 pi/alat)
               b(1) = (  1.000000 -0.577350  0.000000 )  
               b(2) = (  0.000000  1.154701  0.000000 )  
               b(3) = (  0.000000  0.000000  0.266339 )  


     PseudoPot. # 1 for Cu read from file:
     ./Cu.paw.z_11.ld1.psl.v1.0.0-low.upf
     MD5 check sum: 619f40885d92a09a85a8b37550532d0c
     Pseudo is Projector augmented-wave + core cor, Zval = 11.0
     Generated using &quot;atomic&quot; code by A. Dal Corso  v.6.3MaX
     Shape of augmentation charge: PSQ
     Using radial grid of 1199 points,  6 beta functions with: 
                l(1) =   0
                l(2) =   0
                l(3) =   1
                l(4) =   1
                l(5) =   2
                l(6) =   2
     Q(r) pseudized with 0 coefficients 


     PseudoPot. # 2 for C  read from file:
     ./C.pbe-n-kjpaw_psl.1.0.0.UPF
     MD5 check sum: 5d2aebdfa2cae82b50a7e79e9516da0f
     Pseudo is Projector augmented-wave + core cor, Zval =  4.0
     Generated using "atomic" code by A. Dal Corso  v.5.1
     Shape of augmentation charge: PSQ
     Using radial grid of 1073 points,  4 beta functions with: 
                l(1) =   0
                l(2) =   0
                l(3) =   1
                l(4) =   1
     Q(r) pseudized with 0 coefficients 


     PseudoPot. # 3 for H  read from file:
     ./H.pbe-rrkjus_psl.1.0.0.UPF
     MD5 check sum: f52b6d4d1c606e5624b1dc7b2218f220
     Pseudo is Ultrasoft, Zval =  1.0
     Generated using "atomic" code by A. Dal Corso  v.5.1
     Using radial grid of  929 points,  2 beta functions with: 
                l(1) =   0
                l(2) =   0
     Q(r) pseudized with 0 coefficients 


     PseudoPot. # 4 for F  read from file:
     ./f_pbe_v1.4.uspp.F.UPF
     MD5 check sum: 4c38b6a325caf53ec0e86aed9459de46
     Pseudo is Ultrasoft, Zval =  7.0
     Generated by new atomic code, or converted to UPF format
     Using radial grid of  799 points,  4 beta functions with: 
                l(1) =   0
                l(2) =   0
                l(3) =   1
                l(4) =   1
     Q(r) pseudized with  8 coefficients,  rinner =    0.950   0.950   0.950


     atomic species   valence    mass     pseudopotential
     Cu               11.00    63.54600     Cu( 1.00)
     C                 4.00    12.01100     C ( 1.00)
     H                 1.00     1.00800     H ( 1.00)
     F                 7.00    18.99800     F ( 1.00)

     No symmetry found



   Cartesian axes

     site n.     atom                  positions (alat units)
         1        Cu     tau(   1) = (   1.0000152   0.1443435   1.4680116  )
         2        Cu     tau(   2) = (   0.2499802   0.1443385   1.4679834  )
         3        Cu     tau(   3) = (   0.4999853   0.1443014   1.4679645  )
         4        Cu     tau(   4) = (   0.7500213   0.1443017   1.4679559  )
         5        Cu     tau(   5) = (   1.1249911   0.3608296   1.4679693  )
         6        Cu     tau(   6) = (   0.3749584   0.3608257   1.4679783  )
         7        Cu     tau(   7) = (   0.6250007   0.3608191   1.4679800  )
         8        Cu     tau(   8) = (   0.8750530   0.3608236   1.4679766  )
         9        Cu     tau(   9) = (   1.2499663   0.5773598   1.4679532  )
        10        Cu     tau(  10) = (   0.4999708   0.5773711   1.4679807  )
        11        Cu     tau(  11) = (   0.7500359   0.5773698   1.4679643  )
        12        Cu     tau(  12) = (   1.0000295   0.5773601   1.4679760  )
        13        Cu     tau(  13) = (   1.3749831   0.7938808   1.4679667  )
        14        Cu     tau(  14) = (   0.6249988   0.7939085   1.4679678  )
        15        Cu     tau(  15) = (   0.8750242   0.7938722   1.4679774  )
        16        Cu     tau(  16) = (   1.1249957   0.7938444   1.4679815  )
        17        Cu     tau(  17) = (  -0.0000090  -0.0000261   1.6725857  )
        18        Cu     tau(  18) = (   0.2500118  -0.0000233   1.6725912  )
        19        Cu     tau(  19) = (   0.5000103   0.0000033   1.6725854  )
        20        Cu     tau(  20) = (   0.7499897  -0.0000013   1.6725810  )
        21        Cu     tau(  21) = (   0.1250133   0.2165162   1.6725994  )
        22        Cu     tau(  22) = (   0.3750148   0.2165045   1.6725739  )
        23        Cu     tau(  23) = (   0.6250088   0.2165003   1.6725574  )
        24        Cu     tau(  24) = (   0.8749662   0.2165107   1.6725774  )
        25        Cu     tau(  25) = (   0.2499985   0.4330269   1.6725727  )
        26        Cu     tau(  26) = (   0.5000088   0.4330167   1.6725398  )
        27        Cu     tau(  27) = (   0.7500017   0.4330132   1.6725528  )
        28        Cu     tau(  28) = (   0.9999947   0.4330346   1.6725892  )
        29        Cu     tau(  29) = (   0.3749977   0.6495248   1.6725611  )
        30        Cu     tau(  30) = (   0.6250057   0.6495194   1.6725573  )
        31        Cu     tau(  31) = (   0.8749919   0.6495171   1.6725792  )
        32        Cu     tau(  32) = (   1.1250070   0.6495212   1.6725865  )
        33        Cu     tau(  33) = (   0.1249861   0.0721389   1.8771959  )
        34        Cu     tau(  34) = (   0.3750113   0.0721568   1.8772615  )
        35        Cu     tau(  35) = (   0.6250018   0.0721932   1.8772935  )
        36        Cu     tau(  36) = (   0.8750048   0.0721714   1.8772302  )
        37        Cu     tau(  37) = (   0.2500682   0.2887016   1.8772498  )
        38        Cu     tau(  38) = (   0.5000555   0.2887275   1.8773533  )
        39        Cu     tau(  39) = (   0.7499410   0.2887400   1.8774057  )
        40        Cu     tau(  40) = (   0.9999409   0.2886738   1.8771874  )
        41        Cu     tau(  41) = (   0.3750805   0.5051810   1.8773274  )
        42        Cu     tau(  42) = (   0.6249968   0.5051706   1.8774517  )
        43        Cu     tau(  43) = (   0.8749404   0.5051835   1.8773750  )
        44        Cu     tau(  44) = (   1.1249862   0.5051985   1.8772552  )
        45        Cu     tau(  45) = (   0.5000194   0.7216073   1.8773769  )
        46        Cu     tau(  46) = (   0.7499827   0.7216302   1.8773928  )
        47        Cu     tau(  47) = (   0.9999793   0.7216805   1.8772696  )
        48        Cu     tau(  48) = (   1.2500212   0.7217031   1.8772627  )
        49        Cu     tau(  49) = (   1.0000567   0.1443602   2.0818564  )
        50        Cu     tau(  50) = (   0.2498984   0.1443073   2.0817754  )
        51        Cu     tau(  51) = (   0.4999429   0.1442567   2.0818662  )
        52        Cu     tau(  52) = (   0.7501114   0.1442517   2.0818627  )
        53        Cu     tau(  53) = (   1.1249316   0.3607608   2.0817030  )
        54        Cu     tau(  54) = (   0.3749062   0.3607913   2.0819590  )
        55        Cu     tau(  55) = (   0.6250198   0.3608101   2.0822142  )
        56        Cu     tau(  56) = (   0.8751504   0.3607777   2.0819975  )
        57        Cu     tau(  57) = (   1.2499265   0.5773701   2.0817940  )
        58        Cu     tau(  58) = (   0.4999639   0.5774197   2.0821748  )
        59        Cu     tau(  59) = (   0.7500797   0.5773906   2.0821549  )
        60        Cu     tau(  60) = (   1.0000303   0.5773593   2.0820124  )
        61        Cu     tau(  61) = (   1.3749944   0.7939608   2.0819045  )
        62        Cu     tau(  62) = (   0.6250009   0.7940198   2.0819305  )
        63        Cu     tau(  63) = (   0.8750157   0.7938834   2.0820137  )
        64        Cu     tau(  64) = (   1.1249921   0.7938322   2.0819690  )
        65        Cu     tau(  65) = (  -0.0000391   0.0001818   2.2864835  )
        66        Cu     tau(  66) = (   0.2500481   0.0001658   2.2865733  )
        67        Cu     tau(  67) = (   0.5000423  -0.0001064   2.2866278  )
        68        Cu     tau(  68) = (   0.7499529  -0.0000671   2.2866406  )
        69        Cu     tau(  69) = (   0.1250077   0.2165412   2.2865716  )
        70        Cu     tau(  70) = (   0.3747957   0.2162650   2.2861908  )
        71        Cu     tau(  71) = (   0.6250666   0.2160585   2.2860232  )
        72        Cu     tau(  72) = (   0.8751598   0.2163362   2.2864496  )
        73        Cu     tau(  73) = (   0.2496583   0.4330328   2.2861469  )
        74        Cu     tau(  74) = (   0.4997515   0.4329905   2.2860199  )
        75        Cu     tau(  75) = (   0.7503501   0.4329517   2.2861153  )
        76        Cu     tau(  76) = (   1.0002483   0.4329966   2.2865608  )
        77        Cu     tau(  77) = (   0.3746236   0.6497745   2.2862160  )
        78        Cu     tau(  78) = (   0.6250971   0.6499040   2.2860946  )
        79        Cu     tau(  79) = (   0.8752749   0.6496761   2.2866151  )
        80        Cu     tau(  80) = (   1.1249903   0.6495513   2.2866880  )
        81        C      tau(  81) = (   0.3734150   0.4779702   2.7601112  )
        82        C      tau(  82) = (   0.5067554   0.4968813   2.6981717  )
        83        H      tau(  83) = (   0.2980173   0.4968435   2.6860124  )
        84        H      tau(  84) = (   0.3629073   0.3771972   2.7957073  )
        85        H      tau(  85) = (   0.3600823   0.5462564   2.8419687  )
        86        C      tau(  86) = (   0.6219348   0.4744578   2.7912751  )
        87        F      tau(  87) = (   0.5172174   0.4119677   2.5917765  )
        88        H      tau(  88) = (   0.6128449   0.3750431   2.8316083  )
        89        C      tau(  89) = (   0.7604971   0.4879351   2.7379175  )
        90        F      tau(  90) = (   0.5132543   0.6229616   2.6468158  )
        91        H      tau(  91) = (   0.6121838   0.5435488   2.8733245  )
        92        F      tau(  92) = (   0.7833564   0.6112805   2.6873484  )
        93        F      tau(  93) = (   0.7854919   0.3986186   2.6394872  )
        94        H      tau(  94) = (   0.8338335   0.4711223   2.8154619  )

     number of k points=    10  Marzari-Vanderbilt smearing, width (Ry)=  0.0200
                       cart. coord. in units 2pi/alat
        k(    1) = (   0.0000000   0.0000000   0.0000000), wk =   0.1250000
        k(    2) = (   0.0000000   0.2886751   0.0000000), wk =   0.2500000
        k(    3) = (   0.0000000  -0.5773503   0.0000000), wk =   0.1250000
        k(    4) = (   0.2500000  -0.7216878   0.0000000), wk =   0.2500000
        k(    5) = (  -0.2500000   0.1443376   0.0000000), wk =   0.2500000
        k(    6) = (   0.2500000   0.1443376   0.0000000), wk =   0.2500000
        k(    7) = (   0.5000000  -0.2886751   0.0000000), wk =   0.1250000
        k(    8) = (  -0.5000000  -0.2886751   0.0000000), wk =   0.1250000
        k(    9) = (  -0.2500000  -0.7216878   0.0000000), wk =   0.2500000
        k(   10) = (  -0.5000000  -0.5773503   0.0000000), wk =   0.2500000

     Dense  grid:  4148395 G-vectors     FFT dimensions: ( 135, 135, 512)

     Smooth grid:  1466949 G-vectors     FFT dimensions: (  96,  96, 360)

     Estimated max dynamical RAM per process >       1.67 GB

     Estimated total dynamical RAM >      40.20 GB

     The initial density is read from file :
     ./tmp/cu_pvdf.save/charge-density


     negative rho (up, down):  2.826E-03 0.000E+00
     Starting wfcs are  758 randomized atomic wfcs
     Checking if some PAW data can be deallocated... 

     total cpu time spent up to now is      189.9 secs

     Self-consistent Calculation

     iteration #  1     ecut=    60.00 Ry     beta= 0.30
     Davidson diagonalization with overlap
     c_bands:  2 eigenvalues not converged
     c_bands:  3 eigenvalues not converged
     c_bands:  1 eigenvalues not converged
     c_bands:  4 eigenvalues not converged
     c_bands:  3 eigenvalues not converged
     c_bands:  2 eigenvalues not converged
     c_bands:  1 eigenvalues not converged
     c_bands:  2 eigenvalues not converged
     c_bands:  2 eigenvalues not converged
     ethr =  1.00E-05,  avg # of iterations = 38.2

     Threshold (ethr) on eigenvalues was too large:
     Diagonalizing with lowered threshold

     Davidson diagonalization with overlap
     c_bands:  1 eigenvalues not converged
     c_bands:  1 eigenvalues not converged
     ethr =  3.55E-12,  avg # of iterations = 12.8

     negative rho (up, down):  2.826E-03 0.000E+00

     total cpu time spent up to now is     4298.0 secs

     End of self-consistent calculation

          k = 0.0000 0.0000 0.0000 (183353 PWs)   bands (ev):

   -26.6148 -26.3843 -25.1388 -24.9442 -15.7753 -14.1676 -11.9365 -10.6095
    -8.9537  -8.9294  -8.4746  -8.4059  -8.4035  -7.5365  -7.4417  -6.9306
    -6.5152  -6.5150  -6.5148  -6.5142  -6.5139  -6.5136  -6.2467  -6.2140
    -5.8405  -5.7539  -5.7535  -5.7532  -5.7528  -5.7527  -5.7513  -5.4335
    -5.0347  -5.0051  -4.9581  -4.7747  -4.6709  -4.6705  -4.6699  -4.6685
    -4.6668  -4.6476  -4.5665  -4.5013  -4.4354  -4.3384  -4.2284  -4.2284
    -4.2282  -4.0693  -4.0692  -4.0692  -3.9330  -3.9330  -3.9323  -3.9322
    -3.9317  -3.9316  -3.8996  -3.8994  -3.8993  -3.8740  -3.7527  -3.7521
    -3.7516  -3.7498  -3.7486  -3.7461  -3.7384  -3.7384  -3.7384  -3.7382
    -3.7381  -3.7380  -3.6615  -3.6614  -3.6612  -3.6219  -3.6218  -3.6218
    -3.5325  -3.5324  -3.5323  -3.5319  -3.5319  -3.5319  -3.4720  -3.4720
    -3.4717  -3.4712  -3.4711  -3.4706  -3.4705  -3.4704  -3.4701  -3.4296
    -3.4295  -3.4290  -3.4290  -3.4287  -3.4287  -3.3151  -3.3151  -3.3150
    -3.1598  -3.1598  -3.1595  -3.1595  -3.1594  -3.1592  -3.1071  -3.1067
    -3.1064  -3.1064  -3.1061  -3.1060  -3.0964  -3.0962  -3.0961  -3.0958
    -3.0957  -3.0956  -2.9825  -2.9557  -2.9557  -2.9556  -2.9555  -2.9554
    -2.9553  -2.8789  -2.8788  -2.8786  -2.8418  -2.8416  -2.8405  -2.8404
    -2.8403  -2.8402  -2.8294  -2.8293  -2.8291  -2.8285  -2.8284  -2.8283
    -2.7090  -2.7089  -2.7088  -2.7086  -2.7086  -2.7083  -2.6488  -2.6486
    -2.6482  -2.6481  -2.6476  -2.6475  -2.6473  -2.6473  -2.6463  -2.6463
    -2.6458  -2.6458  -2.6398  -2.6398  -2.6397  -2.6395  -2.6393  -2.6393
    -2.4795  -2.4794  -2.4794  -2.4422  -2.4419  -2.4419  -2.4416  -2.4415
    -2.4415  -2.4312  -2.4269  -2.4267  -2.4264  -2.4257  -2.4256  -2.4248
    -2.4201  -2.4200  -2.4190  -2.4188  -2.4186  -2.4185  -2.4065  -2.3698
    -2.3698  -2.3698  -2.2930  -2.2930  -2.2378  -2.2373  -2.2370  -2.2367
    -2.2359  -2.2355  -2.2344  -2.2214  -2.2214  -2.2093  -2.2093  -2.2093
    -2.2020  -2.2020  -2.1894  -2.1893  -2.1889  -2.1884  -2.1880  -2.1877
    -2.0931  -2.0926  -2.0924  -2.0919  -2.0917  -2.0910  -2.0671  -2.0668
    -2.0663  -2.0662  -2.0661  -2.0654  -2.0567  -2.0566  -2.0564  -2.0563
    -2.0562  -2.0558  -2.0376  -2.0371  -2.0370  -2.0366  -2.0364  -2.0363
    -2.0161  -2.0159  -2.0154  -2.0135  -2.0132  -2.0125  -2.0122  -2.0113
    -2.0110  -1.9839  -1.9839  -1.9672  -1.9669  -1.9665  -1.9663  -1.9656
    -1.9655  -1.9645  -1.9645  -1.9313  -1.9311  -1.9302  -1.9302  -1.9296
    -1.9285  -1.9264  -1.9263  -1.9262  -1.8952  -1.8950  -1.8941  -1.8936
    -1.8929  -1.8915  -1.8906  -1.8904  -1.8903  -1.8706  -1.7997  -1.7992
    -1.7991  -1.7986  -1.7985  -1.7981  -1.7226  -1.7225  -1.7225  -1.7224
    -1.7220  -1.7220  -1.6990  -1.6987  -1.6987  -1.6980  -1.6979  -1.6975
    -1.5994  -1.5992  -1.5991  -1.5982  -1.5982  -1.5975  -1.5832  -1.5831
    -1.5824  -1.5813  -1.5810  -1.5793  -1.5783  -1.5782  -1.5778  -1.5776
    -1.5776  -1.5775  -1.4620  -1.4620  -1.4492  -1.4492  -1.4491  -1.4312
    -1.4311  -1.4310  -1.4310  -1.4309  -1.4309  -1.4232  -1.4229  -1.4228
    -1.4222  -1.4221  -1.4218  -1.4015  -1.4015  -1.3902  -1.3899  -1.3888
    -1.3868  -1.3863  -1.3829  -1.3495  -1.3494  -1.3485  -1.3281  -1.3279
    -1.3278  -1.3277  -1.3265  -1.3262  -1.3262  -1.3254  -1.3254  -1.3244
    -1.3241  -1.3241  -1.2913  -1.2908  -1.2908  -1.2906  -1.2898  -1.2896
    -1.2523  -1.2518  -1.2517  -1.2508  -1.2508  -1.2506  -1.1947  -1.1946
    -1.1783  -1.1780  -1.1780  -1.1774  -1.1774  -1.1772  -1.1630  -1.1630
    -1.1629  -1.0828  -1.0827  -1.0826  -1.0560  -1.0556  -1.0555  -1.0552
    -1.0550  -1.0544  -0.9756  -0.9754  -0.9754  -0.9753  -0.9751  -0.9750
    -0.9650  -0.9650  -0.9295  -0.9295  -0.9295  -0.9048  -0.9047  -0.9031
    -0.9004  -0.8998  -0.8951  -0.8799  -0.8799  -0.8720  -0.8720  -0.8720
    -0.8671  -0.8668  -0.8667  -0.8666  -0.8661  -0.8657  -0.8626  -0.8626
    -0.8625  -0.8582  -0.8580  -0.8579  -0.8577  -0.8576  -0.8573  -0.8390
    -0.8388  -0.8388  -0.8387  -0.8386  -0.8385  -0.8370  -0.8368  -0.8364
    -0.7831  -0.7831  -0.7831  -0.7711  -0.7710  -0.7709  -0.7708  -0.7708
    -0.7706  -0.6334  -0.6334  -0.6333  -0.6300  -0.6300  -0.6300  -0.3038
     0.1453   0.1455   0.1481   0.1526   0.1537   0.1615   0.3070   0.3071
     0.3072   0.3746   0.5246   0.5246   0.5249   0.5249   0.5249   0.5250
     0.8996   0.8998   0.9000   0.9001   0.9003   0.9007   1.1804   1.1805
     1.1806   1.7533   1.7535   1.7536   1.7812   1.7815   1.7817   1.7821
     1.7823   1.7833   1.8998   1.9017   1.9087   1.9193   1.9228   1.9439
     2.1086   2.1089   2.1090   2.2250   2.2252   2.2253   3.2573   3.2579
     3.2585   3.2591   3.2600   3.2618   3.4905   3.5014   3.5107   3.5139
     3.5320   3.5429   3.5612   4.3145   4.5975   4.8204   4.8281   4.8282
     4.8336   4.9403   4.9627   5.0007   5.1579   5.2069   5.2087   5.2125
     5.2170   5.2179   5.2197   5.3474   5.5196   5.6174   5.6359   5.6366
     5.6440   5.7359   5.7934   5.9676   6.0995   6.1404   6.1500   6.1897
     6.2357   6.2550   6.2896   6.3194   6.3240   6.3265   6.3444   6.3671
     6.3864   6.3929   6.5003   6.5199   6.5507   6.5765   6.6840   6.7103
     6.7528   6.7586   6.7701   6.8075   6.8133   6.8645

          k = 0.0000 0.2887 0.0000 (183317 PWs)   bands (ev):

   -26.6148 -26.3843 -25.1388 -24.9442 -15.7753 -14.1676 -11.9365 -10.6095
    -8.9537  -8.9294  -8.4746  -8.4042  -8.2794  -7.4422  -7.4139  -7.3060
    -6.9306  -6.8434  -6.8433  -6.4814  -6.2455  -6.0997  -6.0495  -6.0492
    -5.9894  -5.9893  -5.8389  -5.6185  -5.4348  -5.2923  -5.2917  -5.2514
    -5.0348  -5.0075  -4.9985  -4.8938  -4.8828  -4.8582  -4.7414  -4.5769
    -4.5766  -4.5670  -4.5016  -4.3569  -4.3555  -4.3494  -4.3414  -4.3353
    -4.2260  -4.1952  -4.1952  -4.1655  -4.1651  -4.1214  -4.1203  -4.0318
    -4.0317  -3.9918  -3.9917  -3.9729  -3.8794  -3.8694  -3.8692  -3.8530
    -3.8483  -3.7990  -3.7990  -3.7733  -3.7367  -3.7364  -3.6574  -3.6401
    -3.6398  -3.6274  -3.6194  -3.6192  -3.6123  -3.6118  -3.5854  -3.5843
    -3.5842  -3.5827  -3.5826  -3.5548  -3.5545  -3.5296  -3.5296  -3.4510
    -3.4510  -3.4430  -3.4217  -3.4216  -3.4150  -3.4148  -3.3962  -3.3961
    -3.3876  -3.3431  -3.3429  -3.3186  -3.3185  -3.3146  -3.3146  -3.2752
    -3.2751  -3.2669  -3.2661  -3.2176  -3.2176  -3.2085  -3.2084  -3.1690
    -3.1689  -3.1242  -3.1240  -3.0718  -3.0716  -3.0420  -3.0420  -2.9978
    -2.9976  -2.9886  -2.9825  -2.9762  -2.9760  -2.9757  -2.9754  -2.9711
    -2.9710  -2.8880  -2.8879  -2.8704  -2.8703  -2.8666  -2.8656  -2.8654
    -2.8646  -2.7993  -2.7992  -2.7947  -2.7946  -2.7825  -2.7824  -2.7768
    -2.7766  -2.7698  -2.7696  -2.7552  -2.7221  -2.7219  -2.7103  -2.7102
    -2.6927  -2.6920  -2.6920  -2.6597  -2.6596  -2.6361  -2.6359  -2.6253
    -2.6252  -2.6071  -2.5827  -2.5826  -2.5652  -2.5649  -2.5458  -2.5355
    -2.5056  -2.5056  -2.4977  -2.4974  -2.4851  -2.4768  -2.4720  -2.4565
    -2.4521  -2.4520  -2.4256  -2.4255  -2.4253  -2.4250  -2.4230  -2.4230
    -2.3789  -2.3787  -2.3529  -2.3527  -2.3514  -2.3513  -2.3464  -2.3455
    -2.3291  -2.2876  -2.2874  -2.2726  -2.2724  -2.2551  -2.2550  -2.2503
    -2.2489  -2.2477  -2.2403  -2.2302  -2.2298  -2.2294  -2.2037  -2.2020
    -2.2020  -2.1938  -2.1894  -2.1767  -2.1749  -2.1741  -2.1584  -2.1496
    -2.1494  -2.1487  -2.1485  -2.1394  -2.1390  -2.1229  -2.1220  -2.1217
    -2.1083  -2.1080  -2.1036  -2.0894  -2.0706  -2.0706  -2.0628  -2.0550
    -2.0546  -2.0485  -2.0482  -2.0453  -2.0442  -2.0440  -2.0399  -2.0398
    -2.0223  -2.0171  -2.0168  -2.0050  -2.0050  -1.9991  -1.9934  -1.9920
    -1.9918  -1.9741  -1.9734  -1.9685  -1.9681  -1.9605  -1.9602  -1.9492
    -1.9486  -1.9479  -1.9473  -1.9389  -1.9258  -1.9254  -1.9226  -1.9220
    -1.9194  -1.9186  -1.9059  -1.8803  -1.8791  -1.8788  -1.8535  -1.8529
    -1.8445  -1.8417  -1.8416  -1.8193  -1.8016  -1.8016  -1.7875  -1.7719
    -1.7719  -1.7654  -1.7591  -1.7318  -1.7315  -1.7310  -1.7307  -1.7284
    -1.7282  -1.7261  -1.7260  -1.7160  -1.7159  -1.6935  -1.6774  -1.6768
    -1.6396  -1.6392  -1.6233  -1.6146  -1.6003  -1.6003  -1.5615  -1.5612
    -1.5506  -1.5505  -1.5495  -1.5494  -1.5306  -1.5303  -1.5233  -1.5120
    -1.5120  -1.5039  -1.4973  -1.4939  -1.4888  -1.4886  -1.4780  -1.4775
    -1.4486  -1.4427  -1.4334  -1.4232  -1.4222  -1.4085  -1.4085  -1.4057
    -1.4056  -1.3896  -1.3774  -1.3769  -1.3757  -1.3752  -1.3747  -1.3681
    -1.3681  -1.3589  -1.3571  -1.3484  -1.3483  -1.3342  -1.3341  -1.3192
    -1.3184  -1.3181  -1.2632  -1.2630  -1.2548  -1.2546  -1.2523  -1.2522
    -1.2478  -1.2429  -1.2407  -1.2406  -1.2355  -1.2354  -1.2314  -1.2310
    -1.2035  -1.1977  -1.1946  -1.1860  -1.1858  -1.1848  -1.1845  -1.1799
    -1.1797  -1.1750  -1.1604  -1.1164  -1.1000  -1.0998  -1.0975  -1.0968
    -1.0962  -1.0958  -1.0948  -1.0810  -1.0651  -1.0611  -1.0609  -1.0550
    -1.0528  -1.0520  -1.0469  -1.0466  -1.0196  -1.0195  -1.0183  -1.0179
    -1.0089  -1.0086  -0.9712  -0.9655  -0.9623  -0.9590  -0.9589  -0.9581
    -0.9547  -0.9199  -0.9162  -0.9162  -0.9158  -0.9156  -0.9119  -0.9117
    -0.9110  -0.8963  -0.8913  -0.8912  -0.8863  -0.8862  -0.8823  -0.8817
    -0.8816  -0.8811  -0.8781  -0.8761  -0.8760  -0.8695  -0.8693  -0.8681
    -0.8679  -0.8661  -0.8447  -0.8400  -0.8400  -0.8302  -0.8301  -0.8173
    -0.8146  -0.8145  -0.8078  -0.8076  -0.7681  -0.7680  -0.7568  -0.7567
    -0.7086  -0.7086  -0.6963  -0.6946  -0.6860  -0.6796  -0.6449  -0.3353
    -0.3088  -0.2464  -0.2464  -0.0494  -0.0491  -0.0350  -0.0274  -0.0123
     0.2668   0.3905   0.3906   0.5108   0.5136   0.5140   0.5145   0.6266
     0.6279   0.7189   0.7592   0.8887   0.8887   0.9193   1.0211   1.0212
     1.1701   1.6115   1.6197   1.6296   1.6306   1.6356   1.6356   1.7548
     1.7552   2.0572   2.0601   2.1603   2.1607   2.2487   2.4098   2.4114
     2.4140   2.4193   2.4294   2.7699   2.8546   2.8547   3.0710   3.0831
     3.1432   3.1441   3.1977   3.1993   3.3659   3.6228   4.0821   4.0864
     4.2178   4.2299   4.4289   4.4511   4.4523   4.5639   4.7210   4.7391
     4.8548   4.9008   4.9174   4.9244   4.9349   4.9365   5.0038   5.1095
     5.1477   5.2240   5.2242   5.3802   5.4280   5.6269   5.6510   5.6880
     5.7329   5.7377   5.8220   5.8561   5.8845   5.9121   5.9346   5.9627
     5.9634   5.9899   6.0049   6.0056   6.0374   6.0575   6.1279   6.2158
     6.2381   6.2706   6.3338   6.3657   6.3975   6.5211   6.5276   6.5392
     6.5856   6.6089   6.6862   6.7429   6.7496   6.7641

          k = 0.0000-0.5774 0.0000 (183406 PWs)   bands (ev):

   -26.6148 -26.3843 -25.1388 -24.9442 -15.7753 -14.1676 -11.9365 -10.6095
    -8.9537  -8.9294  -8.4745  -8.4042  -7.9077  -7.9069  -7.4418  -7.0551
    -7.0546  -6.9553  -6.9551  -6.9294  -6.2455  -6.1511  -6.1507  -5.8410
    -5.7645  -5.7619  -5.4345  -5.3138  -5.3136  -5.3135  -5.3135  -5.0353
    -5.0151  -4.9675  -4.9523  -4.8051  -4.8038  -4.7751  -4.7278  -4.7276
    -4.7274  -4.7228  -4.5676  -4.5466  -4.5310  -4.5012  -4.4230  -4.4225
    -4.3381  -4.1105  -4.1080  -4.1052  -4.1052  -4.1047  -4.1046  -4.0420
    -4.0417  -4.0200  -4.0198  -4.0197  -4.0187  -3.9288  -3.9288  -3.9281
    -3.9281  -3.8990  -3.8903  -3.8659  -3.7780  -3.7778  -3.7778  -3.7776
    -3.6394  -3.6390  -3.5817  -3.5814  -3.5158  -3.5158  -3.5155  -3.5154
    -3.5085  -3.5084  -3.5062  -3.5061  -3.4984  -3.4982  -3.4981  -3.4979
    -3.4924  -3.4920  -3.4715  -3.4714  -3.4709  -3.4709  -3.3675  -3.3674
    -3.3119  -3.3119  -3.2762  -3.2758  -3.2755  -3.2749  -3.2619  -3.2617
    -3.2615  -3.2615  -3.2609  -3.2608  -3.1969  -3.1968  -3.1537  -3.1537
    -3.1531  -3.1529  -3.1472  -3.1463  -3.1110  -3.1109  -3.1108  -3.1108
    -3.0552  -3.0551  -2.9967  -2.9966  -2.9822  -2.9219  -2.9219  -2.9060
    -2.9060  -2.9059  -2.9055  -2.8764  -2.8762  -2.8505  -2.8505  -2.8502
    -2.8499  -2.8307  -2.8307  -2.8306  -2.8305  -2.8293  -2.8293  -2.8227
    -2.8218  -2.8169  -2.8167  -2.7137  -2.7136  -2.7134  -2.7134  -2.6652
    -2.6651  -2.6410  -2.6407  -2.6363  -2.6360  -2.6151  -2.6149  -2.5845
    -2.5842  -2.5838  -2.5836  -2.5674  -2.5670  -2.5670  -2.5668  -2.5643
    -2.5641  -2.4742  -2.4736  -2.4665  -2.4661  -2.4445  -2.4435  -2.4255
    -2.4254  -2.4138  -2.4135  -2.4133  -2.4132  -2.3875  -2.3860  -2.3684
    -2.3682  -2.3142  -2.3138  -2.3116  -2.3115  -2.3114  -2.3113  -2.2798
    -2.2790  -2.2730  -2.2719  -2.2539  -2.2536  -2.2407  -2.2405  -2.2404
    -2.2402  -2.2378  -2.2377  -2.2359  -2.2358  -2.2315  -2.2310  -2.2241
    -2.2216  -2.1921  -2.1919  -2.1917  -2.1915  -2.1742  -2.1739  -2.1608
    -2.1605  -2.1603  -2.1600  -2.1508  -2.1503  -2.1503  -2.1500  -2.1495
    -2.1493  -2.1382  -2.1373  -2.1339  -2.1333  -2.1083  -2.1082  -2.1081
    -2.1078  -2.0972  -2.0967  -2.0921  -2.0911  -2.0780  -2.0777  -2.0724
    -2.0722  -2.0419  -2.0398  -2.0330  -2.0325  -2.0317  -2.0314  -2.0230
    -2.0223  -2.0223  -2.0222  -1.9964  -1.9960  -1.9903  -1.9900  -1.9211
    -1.9204  -1.9203  -1.9201  -1.8828  -1.8822  -1.8631  -1.8627  -1.8623
    -1.8623  -1.8611  -1.8607  -1.8607  -1.8593  -1.8534  -1.8528  -1.8204
    -1.8200  -1.8030  -1.8014  -1.7905  -1.7904  -1.7873  -1.7872  -1.7868
    -1.7866  -1.7407  -1.7406  -1.7385  -1.7376  -1.6964  -1.6964  -1.6964
    -1.6962  -1.6785  -1.6778  -1.6662  -1.6653  -1.6487  -1.6487  -1.5984
    -1.5969  -1.5612  -1.5611  -1.5610  -1.5606  -1.5422  -1.5410  -1.5349
    -1.5348  -1.5184  -1.5182  -1.5182  -1.5181  -1.5065  -1.5063  -1.5060
    -1.5056  -1.4592  -1.4590  -1.4576  -1.4574  -1.4553  -1.4523  -1.4342
    -1.4340  -1.4335  -1.4333  -1.4153  -1.4145  -1.4123  -1.4112  -1.3864
    -1.3829  -1.3820  -1.3805  -1.3804  -1.3799  -1.3664  -1.3661  -1.3658
    -1.3653  -1.3520  -1.3511  -1.3255  -1.3255  -1.3254  -1.3249  -1.3110
    -1.3108  -1.2447  -1.2446  -1.2446  -1.2441  -1.2332  -1.2332  -1.2331
    -1.2328  -1.2224  -1.2215  -1.2080  -1.2023  -1.1960  -1.1956  -1.1712
    -1.1709  -1.1664  -1.1662  -1.1657  -1.1655  -1.1171  -1.1169  -1.1167
    -1.1158  -1.0950  -1.0950  -1.0945  -1.0944  -1.0867  -1.0866  -1.0864
    -1.0862  -1.0764  -1.0757  -1.0564  -1.0562  -1.0545  -1.0544  -1.0322
    -1.0320  -1.0307  -1.0307  -1.0306  -1.0305  -1.0043  -1.0037  -1.0018
    -1.0011  -0.9985  -0.9982  -0.9980  -0.9971  -0.9850  -0.9842  -0.9712
    -0.9710  -0.9675  -0.9673  -0.9633  -0.9632  -0.9632  -0.9630  -0.9454
    -0.9451  -0.8996  -0.8995  -0.8908  -0.8906  -0.8905  -0.8904  -0.8902
    -0.8898  -0.8881  -0.8880  -0.8850  -0.8838  -0.8799  -0.8796  -0.8792
    -0.8791  -0.8732  -0.8729  -0.8380  -0.8378  -0.8373  -0.8370  -0.8286
    -0.8265  -0.7947  -0.7934  -0.7607  -0.7607  -0.7601  -0.7601  -0.7549
    -0.7547  -0.7547  -0.7546  -0.7218  -0.7215  -0.6893  -0.6876  -0.6875
    -0.6874  -0.6871  -0.6822  -0.2213  -0.2203  -0.2199  -0.2187  -0.0913
    -0.0898  -0.0797  -0.0764   0.4777   0.4778   0.4779   0.4781   0.5109
     0.5323   0.8907   0.8908   0.8912   0.8913   1.1291   1.1306   1.1311
     1.1346   1.4601   1.4699   1.5152   1.5317   1.5598   1.5634   1.6782
     1.6783   1.6794   1.6800   2.8975   2.8975   2.9152   2.9204   2.9249
     2.9269   2.9306   2.9378   3.1296   3.1298   3.1312   3.1356   3.1367
     3.1450   3.5611   3.5615   3.6234   3.6244   3.8039   3.9055   3.9067
     3.9070   3.9079   4.0484   4.0492   4.2255   4.6328   4.6330   4.7600
     4.7797   4.8196   4.8405   5.0487   5.0571   5.1325   5.1416   5.1487
     5.1626   5.2825   5.2937   5.2941   5.2956   5.2961   5.3410   5.3843
     5.4621   5.5796   5.5807   5.5898   5.6900   5.7615   5.8255   5.8541
     5.8630   5.8851   5.8949   6.0592   6.1051   6.1330   6.1359   6.1364
     6.1593   6.2100   6.2508   6.2745   6.3161   6.3318   6.4185   6.4336
     6.4632   6.4924   6.6679   6.6742   6.7092   6.7107

          k = 0.2500-0.7217 0.0000 (183316 PWs)   bands (ev):

   -26.6148 -26.3843 -25.1388 -24.9442 -15.7753 -14.1676 -11.9364 -10.6095
    -8.9537  -8.9296  -8.4746  -8.4049  -8.0304  -7.5436  -7.5425  -7.4413
    -7.1732  -6.9303  -6.7058  -6.7048  -6.2453  -6.1831  -6.1829  -5.8755
    -5.8377  -5.4584  -5.4494  -5.4482  -5.4463  -5.4230  -5.3851  -5.1099
    -5.1091  -5.0347  -5.0039  -4.7828  -4.7630  -4.6305  -4.6101  -4.6089
    -4.5673  -4.5328  -4.5317  -4.5016  -4.4504  -4.4503  -4.4247  -4.4227
    -4.3385  -4.2755  -4.2678  -4.1863  -4.1858  -4.1854  -4.1796  -4.1794
    -4.0541  -4.0533  -4.0097  -3.9946  -3.9595  -3.9593  -3.9002  -3.8937
    -3.8914  -3.8728  -3.8572  -3.8561  -3.7900  -3.7898  -3.7191  -3.7188
    -3.6976  -3.6118  -3.6117  -3.5909  -3.5902  -3.5711  -3.5706  -3.5169
    -3.5165  -3.5155  -3.5154  -3.5147  -3.5142  -3.5113  -3.5037  -3.4479
    -3.4033  -3.4030  -3.3877  -3.3874  -3.3838  -3.3834  -3.3657  -3.3657
    -3.3513  -3.3510  -3.3485  -3.3298  -3.2871  -3.2870  -3.2825  -3.2772
    -3.2767  -3.2423  -3.2268  -3.2102  -3.2087  -3.2085  -3.1855  -3.1854
    -3.1552  -3.1363  -3.1354  -3.1157  -3.0816  -3.0702  -3.0696  -3.0450
    -3.0445  -3.0408  -3.0387  -3.0374  -3.0357  -3.0354  -3.0353  -2.9814
    -2.9510  -2.9206  -2.8851  -2.8838  -2.8837  -2.8756  -2.8535  -2.8482
    -2.8480  -2.8258  -2.8245  -2.8094  -2.8086  -2.7975  -2.7973  -2.7646
    -2.7643  -2.7499  -2.7497  -2.7486  -2.7484  -2.7269  -2.7268  -2.6889
    -2.6770  -2.6766  -2.6172  -2.6165  -2.5970  -2.5895  -2.5887  -2.5761
    -2.5718  -2.5496  -2.5492  -2.5480  -2.5434  -2.5284  -2.5282  -2.5276
    -2.5271  -2.5008  -2.5007  -2.4970  -2.4961  -2.4801  -2.4445  -2.4441
    -2.4422  -2.4414  -2.4093  -2.4062  -2.3998  -2.3843  -2.3719  -2.3716
    -2.3676  -2.3670  -2.3648  -2.3494  -2.3478  -2.3339  -2.3277  -2.3275
    -2.3245  -2.3132  -2.3129  -2.3101  -2.3101  -2.2806  -2.2609  -2.2510
    -2.2508  -2.2459  -2.2435  -2.2350  -2.2348  -2.2301  -2.2270  -2.2265
    -2.2225  -2.2220  -2.2087  -2.2085  -2.2084  -2.2081  -2.1985  -2.1982
    -2.1684  -2.1618  -2.1618  -2.1519  -2.1518  -2.1392  -2.1368  -2.1326
    -2.1272  -2.1270  -2.1254  -2.1229  -2.1224  -2.1092  -2.1076  -2.0874
    -2.0849  -2.0848  -2.0799  -2.0795  -2.0705  -2.0700  -2.0572  -2.0527
    -2.0497  -2.0190  -2.0151  -2.0149  -2.0118  -2.0075  -2.0063  -1.9984
    -1.9951  -1.9899  -1.9895  -1.9859  -1.9857  -1.9730  -1.9729  -1.9444
    -1.9320  -1.9317  -1.9166  -1.9027  -1.9023  -1.8737  -1.8540  -1.8539
    -1.8408  -1.8395  -1.8393  -1.8178  -1.8074  -1.8072  -1.8046  -1.8044
    -1.7907  -1.7904  -1.7887  -1.7876  -1.7779  -1.7744  -1.7502  -1.7499
    -1.7061  -1.7057  -1.6943  -1.6934  -1.6924  -1.6919  -1.6835  -1.6819
    -1.6817  -1.6810  -1.6735  -1.6732  -1.6629  -1.6616  -1.6343  -1.6337
    -1.6318  -1.6165  -1.6161  -1.6151  -1.6140  -1.6090  -1.5786  -1.5761
    -1.5676  -1.5606  -1.5606  -1.5577  -1.5395  -1.5381  -1.5299  -1.5218
    -1.4854  -1.4845  -1.4697  -1.4694  -1.4679  -1.4675  -1.4522  -1.4520
    -1.4456  -1.4450  -1.4415  -1.4247  -1.4245  -1.4216  -1.4191  -1.4158
    -1.4155  -1.4096  -1.3874  -1.3671  -1.3539  -1.3504  -1.3431  -1.3421
    -1.3272  -1.3268  -1.3192  -1.3191  -1.2896  -1.2889  -1.2690  -1.2678
    -1.2668  -1.2624  -1.2581  -1.2464  -1.2447  -1.2406  -1.2399  -1.2305
    -1.2304  -1.2296  -1.2287  -1.2240  -1.2231  -1.1957  -1.1954  -1.1878
    -1.1869  -1.1803  -1.1803  -1.1640  -1.1633  -1.1605  -1.1524  -1.1263
    -1.1262  -1.0998  -1.0931  -1.0907  -1.0903  -1.0874  -1.0873  -1.0848
    -1.0846  -1.0801  -1.0768  -1.0578  -1.0570  -1.0533  -1.0532  -1.0514
    -1.0514  -1.0427  -1.0413  -1.0411  -1.0198  -1.0197  -1.0160  -1.0136
    -1.0054  -1.0010  -1.0005  -0.9937  -0.9931  -0.9778  -0.9770  -0.9764
    -0.9638  -0.9625  -0.9616  -0.9614  -0.9605  -0.9604  -0.9557  -0.9354
    -0.9353  -0.9311  -0.9310  -0.9308  -0.9170  -0.9163  -0.9054  -0.9052
    -0.9047  -0.9046  -0.9026  -0.8970  -0.8955  -0.8911  -0.8867  -0.8861
    -0.8714  -0.8705  -0.8614  -0.8605  -0.8483  -0.8209  -0.8207  -0.8073
    -0.8071  -0.8038  -0.8037  -0.8035  -0.8033  -0.7874  -0.7873  -0.7769
    -0.7534  -0.7417  -0.7412  -0.7310  -0.6784  -0.6772  -0.6667  -0.4404
    -0.4335  -0.3982  -0.3982  -0.3000  -0.2996  -0.2512  -0.2481  -0.2001
    -0.0856  -0.0852  -0.0718  -0.0716   0.3629   0.4183   0.4214   0.5959
     0.5969   0.6118   0.6125   0.9206   0.9432   1.0999   1.2436   1.2525
     1.2532   1.2653   1.6182   1.6184   1.8099   2.0530   2.0752   2.0802
     2.0887   2.0922   2.0928   2.1356   2.1378   2.2463   2.2538   2.2802
     2.7049   2.8458   2.8461   2.9961   3.0715   3.0738   3.3189   3.3324
     3.5164   3.5171   3.6650   3.7926   3.9025   3.9045   3.9593   3.9680
     3.9714   3.9737   4.0848   4.0883   4.2772   4.4250   4.5055   4.6760
     4.8010   4.9319   4.9858   5.0300   5.0785   5.1233   5.1594   5.2113
     5.2585   5.2951   5.2996   5.3034   5.3846   5.4191   5.4377   5.4550
     5.5140   5.5493   5.5521   5.5685   5.6570   5.7005   5.7322   5.7867
     5.8758   5.9040   5.9179   6.0308   6.0863   6.1453   6.2002   6.2027
     6.2080   6.2153   6.2239   6.2581   6.2723   6.3153   6.3358   6.4658
     6.5569   6.5908   6.6000   6.6206   6.6530   6.7133

          k =-0.2500 0.1443 0.0000 (183317 PWs)   bands (ev):

   -26.6148 -26.3843 -25.1388 -24.9442 -15.7753 -14.1676 -11.9363 -10.6096
    -8.9537  -8.9296  -8.4746  -8.4049  -8.2794  -7.4418  -7.4138  -7.3060
    -6.9305  -6.8434  -6.8431  -6.4815  -6.2456  -6.0998  -6.0493  -6.0490
    -5.9894  -5.9893  -5.8388  -5.6186  -5.4337  -5.2921  -5.2919  -5.2518
    -5.0351  -5.0097  -4.9934  -4.8964  -4.8855  -4.8568  -4.7408  -4.5769
    -4.5766  -4.5669  -4.5016  -4.3576  -4.3558  -4.3493  -4.3394  -4.3358
    -4.2264  -4.1952  -4.1951  -4.1655  -4.1652  -4.1215  -4.1205  -4.0318
    -4.0318  -3.9917  -3.9917  -3.9730  -3.8753  -3.8694  -3.8688  -3.8538
    -3.8523  -3.7990  -3.7990  -3.7732  -3.7367  -3.7363  -3.6574  -3.6401
    -3.6398  -3.6273  -3.6194  -3.6193  -3.6124  -3.6117  -3.5854  -3.5843
    -3.5842  -3.5827  -3.5826  -3.5549  -3.5545  -3.5296  -3.5295  -3.4510
    -3.4510  -3.4431  -3.4217  -3.4216  -3.4149  -3.4148  -3.3962  -3.3961
    -3.3876  -3.3431  -3.3429  -3.3187  -3.3185  -3.3146  -3.3146  -3.2752
    -3.2751  -3.2670  -3.2660  -3.2176  -3.2176  -3.2085  -3.2084  -3.1690
    -3.1689  -3.1242  -3.1240  -3.0718  -3.0716  -3.0420  -3.0419  -2.9977
    -2.9975  -2.9891  -2.9814  -2.9762  -2.9760  -2.9757  -2.9755  -2.9711
    -2.9709  -2.8880  -2.8879  -2.8705  -2.8703  -2.8665  -2.8656  -2.8654
    -2.8646  -2.7993  -2.7992  -2.7948  -2.7946  -2.7825  -2.7824  -2.7767
    -2.7766  -2.7698  -2.7696  -2.7551  -2.7221  -2.7219  -2.7103  -2.7103
    -2.6926  -2.6920  -2.6920  -2.6597  -2.6596  -2.6361  -2.6360  -2.6253
    -2.6252  -2.6071  -2.5827  -2.5826  -2.5651  -2.5649  -2.5457  -2.5355
    -2.5056  -2.5056  -2.4977  -2.4974  -2.4851  -2.4767  -2.4719  -2.4565
    -2.4521  -2.4520  -2.4256  -2.4254  -2.4254  -2.4251  -2.4230  -2.4230
    -2.3788  -2.3788  -2.3529  -2.3527  -2.3514  -2.3513  -2.3465  -2.3454
    -2.3291  -2.2876  -2.2875  -2.2726  -2.2724  -2.2551  -2.2550  -2.2503
    -2.2490  -2.2476  -2.2403  -2.2302  -2.2297  -2.2296  -2.2037  -2.2020
    -2.2020  -2.1939  -2.1894  -2.1764  -2.1751  -2.1741  -2.1584  -2.1496
    -2.1495  -2.1487  -2.1485  -2.1394  -2.1390  -2.1229  -2.1220  -2.1217
    -2.1083  -2.1080  -2.1036  -2.0895  -2.0707  -2.0705  -2.0628  -2.0549
    -2.0547  -2.0485  -2.0482  -2.0453  -2.0442  -2.0440  -2.0399  -2.0398
    -2.0223  -2.0171  -2.0169  -2.0050  -2.0050  -1.9990  -1.9934  -1.9920
    -1.9919  -1.9741  -1.9734  -1.9686  -1.9682  -1.9604  -1.9603  -1.9492
    -1.9486  -1.9478  -1.9472  -1.9389  -1.9257  -1.9253  -1.9227  -1.9219
    -1.9193  -1.9187  -1.9057  -1.8803  -1.8792  -1.8788  -1.8535  -1.8529
    -1.8445  -1.8418  -1.8416  -1.8193  -1.8017  -1.8016  -1.7875  -1.7719
    -1.7719  -1.7652  -1.7590  -1.7318  -1.7316  -1.7310  -1.7306  -1.7283
    -1.7282  -1.7262  -1.7260  -1.7160  -1.7159  -1.6934  -1.6774  -1.6769
    -1.6395  -1.6392  -1.6233  -1.6144  -1.6003  -1.6003  -1.5615  -1.5611
    -1.5506  -1.5505  -1.5495  -1.5494  -1.5306  -1.5304  -1.5233  -1.5121
    -1.5120  -1.5038  -1.4974  -1.4939  -1.4888  -1.4886  -1.4780  -1.4776
    -1.4486  -1.4426  -1.4334  -1.4234  -1.4222  -1.4085  -1.4085  -1.4057
    -1.4057  -1.3896  -1.3773  -1.3771  -1.3756  -1.3753  -1.3747  -1.3681
    -1.3681  -1.3589  -1.3571  -1.3484  -1.3483  -1.3342  -1.3341  -1.3192
    -1.3184  -1.3181  -1.2632  -1.2630  -1.2548  -1.2546  -1.2523  -1.2522
    -1.2478  -1.2429  -1.2407  -1.2407  -1.2354  -1.2354  -1.2314  -1.2311
    -1.2034  -1.1977  -1.1947  -1.1860  -1.1859  -1.1847  -1.1846  -1.1799
    -1.1797  -1.1749  -1.1605  -1.1164  -1.0999  -1.0998  -1.0973  -1.0969
    -1.0961  -1.0958  -1.0948  -1.0809  -1.0651  -1.0610  -1.0609  -1.0550
    -1.0528  -1.0521  -1.0470  -1.0466  -1.0196  -1.0195  -1.0183  -1.0181
    -1.0089  -1.0086  -0.9713  -0.9655  -0.9622  -0.9589  -0.9589  -0.9581
    -0.9547  -0.9199  -0.9162  -0.9161  -0.9157  -0.9157  -0.9119  -0.9117
    -0.9110  -0.8963  -0.8913  -0.8912  -0.8863  -0.8862  -0.8823  -0.8817
    -0.8815  -0.8812  -0.8781  -0.8761  -0.8761  -0.8695  -0.8693  -0.8681
    -0.8679  -0.8661  -0.8447  -0.8401  -0.8400  -0.8303  -0.8301  -0.8173
    -0.8146  -0.8145  -0.8077  -0.8076  -0.7681  -0.7681  -0.7568  -0.7567
    -0.7086  -0.7086  -0.6961  -0.6948  -0.6860  -0.6796  -0.6448  -0.3353
    -0.3087  -0.2464  -0.2464  -0.0494  -0.0491  -0.0333  -0.0288  -0.0127
     0.2668   0.3905   0.3905   0.5112   0.5135   0.5140   0.5141   0.6268
     0.6278   0.7182   0.7601   0.8886   0.8887   0.9194   1.0211   1.0212
     1.1706   1.6114   1.6197   1.6293   1.6301   1.6356   1.6356   1.7547
     1.7549   2.0578   2.0598   2.1604   2.1607   2.2489   2.4100   2.4115
     2.4137   2.4187   2.4298   2.7705   2.8545   2.8547   3.0714   3.0828
     3.1434   3.1442   3.1973   3.1985   3.3661   3.6174   4.0822   4.0871
     4.2178   4.2297   4.4086   4.4501   4.4522   4.4570   4.6922   4.7423
     4.8213   4.9129   4.9174   4.9346   4.9352   4.9816   5.0841   5.1099
     5.1677   5.2242   5.2245   5.3355   5.5308   5.6031   5.6717   5.7206
     5.7358   5.7591   5.8242   5.8603   5.8836   5.9208   5.9544   5.9617
     5.9638   5.9692   6.0039   6.0066   6.0365   6.0627   6.1113   6.2135
     6.2425   6.3149   6.3391   6.4042   6.4451   6.4801   6.5243   6.5315
     6.5474   6.6020   6.6496   6.7034   6.7517   6.7571

          k = 0.2500 0.1443 0.0000 (183317 PWs)   bands (ev):

   -26.6148 -26.3843 -25.1388 -24.9442 -15.7753 -14.1676 -11.9363 -10.6096
    -8.9537  -8.9296  -8.4746  -8.4049  -8.2794  -7.4417  -7.4138  -7.3060
    -6.9305  -6.8434  -6.8431  -6.4815  -6.2456  -6.0998  -6.0494  -6.0489
    -5.9894  -5.9893  -5.8388  -5.6186  -5.4337  -5.2921  -5.2919  -5.2519
    -5.0350  -5.0102  -4.9932  -4.8957  -4.8852  -4.8572  -4.7412  -4.5768
    -4.5766  -4.5670  -4.5016  -4.3579  -4.3557  -4.3493  -4.3394  -4.3358
    -4.2264  -4.1952  -4.1951  -4.1656  -4.1651  -4.1214  -4.1205  -4.0318
    -4.0318  -3.9917  -3.9917  -3.9730  -3.8746  -3.8694  -3.8692  -3.8541
    -3.8523  -3.7991  -3.7990  -3.7731  -3.7367  -3.7363  -3.6575  -3.6401
    -3.6398  -3.6273  -3.6194  -3.6192  -3.6124  -3.6117  -3.5854  -3.5843
    -3.5843  -3.5827  -3.5826  -3.5549  -3.5545  -3.5296  -3.5295  -3.4510
    -3.4509  -3.4431  -3.4218  -3.4216  -3.4149  -3.4148  -3.3963  -3.3961
    -3.3876  -3.3431  -3.3428  -3.3187  -3.3185  -3.3146  -3.3146  -3.2752
    -3.2751  -3.2669  -3.2662  -3.2176  -3.2176  -3.2085  -3.2084  -3.1690
    -3.1689  -3.1242  -3.1240  -3.0718  -3.0715  -3.0420  -3.0419  -2.9977
    -2.9975  -2.9890  -2.9815  -2.9762  -2.9760  -2.9756  -2.9755  -2.9712
    -2.9710  -2.8880  -2.8879  -2.8705  -2.8703  -2.8664  -2.8656  -2.8655
    -2.8645  -2.7993  -2.7992  -2.7948  -2.7946  -2.7825  -2.7824  -2.7768
    -2.7766  -2.7698  -2.7696  -2.7551  -2.7221  -2.7219  -2.7103  -2.7103
    -2.6927  -2.6920  -2.6920  -2.6597  -2.6596  -2.6361  -2.6360  -2.6253
    -2.6252  -2.6071  -2.5827  -2.5826  -2.5652  -2.5648  -2.5457  -2.5355
    -2.5056  -2.5056  -2.4978  -2.4974  -2.4851  -2.4768  -2.4718  -2.4565
    -2.4521  -2.4520  -2.4256  -2.4254  -2.4253  -2.4252  -2.4230  -2.4230
    -2.3789  -2.3787  -2.3529  -2.3526  -2.3514  -2.3513  -2.3465  -2.3453
    -2.3291  -2.2876  -2.2875  -2.2726  -2.2724  -2.2551  -2.2550  -2.2503
    -2.2489  -2.2476  -2.2403  -2.2301  -2.2297  -2.2296  -2.2037  -2.2020
    -2.2020  -2.1939  -2.1894  -2.1763  -2.1752  -2.1741  -2.1584  -2.1495
    -2.1494  -2.1487  -2.1486  -2.1395  -2.1389  -2.1229  -2.1220  -2.1217
    -2.1083  -2.1079  -2.1036  -2.0895  -2.0707  -2.0705  -2.0628  -2.0549
    -2.0548  -2.0485  -2.0482  -2.0453  -2.0442  -2.0440  -2.0399  -2.0399
    -2.0223  -2.0170  -2.0169  -2.0051  -2.0050  -1.9990  -1.9934  -1.9920
    -1.9919  -1.9741  -1.9735  -1.9686  -1.9682  -1.9604  -1.9603  -1.9492
    -1.9486  -1.9478  -1.9471  -1.9389  -1.9258  -1.9252  -1.9227  -1.9219
    -1.9193  -1.9187  -1.9057  -1.8804  -1.8792  -1.8788  -1.8535  -1.8529
    -1.8445  -1.8417  -1.8416  -1.8193  -1.8017  -1.8016  -1.7875  -1.7719
    -1.7719  -1.7651  -1.7589  -1.7319  -1.7315  -1.7309  -1.7307  -1.7283
    -1.7283  -1.7262  -1.7260  -1.7160  -1.7159  -1.6934  -1.6774  -1.6769
    -1.6396  -1.6392  -1.6233  -1.6144  -1.6003  -1.6003  -1.5615  -1.5611
    -1.5506  -1.5506  -1.5494  -1.5494  -1.5306  -1.5303  -1.5233  -1.5121
    -1.5120  -1.5038  -1.4973  -1.4939  -1.4888  -1.4886  -1.4780  -1.4776
    -1.4487  -1.4426  -1.4334  -1.4234  -1.4222  -1.4085  -1.4084  -1.4057
    -1.4057  -1.3896  -1.3774  -1.3771  -1.3756  -1.3754  -1.3745  -1.3681
    -1.3681  -1.3589  -1.3571  -1.3484  -1.3483  -1.3343  -1.3341  -1.3192
    -1.3184  -1.3181  -1.2632  -1.2630  -1.2548  -1.2546  -1.2523  -1.2522
    -1.2478  -1.2429  -1.2407  -1.2407  -1.2354  -1.2354  -1.2314  -1.2310
    -1.2034  -1.1977  -1.1947  -1.1860  -1.1859  -1.1847  -1.1846  -1.1799
    -1.1798  -1.1749  -1.1605  -1.1164  -1.0999  -1.0998  -1.0973  -1.0969
    -1.0962  -1.0957  -1.0948  -1.0808  -1.0652  -1.0610  -1.0609  -1.0550
    -1.0528  -1.0520  -1.0470  -1.0466  -1.0196  -1.0195  -1.0184  -1.0180
    -1.0089  -1.0086  -0.9713  -0.9655  -0.9622  -0.9589  -0.9589  -0.9580
    -0.9548  -0.9199  -0.9162  -0.9161  -0.9157  -0.9157  -0.9119  -0.9117
    -0.9111  -0.8963  -0.8913  -0.8912  -0.8863  -0.8862  -0.8823  -0.8817
    -0.8815  -0.8812  -0.8781  -0.8761  -0.8761  -0.8695  -0.8693  -0.8680
    -0.8679  -0.8661  -0.8447  -0.8401  -0.8400  -0.8303  -0.8301  -0.8173
    -0.8146  -0.8145  -0.8078  -0.8076  -0.7681  -0.7681  -0.7568  -0.7567
    -0.7086  -0.7086  -0.6962  -0.6947  -0.6860  -0.6796  -0.6447  -0.3352
    -0.3087  -0.2464  -0.2464  -0.0494  -0.0491  -0.0331  -0.0291  -0.0127
     0.2668   0.3905   0.3905   0.5111   0.5136   0.5140   0.5142   0.6268
     0.6279   0.7181   0.7602   0.8886   0.8887   0.9195   1.0211   1.0211
     1.1708   1.6108   1.6201   1.6293   1.6299   1.6356   1.6356   1.7546
     1.7549   2.0577   2.0601   2.1604   2.1607   2.2489   2.4095   2.4116
     2.4143   2.4189   2.4294   2.7706   2.8545   2.8547   3.0702   3.0834
     3.1433   3.1443   3.1973   3.1984   3.3662   3.6179   4.0819   4.0876
     4.2164   4.2304   4.4174   4.4408   4.4516   4.4531   4.7022   4.7393
     4.8311   4.9136   4.9157   4.9344   4.9355   4.9958   5.0977   5.1102
     5.1816   5.2243   5.2244   5.3048   5.4967   5.6036   5.6616   5.7268
     5.7344   5.7563   5.8170   5.8679   5.8847   5.9280   5.9339   5.9629
     5.9636   5.9854   6.0038   6.0073   6.0308   6.0736   6.1115   6.2061
     6.2448   6.2947   6.3408   6.4025   6.4368   6.4796   6.5264   6.5341
     6.5446   6.5908   6.7001   6.7273   6.7568   6.7647

          k = 0.5000-0.2887 0.0000 (183406 PWs)   bands (ev):

   -26.6148 -26.3843 -25.1388 -24.9442 -15.7753 -14.1677 -11.9362 -10.6096
    -8.9537  -8.9299  -8.4746  -8.4056  -7.9079  -7.9067  -7.4409  -7.0551
    -7.0543  -6.9559  -6.9551  -6.9287  -6.2458  -6.1509  -6.1503  -5.8403
    -5.7651  -5.7624  -5.4315  -5.3138  -5.3136  -5.3136  -5.3134  -5.0352
    -5.0095  -4.9695  -4.9602  -4.8050  -4.8036  -4.7736  -4.7279  -4.7277
    -4.7274  -4.7226  -4.5680  -4.5459  -4.5311  -4.5013  -4.4226  -4.4225
    -4.3385  -4.1105  -4.1080  -4.1053  -4.1052  -4.1047  -4.1044  -4.0422
    -4.0418  -4.0204  -4.0199  -4.0196  -4.0187  -3.9288  -3.9288  -3.9282
    -3.9281  -3.8932  -3.8904  -3.8715  -3.7780  -3.7778  -3.7778  -3.7776
    -3.6394  -3.6389  -3.5818  -3.5814  -3.5158  -3.5158  -3.5156  -3.5153
    -3.5085  -3.5084  -3.5062  -3.5061  -3.4983  -3.4981  -3.4981  -3.4979
    -3.4924  -3.4920  -3.4715  -3.4714  -3.4710  -3.4708  -3.3676  -3.3672
    -3.3119  -3.3119  -3.2763  -3.2760  -3.2753  -3.2747  -3.2619  -3.2618
    -3.2615  -3.2614  -3.2609  -3.2607  -3.1970  -3.1968  -3.1539  -3.1538
    -3.1529  -3.1527  -3.1473  -3.1461  -3.1110  -3.1109  -3.1108  -3.1108
    -3.0552  -3.0551  -2.9967  -2.9966  -2.9808  -2.9219  -2.9219  -2.9060
    -2.9060  -2.9057  -2.9056  -2.8764  -2.8762  -2.8508  -2.8507  -2.8501
    -2.8498  -2.8308  -2.8306  -2.8306  -2.8305  -2.8293  -2.8293  -2.8227
    -2.8217  -2.8169  -2.8167  -2.7137  -2.7136  -2.7134  -2.7134  -2.6653
    -2.6651  -2.6410  -2.6406  -2.6363  -2.6361  -2.6151  -2.6150  -2.5848
    -2.5843  -2.5838  -2.5835  -2.5673  -2.5671  -2.5669  -2.5667  -2.5643
    -2.5641  -2.4744  -2.4733  -2.4665  -2.4662  -2.4445  -2.4435  -2.4255
    -2.4255  -2.4138  -2.4135  -2.4132  -2.4132  -2.3874  -2.3860  -2.3683
    -2.3683  -2.3143  -2.3140  -2.3117  -2.3114  -2.3113  -2.3112  -2.2798
    -2.2789  -2.2730  -2.2719  -2.2539  -2.2536  -2.2406  -2.2405  -2.2403
    -2.2403  -2.2380  -2.2378  -2.2359  -2.2356  -2.2317  -2.2309  -2.2243
    -2.2214  -2.1921  -2.1919  -2.1917  -2.1915  -2.1743  -2.1741  -2.1607
    -2.1605  -2.1602  -2.1601  -2.1508  -2.1504  -2.1503  -2.1500  -2.1495
    -2.1492  -2.1382  -2.1373  -2.1337  -2.1334  -2.1082  -2.1082  -2.1080
    -2.1080  -2.0972  -2.0967  -2.0922  -2.0909  -2.0779  -2.0778  -2.0725
    -2.0722  -2.0419  -2.0398  -2.0330  -2.0325  -2.0317  -2.0315  -2.0228
    -2.0225  -2.0223  -2.0221  -1.9964  -1.9960  -1.9903  -1.9900  -1.9210
    -1.9205  -1.9205  -1.9201  -1.8827  -1.8821  -1.8632  -1.8627  -1.8624
    -1.8623  -1.8611  -1.8609  -1.8606  -1.8590  -1.8534  -1.8528  -1.8204
    -1.8201  -1.8033  -1.8011  -1.7905  -1.7904  -1.7871  -1.7870  -1.7869
    -1.7868  -1.7407  -1.7406  -1.7386  -1.7377  -1.6965  -1.6964  -1.6963
    -1.6962  -1.6781  -1.6780  -1.6662  -1.6653  -1.6487  -1.6487  -1.5984
    -1.5968  -1.5612  -1.5610  -1.5609  -1.5606  -1.5424  -1.5408  -1.5349
    -1.5348  -1.5184  -1.5183  -1.5182  -1.5181  -1.5067  -1.5066  -1.5058
    -1.5055  -1.4592  -1.4590  -1.4577  -1.4573  -1.4553  -1.4522  -1.4343
    -1.4338  -1.4335  -1.4333  -1.4151  -1.4147  -1.4121  -1.4116  -1.3866
    -1.3830  -1.3820  -1.3805  -1.3805  -1.3797  -1.3665  -1.3660  -1.3658
    -1.3652  -1.3515  -1.3511  -1.3257  -1.3254  -1.3253  -1.3249  -1.3110
    -1.3108  -1.2448  -1.2446  -1.2445  -1.2440  -1.2332  -1.2331  -1.2331
    -1.2329  -1.2222  -1.2217  -1.2082  -1.2020  -1.1960  -1.1956  -1.1712
    -1.1708  -1.1665  -1.1660  -1.1658  -1.1655  -1.1171  -1.1168  -1.1166
    -1.1158  -1.0952  -1.0951  -1.0944  -1.0944  -1.0869  -1.0866  -1.0865
    -1.0861  -1.0764  -1.0757  -1.0564  -1.0563  -1.0546  -1.0544  -1.0321
    -1.0320  -1.0308  -1.0307  -1.0306  -1.0305  -1.0043  -1.0036  -1.0021
    -1.0009  -0.9987  -0.9986  -0.9976  -0.9969  -0.9853  -0.9840  -0.9711
    -0.9711  -0.9678  -0.9670  -0.9633  -0.9632  -0.9632  -0.9631  -0.9454
    -0.9452  -0.8995  -0.8995  -0.8908  -0.8906  -0.8905  -0.8904  -0.8903
    -0.8898  -0.8881  -0.8880  -0.8849  -0.8838  -0.8799  -0.8797  -0.8792
    -0.8790  -0.8733  -0.8728  -0.8382  -0.8382  -0.8370  -0.8367  -0.8286
    -0.8265  -0.7947  -0.7934  -0.7610  -0.7607  -0.7601  -0.7598  -0.7549
    -0.7548  -0.7547  -0.7546  -0.7218  -0.7215  -0.6896  -0.6876  -0.6874
    -0.6873  -0.6871  -0.6819  -0.2210  -0.2204  -0.2200  -0.2187  -0.0910
    -0.0899  -0.0796  -0.0766   0.4776   0.4778   0.4779   0.4782   0.5092
     0.5342   0.8906   0.8908   0.8912   0.8913   1.1292   1.1305   1.1315
     1.1344   1.4574   1.4748   1.5119   1.5321   1.5603   1.5640   1.6775
     1.6781   1.6794   1.6802   2.8975   2.8976   2.9154   2.9224   2.9248
     2.9260   2.9304   2.9347   3.1293   3.1297   3.1319   3.1354   3.1377
     3.1454   3.5613   3.5616   3.6235   3.6255   3.8336   3.9051   3.9059
     3.9074   3.9081   4.0399   4.0488   4.0496   4.6329   4.6332   4.6820
     4.7367   4.8373   4.9620   5.0329   5.0982   5.1311   5.1521   5.1561
     5.1668   5.2817   5.2929   5.2943   5.2954   5.2966   5.3551   5.3868
     5.5228   5.5799   5.5807   5.6780   5.6984   5.7577   5.8204   5.8405
     5.9161   5.9424   5.9794   6.0443   6.1241   6.1321   6.1382   6.1484
     6.2001   6.2056   6.2472   6.2572   6.3157   6.3298   6.4065   6.4338
     6.4536   6.4771   6.5542   6.6715   6.6755   6.7097

          k =-0.5000-0.2887 0.0000 (183406 PWs)   bands (ev):

   -26.6148 -26.3843 -25.1388 -24.9442 -15.7753 -14.1677 -11.9362 -10.6096
    -8.9537  -8.9299  -8.4746  -8.4056  -7.9076  -7.9071  -7.4408  -7.0547
    -7.0546  -6.9558  -6.9551  -6.9288  -6.2457  -6.1510  -6.1502  -5.8403
    -5.7640  -5.7635  -5.4315  -5.3138  -5.3136  -5.3136  -5.3135  -5.0355
    -5.0098  -4.9689  -4.9595  -4.8048  -4.8038  -4.7746  -4.7279  -4.7277
    -4.7273  -4.7225  -4.5679  -4.5454  -4.5313  -4.5014  -4.4227  -4.4225
    -4.3385  -4.1104  -4.1081  -4.1051  -4.1050  -4.1047  -4.1046  -4.0422
    -4.0419  -4.0205  -4.0199  -4.0196  -4.0186  -3.9287  -3.9285  -3.9284
    -3.9283  -3.8930  -3.8905  -3.8717  -3.7782  -3.7778  -3.7777  -3.7776
    -3.6394  -3.6390  -3.5818  -3.5815  -3.5161  -3.5159  -3.5153  -3.5152
    -3.5085  -3.5084  -3.5062  -3.5061  -3.4983  -3.4982  -3.4980  -3.4979
    -3.4922  -3.4921  -3.4718  -3.4714  -3.4709  -3.4707  -3.3677  -3.3672
    -3.3119  -3.3119  -3.2762  -3.2761  -3.2751  -3.2750  -3.2617  -3.2616
    -3.2616  -3.2614  -3.2610  -3.2608  -3.1970  -3.1967  -3.1542  -3.1538
    -3.1528  -3.1525  -3.1471  -3.1463  -3.1110  -3.1109  -3.1108  -3.1107
    -3.0553  -3.0551  -2.9966  -2.9966  -2.9808  -2.9219  -2.9219  -2.9061
    -2.9059  -2.9058  -2.9055  -2.8765  -2.8762  -2.8511  -2.8508  -2.8498
    -2.8498  -2.8307  -2.8307  -2.8306  -2.8304  -2.8294  -2.8293  -2.8223
    -2.8220  -2.8169  -2.8167  -2.7137  -2.7137  -2.7134  -2.7133  -2.6653
    -2.6651  -2.6410  -2.6407  -2.6363  -2.6361  -2.6151  -2.6149  -2.5847
    -2.5845  -2.5837  -2.5834  -2.5673  -2.5671  -2.5669  -2.5668  -2.5643
    -2.5641  -2.4746  -2.4731  -2.4664  -2.4663  -2.4443  -2.4438  -2.4255
    -2.4254  -2.4137  -2.4134  -2.4133  -2.4133  -2.3874  -2.3860  -2.3683
    -2.3682  -2.3142  -2.3141  -2.3117  -2.3115  -2.3113  -2.3110  -2.2798
    -2.2789  -2.2730  -2.2718  -2.2539  -2.2537  -2.2406  -2.2405  -2.2403
    -2.2402  -2.2380  -2.2375  -2.2361  -2.2358  -2.2316  -2.2310  -2.2240
    -2.2216  -2.1923  -2.1921  -2.1916  -2.1913  -2.1742  -2.1741  -2.1608
    -2.1606  -2.1602  -2.1600  -2.1509  -2.1506  -2.1505  -2.1503  -2.1489
    -2.1489  -2.1380  -2.1375  -2.1344  -2.1327  -2.1083  -2.1082  -2.1081
    -2.1079  -2.0973  -2.0966  -2.0922  -2.0909  -2.0779  -2.0778  -2.0724
    -2.0722  -2.0417  -2.0400  -2.0330  -2.0325  -2.0317  -2.0315  -2.0228
    -2.0225  -2.0224  -2.0221  -1.9963  -1.9961  -1.9903  -1.9899  -1.9210
    -1.9206  -1.9203  -1.9201  -1.8828  -1.8820  -1.8631  -1.8627  -1.8625
    -1.8624  -1.8612  -1.8609  -1.8604  -1.8591  -1.8534  -1.8528  -1.8204
    -1.8201  -1.8033  -1.8011  -1.7905  -1.7904  -1.7877  -1.7875  -1.7864
    -1.7862  -1.7407  -1.7406  -1.7386  -1.7377  -1.6965  -1.6965  -1.6962
    -1.6962  -1.6788  -1.6773  -1.6662  -1.6654  -1.6487  -1.6487  -1.5987
    -1.5965  -1.5612  -1.5610  -1.5609  -1.5606  -1.5422  -1.5410  -1.5349
    -1.5348  -1.5184  -1.5182  -1.5182  -1.5181  -1.5072  -1.5062  -1.5059
    -1.5054  -1.4591  -1.4590  -1.4578  -1.4572  -1.4553  -1.4521  -1.4345
    -1.4344  -1.4333  -1.4328  -1.4151  -1.4147  -1.4121  -1.4116  -1.3868
    -1.3829  -1.3821  -1.3805  -1.3805  -1.3795  -1.3662  -1.3661  -1.3657
    -1.3656  -1.3517  -1.3508  -1.3256  -1.3255  -1.3254  -1.3248  -1.3110
    -1.3108  -1.2447  -1.2446  -1.2445  -1.2441  -1.2333  -1.2331  -1.2330
    -1.2328  -1.2222  -1.2218  -1.2084  -1.2018  -1.1960  -1.1956  -1.1715
    -1.1706  -1.1665  -1.1664  -1.1656  -1.1653  -1.1170  -1.1169  -1.1166
    -1.1157  -1.0951  -1.0950  -1.0945  -1.0944  -1.0872  -1.0866  -1.0863
    -1.0859  -1.0765  -1.0756  -1.0564  -1.0563  -1.0545  -1.0544  -1.0323
    -1.0321  -1.0308  -1.0306  -1.0305  -1.0305  -1.0042  -1.0037  -1.0019
    -1.0011  -0.9991  -0.9982  -0.9973  -0.9971  -0.9853  -0.9840  -0.9712
    -0.9711  -0.9679  -0.9668  -0.9633  -0.9632  -0.9632  -0.9630  -0.9454
    -0.9452  -0.8995  -0.8995  -0.8907  -0.8906  -0.8905  -0.8904  -0.8902
    -0.8900  -0.8881  -0.8880  -0.8849  -0.8839  -0.8797  -0.8797  -0.8792
    -0.8792  -0.8735  -0.8726  -0.8385  -0.8377  -0.8372  -0.8366  -0.8284
    -0.8267  -0.7945  -0.7936  -0.7610  -0.7606  -0.7601  -0.7598  -0.7550
    -0.7548  -0.7547  -0.7546  -0.7218  -0.7215  -0.6896  -0.6876  -0.6875
    -0.6874  -0.6870  -0.6817  -0.2210  -0.2205  -0.2200  -0.2186  -0.0909
    -0.0899  -0.0797  -0.0767   0.4775   0.4776   0.4782   0.4782   0.5092
     0.5344   0.8907   0.8908   0.8911   0.8913   1.1293   1.1302   1.1312
     1.1349   1.4572   1.4754   1.5111   1.5324   1.5612   1.5632   1.6776
     1.6781   1.6793   1.6800   2.8974   2.8976   2.9144   2.9224   2.9252
     2.9269   2.9296   2.9343   3.1295   3.1297   3.1315   3.1355   3.1377
     3.1458   3.5612   3.5617   3.6226   3.6261   3.8371   3.9052   3.9057
     3.9071   3.9080   4.0346   4.0486   4.0497   4.6330   4.6332   4.6800
     4.7823   4.8260   4.9888   5.0318   5.0949   5.1323   5.1508   5.1596
     5.1660   5.2749   5.2933   5.2935   5.2957   5.2970   5.3497   5.3991
     5.5042   5.5803   5.5808   5.6394   5.6731   5.7530   5.8148   5.8363
     5.8972   5.9487   5.9907   6.0592   6.1187   6.1222   6.1338   6.1408
     6.1666   6.2167   6.2198   6.2876   6.3131   6.3479   6.3867   6.4108
     6.4615   6.4761   6.5933   6.6716   6.6763   6.7096

          k =-0.2500-0.7217 0.0000 (183316 PWs)   bands (ev):

   -26.6148 -26.3843 -25.1388 -24.9442 -15.7753 -14.1676 -11.9364 -10.6095
    -8.9537  -8.9296  -8.4745  -8.4049  -8.0304  -7.5433  -7.5428  -7.4413
    -7.1732  -6.9303  -6.7057  -6.7049  -6.2453  -6.1831  -6.1829  -5.8755
    -5.8377  -5.4581  -5.4494  -5.4481  -5.4465  -5.4233  -5.3851  -5.1097
    -5.1093  -5.0347  -5.0039  -4.7822  -4.7634  -4.6308  -4.6099  -4.6093
    -4.5669  -4.5327  -4.5320  -4.5015  -4.4504  -4.4503  -4.4245  -4.4230
    -4.3385  -4.2755  -4.2678  -4.1863  -4.1858  -4.1855  -4.1796  -4.1794
    -4.0541  -4.0533  -4.0098  -3.9946  -3.9595  -3.9593  -3.9002  -3.8937
    -3.8915  -3.8728  -3.8571  -3.8562  -3.7900  -3.7898  -3.7192  -3.7187
    -3.6976  -3.6118  -3.6117  -3.5909  -3.5901  -3.5711  -3.5706  -3.5169
    -3.5165  -3.5154  -3.5154  -3.5147  -3.5142  -3.5112  -3.5038  -3.4479
    -3.4034  -3.4028  -3.3879  -3.3873  -3.3837  -3.3835  -3.3657  -3.3657
    -3.3513  -3.3511  -3.3485  -3.3298  -3.2872  -3.2869  -3.2825  -3.2772
    -3.2768  -3.2423  -3.2268  -3.2103  -3.2088  -3.2083  -3.1854  -3.1854
    -3.1552  -3.1363  -3.1354  -3.1157  -3.0816  -3.0702  -3.0697  -3.0450
    -3.0445  -3.0408  -3.0386  -3.0376  -3.0357  -3.0354  -3.0353  -2.9814
    -2.9510  -2.9206  -2.8851  -2.8838  -2.8837  -2.8756  -2.8534  -2.8482
    -2.8481  -2.8255  -2.8248  -2.8093  -2.8088  -2.7976  -2.7972  -2.7645
    -2.7644  -2.7499  -2.7497  -2.7485  -2.7484  -2.7269  -2.7267  -2.6889
    -2.6769  -2.6767  -2.6171  -2.6165  -2.5970  -2.5894  -2.5888  -2.5761
    -2.5718  -2.5496  -2.5492  -2.5480  -2.5434  -2.5283  -2.5282  -2.5275
    -2.5272  -2.5008  -2.5007  -2.4970  -2.4961  -2.4801  -2.4445  -2.4441
    -2.4421  -2.4414  -2.4093  -2.4062  -2.3998  -2.3843  -2.3719  -2.3717
    -2.3675  -2.3671  -2.3648  -2.3493  -2.3479  -2.3339  -2.3278  -2.3274
    -2.3246  -2.3131  -2.3129  -2.3101  -2.3101  -2.2806  -2.2609  -2.2509
    -2.2508  -2.2460  -2.2434  -2.2351  -2.2347  -2.2301  -2.2269  -2.2266
    -2.2224  -2.2221  -2.2088  -2.2086  -2.2084  -2.2081  -2.1985  -2.1981
    -2.1684  -2.1618  -2.1618  -2.1519  -2.1518  -2.1392  -2.1368  -2.1326
    -2.1271  -2.1270  -2.1254  -2.1230  -2.1224  -2.1090  -2.1077  -2.0875
    -2.0853  -2.0845  -2.0797  -2.0796  -2.0705  -2.0700  -2.0572  -2.0527
    -2.0497  -2.0190  -2.0156  -2.0143  -2.0118  -2.0074  -2.0064  -1.9985
    -1.9951  -1.9900  -1.9894  -1.9859  -1.9857  -1.9729  -1.9729  -1.9444
    -1.9321  -1.9316  -1.9166  -1.9028  -1.9023  -1.8737  -1.8540  -1.8539
    -1.8408  -1.8395  -1.8393  -1.8177  -1.8077  -1.8069  -1.8050  -1.8040
    -1.7911  -1.7900  -1.7887  -1.7876  -1.7779  -1.7744  -1.7502  -1.7499
    -1.7062  -1.7057  -1.6942  -1.6933  -1.6925  -1.6919  -1.6834  -1.6821
    -1.6814  -1.6812  -1.6735  -1.6732  -1.6627  -1.6619  -1.6344  -1.6336
    -1.6320  -1.6163  -1.6162  -1.6152  -1.6140  -1.6090  -1.5784  -1.5763
    -1.5676  -1.5606  -1.5606  -1.5577  -1.5395  -1.5380  -1.5299  -1.5218
    -1.4854  -1.4844  -1.4698  -1.4693  -1.4679  -1.4675  -1.4522  -1.4520
    -1.4456  -1.4452  -1.4413  -1.4250  -1.4245  -1.4214  -1.4191  -1.4158
    -1.4155  -1.4096  -1.3874  -1.3672  -1.3539  -1.3504  -1.3430  -1.3421
    -1.3272  -1.3269  -1.3192  -1.3191  -1.2895  -1.2889  -1.2691  -1.2677
    -1.2668  -1.2624  -1.2581  -1.2465  -1.2445  -1.2406  -1.2399  -1.2305
    -1.2304  -1.2296  -1.2286  -1.2240  -1.2231  -1.1957  -1.1953  -1.1878
    -1.1869  -1.1803  -1.1803  -1.1640  -1.1633  -1.1605  -1.1524  -1.1263
    -1.1262  -1.0998  -1.0931  -1.0907  -1.0903  -1.0875  -1.0872  -1.0848
    -1.0846  -1.0801  -1.0769  -1.0576  -1.0572  -1.0533  -1.0532  -1.0514
    -1.0513  -1.0427  -1.0413  -1.0412  -1.0198  -1.0197  -1.0160  -1.0136
    -1.0054  -1.0010  -1.0006  -0.9938  -0.9930  -0.9780  -0.9768  -0.9764
    -0.9638  -0.9625  -0.9617  -0.9613  -0.9605  -0.9604  -0.9557  -0.9354
    -0.9353  -0.9311  -0.9309  -0.9308  -0.9170  -0.9163  -0.9054  -0.9051
    -0.9046  -0.9046  -0.9026  -0.8970  -0.8955  -0.8912  -0.8866  -0.8862
    -0.8713  -0.8706  -0.8613  -0.8605  -0.8484  -0.8209  -0.8207  -0.8073
    -0.8072  -0.8038  -0.8038  -0.8035  -0.8032  -0.7874  -0.7873  -0.7769
    -0.7535  -0.7417  -0.7412  -0.7310  -0.6784  -0.6773  -0.6668  -0.4404
    -0.4335  -0.3982  -0.3982  -0.2999  -0.2997  -0.2512  -0.2480  -0.2002
    -0.0857  -0.0851  -0.0718  -0.0717   0.3628   0.4183   0.4214   0.5959
     0.5970   0.6118   0.6125   0.9205   0.9434   1.0998   1.2436   1.2528
     1.2530   1.2650   1.6182   1.6184   1.8100   2.0526   2.0755   2.0805
     2.0887   2.0923   2.0928   2.1354   2.1378   2.2463   2.2538   2.2804
     2.7050   2.8457   2.8462   2.9962   3.0715   3.0737   3.3189   3.3324
     3.5166   3.5168   3.6649   3.7918   3.9025   3.9044   3.9612   3.9676
     3.9714   3.9726   4.0848   4.0883   4.2808   4.4190   4.5054   4.6711
     4.8009   4.9197   4.9858   5.0322   5.0919   5.1232   5.1478   5.1957
     5.2646   5.2974   5.2996   5.3062   5.3872   5.4192   5.4420   5.4526
     5.5144   5.5507   5.5538   5.5837   5.6663   5.6906   5.7292   5.7922
     5.8600   5.9000   5.9062   6.0434   6.0965   6.1851   6.2010   6.2030
     6.2085   6.2172   6.2287   6.2538   6.2735   6.3032   6.3705   6.4740
     6.5419   6.5784   6.5867   6.6173   6.6739   6.6948

          k =-0.5000-0.5774 0.0000 (183316 PWs)   bands (ev):

   -26.6148 -26.3843 -25.1388 -24.9442 -15.7753 -14.1677 -11.9362 -10.6096
    -8.9537  -8.9299  -8.4746  -8.4056  -8.0304  -7.5434  -7.5426  -7.4408
    -7.1732  -6.9302  -6.7056  -6.7050  -6.2453  -6.1831  -6.1828  -5.8753
    -5.8381  -5.4547  -5.4490  -5.4488  -5.4459  -5.4256  -5.3849  -5.1098
    -5.1093  -5.0350  -5.0050  -4.7813  -4.7638  -4.6309  -4.6100  -4.6088
    -4.5672  -4.5329  -4.5318  -4.5016  -4.4503  -4.4503  -4.4246  -4.4231
    -4.3381  -4.2754  -4.2678  -4.1862  -4.1858  -4.1853  -4.1796  -4.1795
    -4.0540  -4.0537  -4.0097  -3.9951  -3.9595  -3.9594  -3.9002  -3.8930
    -3.8918  -3.8719  -3.8572  -3.8569  -3.7900  -3.7898  -3.7191  -3.7188
    -3.6976  -3.6119  -3.6117  -3.5909  -3.5901  -3.5712  -3.5707  -3.5169
    -3.5165  -3.5154  -3.5154  -3.5147  -3.5142  -3.5113  -3.5037  -3.4478
    -3.4033  -3.4030  -3.3878  -3.3874  -3.3838  -3.3834  -3.3658  -3.3657
    -3.3514  -3.3510  -3.3485  -3.3298  -3.2871  -3.2870  -3.2825  -3.2772
    -3.2767  -3.2423  -3.2268  -3.2102  -3.2086  -3.2085  -3.1855  -3.1854
    -3.1552  -3.1363  -3.1355  -3.1157  -3.0816  -3.0701  -3.0697  -3.0450
    -3.0445  -3.0408  -3.0385  -3.0377  -3.0357  -3.0353  -3.0353  -2.9807
    -2.9509  -2.9206  -2.8851  -2.8837  -2.8837  -2.8756  -2.8535  -2.8482
    -2.8481  -2.8257  -2.8246  -2.8094  -2.8086  -2.7975  -2.7973  -2.7646
    -2.7644  -2.7499  -2.7497  -2.7485  -2.7485  -2.7269  -2.7267  -2.6889
    -2.6770  -2.6766  -2.6171  -2.6167  -2.5970  -2.5895  -2.5887  -2.5761
    -2.5718  -2.5496  -2.5492  -2.5480  -2.5434  -2.5284  -2.5283  -2.5275
    -2.5270  -2.5008  -2.5006  -2.4970  -2.4961  -2.4801  -2.4445  -2.4442
    -2.4421  -2.4414  -2.4093  -2.4062  -2.3998  -2.3843  -2.3719  -2.3717
    -2.3676  -2.3670  -2.3646  -2.3493  -2.3478  -2.3339  -2.3277  -2.3276
    -2.3243  -2.3132  -2.3130  -2.3101  -2.3100  -2.2806  -2.2609  -2.2511
    -2.2508  -2.2457  -2.2437  -2.2349  -2.2348  -2.2301  -2.2269  -2.2265
    -2.2225  -2.2221  -2.2087  -2.2086  -2.2084  -2.2081  -2.1985  -2.1982
    -2.1684  -2.1618  -2.1618  -2.1520  -2.1518  -2.1390  -2.1370  -2.1327
    -2.1272  -2.1270  -2.1254  -2.1227  -2.1225  -2.1091  -2.1077  -2.0874
    -2.0850  -2.0847  -2.0798  -2.0796  -2.0705  -2.0701  -2.0572  -2.0528
    -2.0497  -2.0190  -2.0153  -2.0148  -2.0118  -2.0074  -2.0063  -1.9983
    -1.9950  -1.9898  -1.9896  -1.9859  -1.9857  -1.9730  -1.9729  -1.9443
    -1.9318  -1.9317  -1.9165  -1.9027  -1.9023  -1.8737  -1.8540  -1.8539
    -1.8408  -1.8395  -1.8393  -1.8178  -1.8074  -1.8072  -1.8049  -1.8042
    -1.7908  -1.7903  -1.7886  -1.7877  -1.7779  -1.7744  -1.7502  -1.7500
    -1.7061  -1.7058  -1.6945  -1.6933  -1.6925  -1.6919  -1.6832  -1.6821
    -1.6818  -1.6811  -1.6735  -1.6732  -1.6628  -1.6616  -1.6343  -1.6337
    -1.6320  -1.6164  -1.6159  -1.6151  -1.6142  -1.6089  -1.5786  -1.5761
    -1.5676  -1.5607  -1.5606  -1.5577  -1.5394  -1.5382  -1.5299  -1.5218
    -1.4853  -1.4846  -1.4696  -1.4695  -1.4679  -1.4675  -1.4521  -1.4520
    -1.4456  -1.4448  -1.4418  -1.4247  -1.4245  -1.4216  -1.4192  -1.4158
    -1.4155  -1.4096  -1.3874  -1.3670  -1.3539  -1.3504  -1.3430  -1.3421
    -1.3271  -1.3269  -1.3192  -1.3191  -1.2895  -1.2890  -1.2689  -1.2680
    -1.2668  -1.2624  -1.2581  -1.2463  -1.2447  -1.2405  -1.2401  -1.2305
    -1.2304  -1.2294  -1.2288  -1.2241  -1.2230  -1.1956  -1.1954  -1.1876
    -1.1871  -1.1804  -1.1803  -1.1638  -1.1635  -1.1603  -1.1524  -1.1263
    -1.1262  -1.0998  -1.0931  -1.0906  -1.0904  -1.0874  -1.0873  -1.0847
    -1.0846  -1.0800  -1.0770  -1.0577  -1.0572  -1.0533  -1.0533  -1.0515
    -1.0513  -1.0427  -1.0413  -1.0411  -1.0198  -1.0197  -1.0160  -1.0136
    -1.0054  -1.0009  -1.0006  -0.9935  -0.9933  -0.9777  -0.9770  -0.9764
    -0.9638  -0.9625  -0.9615  -0.9615  -0.9605  -0.9604  -0.9557  -0.9355
    -0.9353  -0.9311  -0.9309  -0.9308  -0.9170  -0.9163  -0.9054  -0.9052
    -0.9046  -0.9046  -0.9026  -0.8970  -0.8955  -0.8911  -0.8866  -0.8861
    -0.8712  -0.8707  -0.8612  -0.8606  -0.8483  -0.8209  -0.8207  -0.8073
    -0.8072  -0.8038  -0.8037  -0.8035  -0.8032  -0.7874  -0.7873  -0.7769
    -0.7534  -0.7417  -0.7411  -0.7310  -0.6786  -0.6773  -0.6667  -0.4401
    -0.4339  -0.3982  -0.3982  -0.3000  -0.2996  -0.2507  -0.2483  -0.2000
    -0.0857  -0.0852  -0.0718  -0.0716   0.3635   0.4177   0.4211   0.5956
     0.5969   0.6118   0.6127   0.9225   0.9411   1.1003   1.2425   1.2529
     1.2537   1.2661   1.6182   1.6184   1.8099   2.0575   2.0746   2.0786
     2.0853   2.0923   2.0927   2.1357   2.1382   2.2458   2.2538   2.2800
     2.7046   2.8459   2.8460   2.9959   3.0716   3.0746   3.3217   3.3306
     3.5166   3.5169   3.6651   3.7999   3.9027   3.9043   3.9597   3.9654
     3.9716   3.9724   4.0857   4.0863   4.1416   4.5056   4.5299   4.6603
     4.8010   4.9212   4.9859   5.0201   5.0762   5.1234   5.1633   5.1849
     5.2374   5.2976   5.2997   5.3017   5.3719   5.4191   5.4399   5.4589
     5.4708   5.5500   5.5522   5.6044   5.7062   5.7335   5.8152   5.8448
     5.8774   5.9036   5.9595   6.0401   6.1380   6.1826   6.1977   6.2012
     6.2029   6.2169   6.2260   6.2683   6.2757   6.3101   6.3929   6.4471
     6.5156   6.5418   6.5918   6.6050   6.6348   6.6550

     the Fermi energy is     0.6887 ev

!    total energy              =  -17322.00547607 Ry
     estimated scf accuracy    <          3.4E-09 Ry
     smearing contrib. (-TS)   =      -0.01037958 Ry
     internal energy E=F+TS    =  -17321.99509649 Ry

     The total energy is F=E-TS. E is the sum of the following terms:
     one-electron contribution = -199416.10197331 Ry
     hartree contribution      =  100670.16241467 Ry
     xc contribution           =   -3628.65867910 Ry
     ewald contribution        =   92264.66335217 Ry
     one-center paw contrib.   =   -7212.06021093 Ry

     convergence has been achieved in   1 iterations

     Writing all to output data dir ./tmp/cu_pvdf.save/ :
     XML data file, charge density, pseudopotentials, collected wavefunctions

     init_run     :    182.31s CPU    189.58s WALL (       1 calls)
     electrons    :   4020.84s CPU   4108.49s WALL (       1 calls)

     Called by init_run:
     wfcinit      :    175.81s CPU    182.27s WALL (       1 calls)
     potinit      :      2.30s CPU      2.41s WALL (       1 calls)
     hinit0       :      0.61s CPU      0.65s WALL (       1 calls)

     Called by electrons:
     c_bands      :   3929.29s CPU   4011.46s WALL (       2 calls)
     sum_band     :     87.86s CPU     92.39s WALL (       2 calls)
     v_of_rho     :      0.66s CPU      0.72s WALL (       2 calls)
     newd         :      3.52s CPU      4.83s WALL (       2 calls)
     PAW_pot      :      2.48s CPU      2.48s WALL (       2 calls)
     mix_rho      :      0.00s CPU      0.00s WALL (       2 calls)

     Called by c_bands:
     init_us_2    :      5.62s CPU      5.75s WALL (      50 calls)
     cegterg      :   3917.66s CPU   3999.41s WALL (      30 calls)

     Called by *egterg:
     cdiaghg      :    393.14s CPU    405.95s WALL (     520 calls)
     h_psi        :   1503.66s CPU   1563.23s WALL (     550 calls)
     s_psi        :    430.70s CPU    431.05s WALL (     550 calls)
     g_psi        :      7.23s CPU      7.25s WALL (     510 calls)

     Called by h_psi:
     h_psi:calbec :    461.38s CPU    464.26s WALL (     550 calls)
     vloc_psi     :    601.12s CPU    655.11s WALL (     550 calls)
                                        0.00s GPU  (     550 calls)
     add_vuspsi   :    431.36s CPU    431.79s WALL (     550 calls)

     General routines
     calbec       :    507.39s CPU    510.50s WALL (     570 calls)
     fft          :      0.81s CPU      0.87s WALL (      25 calls)
     ffts         :      0.68s CPU      0.68s WALL (       4 calls)
     fftw         :    531.44s CPU    585.66s WALL (  221430 calls)
     interpolate  :      0.71s CPU      0.72s WALL (       2 calls)

     Parallel routines

     PWSCF        :      1h10m CPU      1h12m WALL


   This run was terminated on:  11:13:33  23Jun2026            

=------------------------------------------------------------------------------=
   JOB DONE.
=------------------------------------------------------------------------------=
